%%MatrixMarket matrix coordinate integer general
162 324 1458
1 1 1
1 10 1
1 53 1
1 163 1
1 172 1
1 215 1
1 217 1
1 226 1
1 269 1
2 2 1
2 11 1
2 54 1
2 164 1
2 173 1
2 216 1
2 218 1
2 227 1
2 270 1
3 3 1
3 12 1
3 47 1
3 165 1
3 174 1
3 209 1
3 219 1
3 228 1
3 263 1
4 4 1
4 13 1
4 51 1
4 166 1
4 175 1
4 213 1
4 220 1
4 229 1
4 267 1
5 5 1
5 14 1
5 49 1
5 167 1
5 176 1
5 211 1
5 221 1
5 230 1
5 265 1
6 6 1
6 15 1
6 50 1
6 168 1
6 177 1
6 212 1
6 222 1
6 231 1
6 266 1
7 7 1
7 16 1
7 46 1
7 169 1
7 178 1
7 208 1
7 223 1
7 232 1
7 262 1
8 8 1
8 17 1
8 52 1
8 170 1
8 179 1
8 214 1
8 224 1
8 233 1
8 268 1
9 9 1
9 18 1
9 48 1
9 171 1
9 180 1
9 210 1
9 225 1
9 234 1
9 264 1
10 1 1
10 33 1
10 42 1
10 163 1
10 195 1
10 204 1
10 217 1
10 249 1
10 258 1
11 2 1
11 35 1
11 44 1
11 164 1
11 197 1
11 206 1
11 218 1
11 251 1
11 260 1
12 3 1
12 28 1
12 37 1
12 165 1
12 190 1
12 199 1
12 219 1
12 244 1
12 253 1
13 4 1
13 36 1
13 45 1
13 166 1
13 198 1
13 207 1
13 220 1
13 252 1
13 261 1
14 5 1
14 29 1
14 38 1
14 167 1
14 191 1
14 200 1
14 221 1
14 245 1
14 254 1
15 6 1
15 30 1
15 39 1
15 168 1
15 192 1
15 201 1
15 222 1
15 246 1
15 255 1
16 7 1
16 31 1
16 40 1
16 169 1
16 193 1
16 202 1
16 223 1
16 247 1
16 256 1
17 8 1
17 32 1
17 41 1
17 170 1
17 194 1
17 203 1
17 224 1
17 248 1
17 257 1
18 9 1
18 34 1
18 43 1
18 171 1
18 196 1
18 205 1
18 225 1
18 250 1
18 259 1
19 10 1
19 22 1
19 33 1
19 172 1
19 184 1
19 195 1
19 226 1
19 238 1
19 249 1
20 11 1
20 19 1
20 35 1
20 173 1
20 181 1
20 197 1
20 227 1
20 235 1
20 251 1
21 12 1
21 25 1
21 28 1
21 174 1
21 187 1
21 190 1
21 228 1
21 241 1
21 244 1
22 13 1
22 20 1
22 36 1
22 175 1
22 182 1
22 198 1
22 229 1
22 236 1
22 252 1
23 14 1
23 21 1
23 29 1
23 176 1
23 183 1
23 191 1
23 230 1
23 237 1
23 245 1
24 15 1
24 27 1
24 30 1
24 177 1
24 189 1
24 192 1
24 231 1
24 243 1
24 246 1
25 16 1
25 23 1
25 31 1
25 178 1
25 185 1
25 193 1
25 232 1
25 239 1
25 247 1
26 17 1
26 24 1
26 32 1
26 179 1
26 186 1
26 194 1
26 233 1
26 240 1
26 248 1
27 18 1
27 26 1
27 34 1
27 180 1
27 188 1
27 196 1
27 234 1
27 242 1
27 250 1
28 55 1
28 64 1
28 107 1
28 163 1
28 172 1
28 215 1
28 271 1
28 280 1
28 323 1
29 56 1
29 65 1
29 108 1
29 164 1
29 173 1
29 216 1
29 272 1
29 281 1
29 324 1
30 57 1
30 66 1
30 101 1
30 165 1
30 174 1
30 209 1
30 273 1
30 282 1
30 317 1
31 58 1
31 67 1
31 105 1
31 166 1
31 175 1
31 213 1
31 274 1
31 283 1
31 321 1
32 59 1
32 68 1
32 103 1
32 167 1
32 176 1
32 211 1
32 275 1
32 284 1
32 319 1
33 60 1
33 69 1
33 104 1
33 168 1
33 177 1
33 212 1
33 276 1
33 285 1
33 320 1
34 61 1
34 70 1
34 100 1
34 169 1
34 178 1
34 208 1
34 277 1
34 286 1
34 316 1
35 62 1
35 71 1
35 106 1
35 170 1
35 179 1
35 214 1
35 278 1
35 287 1
35 322 1
36 63 1
36 72 1
36 102 1
36 171 1
36 180 1
36 210 1
36 279 1
36 288 1
36 318 1
37 55 1
37 87 1
37 96 1
37 163 1
37 195 1
37 204 1
37 271 1
37 303 1
37 312 1
38 56 1
38 89 1
38 98 1
38 164 1
38 197 1
38 206 1
38 272 1
38 305 1
38 314 1
39 57 1
39 82 1
39 91 1
39 165 1
39 190 1
39 199 1
39 273 1
39 298 1
39 307 1
40 58 1
40 90 1
40 99 1
40 166 1
40 198 1
40 207 1
40 274 1
40 306 1
40 315 1
41 59 1
41 83 1
41 92 1
41 167 1
41 191 1
41 200 1
41 275 1
41 299 1
41 308 1
42 60 1
42 84 1
42 93 1
42 168 1
42 192 1
42 201 1
42 276 1
42 300 1
42 309 1
43 61 1
43 85 1
43 94 1
43 169 1
43 193 1
43 202 1
43 277 1
43 301 1
43 310 1
44 62 1
44 86 1
44 95 1
44 170 1
44 194 1
44 203 1
44 278 1
44 302 1
44 311 1
45 63 1
45 88 1
45 97 1
45 171 1
45 196 1
45 205 1
45 279 1
45 304 1
45 313 1
46 64 1
46 76 1
46 87 1
46 172 1
46 184 1
46 195 1
46 280 1
46 292 1
46 303 1
47 65 1
47 73 1
47 89 1
47 173 1
47 181 1
47 197 1
47 281 1
47 289 1
47 305 1
48 66 1
48 79 1
48 82 1
48 174 1
48 187 1
48 190 1
48 282 1
48 295 1
48 298 1
49 67 1
49 74 1
49 90 1
49 175 1
49 182 1
49 198 1
49 283 1
49 290 1
49 306 1
50 68 1
50 75 1
50 83 1
50 176 1
50 183 1
50 191 1
50 284 1
50 291 1
50 299 1
51 69 1
51 81 1
51 84 1
51 177 1
51 189 1
51 192 1
51 285 1
51 297 1
51 300 1
52 70 1
52 77 1
52 85 1
52 178 1
52 185 1
52 193 1
52 286 1
52 293 1
52 301 1
53 71 1
53 78 1
53 86 1
53 179 1
53 186 1
53 194 1
53 287 1
53 294 1
53 302 1
54 72 1
54 80 1
54 88 1
54 180 1
54 188 1
54 196 1
54 288 1
54 296 1
54 304 1
55 109 1
55 118 1
55 161 1
55 217 1
55 226 1
55 269 1
55 271 1
55 280 1
55 323 1
56 110 1
56 119 1
56 162 1
56 218 1
56 227 1
56 270 1
56 272 1
56 281 1
56 324 1
57 111 1
57 120 1
57 155 1
57 219 1
57 228 1
57 263 1
57 273 1
57 282 1
57 317 1
58 112 1
58 121 1
58 159 1
58 220 1
58 229 1
58 267 1
58 274 1
58 283 1
58 321 1
59 113 1
59 122 1
59 157 1
59 221 1
59 230 1
59 265 1
59 275 1
59 284 1
59 319 1
60 114 1
60 123 1
60 158 1
60 222 1
60 231 1
60 266 1
60 276 1
60 285 1
60 320 1
61 115 1
61 124 1
61 154 1
61 223 1
61 232 1
61 262 1
61 277 1
61 286 1
61 316 1
62 116 1
62 125 1
62 160 1
62 224 1
62 233 1
62 268 1
62 278 1
62 287 1
62 322 1
63 117 1
63 126 1
63 156 1
63 225 1
63 234 1
63 264 1
63 279 1
63 288 1
63 318 1
64 109 1
64 141 1
64 150 1
64 217 1
64 249 1
64 258 1
64 271 1
64 303 1
64 312 1
65 110 1
65 143 1
65 152 1
65 218 1
65 251 1
65 260 1
65 272 1
65 305 1
65 314 1
66 111 1
66 136 1
66 145 1
66 219 1
66 244 1
66 253 1
66 273 1
66 298 1
66 307 1
67 112 1
67 144 1
67 153 1
67 220 1
67 252 1
67 261 1
67 274 1
67 306 1
67 315 1
68 113 1
68 137 1
68 146 1
68 221 1
68 245 1
68 254 1
68 275 1
68 299 1
68 308 1
69 114 1
69 138 1
69 147 1
69 222 1
69 246 1
69 255 1
69 276 1
69 300 1
69 309 1
70 115 1
70 139 1
70 148 1
70 223 1
70 247 1
70 256 1
70 277 1
70 301 1
70 310 1
71 116 1
71 140 1
71 149 1
71 224 1
71 248 1
71 257 1
71 278 1
71 302 1
71 311 1
72 117 1
72 142 1
72 151 1
72 225 1
72 250 1
72 259 1
72 279 1
72 304 1
72 313 1
73 118 1
73 130 1
73 141 1
73 226 1
73 238 1
73 249 1
73 280 1
73 292 1
73 303 1
74 119 1
74 127 1
74 143 1
74 227 1
74 235 1
74 251 1
74 281 1
74 289 1
74 305 1
75 120 1
75 133 1
75 136 1
75 228 1
75 241 1
75 244 1
75 282 1
75 295 1
75 298 1
76 121 1
76 128 1
76 144 1
76 229 1
76 236 1
76 252 1
76 283 1
76 290 1
76 306 1
77 122 1
77 129 1
77 137 1
77 230 1
77 237 1
77 245 1
77 284 1
77 291 1
77 299 1
78 123 1
78 135 1
78 138 1
78 231 1
78 243 1
78 246 1
78 285 1
78 297 1
78 300 1
79 124 1
79 131 1
79 139 1
79 232 1
79 239 1
79 247 1
79 286 1
79 293 1
79 301 1
80 125 1
80 132 1
80 140 1
80 233 1
80 240 1
80 248 1
80 287 1
80 294 1
80 302 1
81 126 1
81 134 1
81 142 1
81 234 1
81 242 1
81 250 1
81 288 1
81 296 1
81 304 1
82 1 1
82 10 1
82 28 1
82 222 1
82 231 1
82 249 1
82 279 1
82 288 1
82 306 1
83 2 1
83 11 1
83 29 1
83 224 1
83 233 1
83 251 1
83 276 1
83 285 1
83 303 1
84 3 1
84 12 1
84 30 1
84 217 1
84 226 1
84 244 1
84 274 1
84 283 1
84 301 1
85 4 1
85 13 1
85 31 1
85 225 1
85 234 1
85 252 1
85 278 1
85 287 1
85 305 1
86 5 1
86 14 1
86 32 1
86 218 1
86 227 1
86 245 1
86 271 1
86 280 1
86 298 1
87 6 1
87 15 1
87 33 1
87 219 1
87 228 1
87 246 1
87 277 1
87 286 1
87 304 1
88 7 1
88 16 1
88 34 1
88 220 1
88 229 1
88 247 1
88 272 1
88 281 1
88 299 1
89 8 1
89 17 1
89 35 1
89 221 1
89 230 1
89 248 1
89 273 1
89 282 1
89 300 1
90 9 1
90 18 1
90 36 1
90 223 1
90 232 1
90 250 1
90 275 1
90 284 1
90 302 1
91 1 1
91 19 1
91 37 1
91 222 1
91 240 1
91 258 1
91 279 1
91 297 1
91 315 1
92 2 1
92 20 1
92 38 1
92 224 1
92 242 1
92 260 1
92 276 1
92 294 1
92 312 1
93 3 1
93 21 1
93 39 1
93 217 1
93 235 1
93 253 1
93 274 1
93 292 1
93 310 1
94 4 1
94 22 1
94 40 1
94 225 1
94 243 1
94 261 1
94 278 1
94 296 1
94 314 1
95 5 1
95 23 1
95 41 1
95 218 1
95 236 1
95 254 1
95 271 1
95 289 1
95 307 1
96 6 1
96 24 1
96 42 1
96 219 1
96 237 1
96 255 1
96 277 1
96 295 1
96 313 1
97 7 1
97 25 1
97 43 1
97 220 1
97 238 1
97 256 1
97 272 1
97 290 1
97 308 1
98 8 1
98 26 1
98 44 1
98 221 1
98 239 1
98 257 1
98 273 1
98 291 1
98 309 1
99 9 1
99 27 1
99 45 1
99 223 1
99 241 1
99 259 1
99 275 1
99 293 1
99 311 1
100 10 1
100 19 1
100 46 1
100 231 1
100 240 1
100 267 1
100 288 1
100 297 1
100 324 1
101 11 1
101 20 1
101 47 1
101 233 1
101 242 1
101 269 1
101 285 1
101 294 1
101 321 1
102 12 1
102 21 1
102 48 1
102 226 1
102 235 1
102 262 1
102 283 1
102 292 1
102 319 1
103 13 1
103 22 1
103 49 1
103 234 1
103 243 1
103 270 1
103 287 1
103 296 1
103 323 1
104 14 1
104 23 1
104 50 1
104 227 1
104 236 1
104 263 1
104 280 1
104 289 1
104 316 1
105 15 1
105 24 1
105 51 1
105 228 1
105 237 1
105 264 1
105 286 1
105 295 1
105 322 1
106 16 1
106 25 1
106 52 1
106 229 1
106 238 1
106 265 1
106 281 1
106 290 1
106 317 1
107 17 1
107 26 1
107 53 1
107 230 1
107 239 1
107 266 1
107 282 1
107 291 1
107 318 1
108 18 1
108 27 1
108 54 1
108 232 1
108 241 1
108 268 1
108 284 1
108 293 1
108 320 1
109 56 1
109 65 1
109 83 1
109 112 1
109 121 1
109 139 1
109 279 1
109 288 1
109 306 1
110 58 1
110 67 1
110 85 1
110 109 1
110 118 1
110 136 1
110 276 1
110 285 1
110 303 1
111 59 1
111 68 1
111 86 1
111 115 1
111 124 1
111 142 1
111 274 1
111 283 1
111 301 1
112 55 1
112 64 1
112 82 1
112 110 1
112 119 1
112 137 1
112 278 1
112 287 1
112 305 1
113 61 1
113 70 1
113 88 1
113 111 1
113 120 1
113 138 1
113 271 1
113 280 1
113 298 1
114 62 1
114 71 1
114 89 1
114 117 1
114 126 1
114 144 1
114 277 1
114 286 1
114 304 1
115 57 1
115 66 1
115 84 1
115 113 1
115 122 1
115 140 1
115 272 1
115 281 1
115 299 1
116 63 1
116 72 1
116 90 1
116 114 1
116 123 1
116 141 1
116 273 1
116 282 1
116 300 1
117 60 1
117 69 1
117 87 1
117 116 1
117 125 1
117 143 1
117 275 1
117 284 1
117 302 1
118 56 1
118 74 1
118 92 1
118 112 1
118 130 1
118 148 1
118 279 1
118 297 1
118 315 1
119 58 1
119 76 1
119 94 1
119 109 1
119 127 1
119 145 1
119 276 1
119 294 1
119 312 1
120 59 1
120 77 1
120 95 1
120 115 1
120 133 1
120 151 1
120 274 1
120 292 1
120 310 1
121 55 1
121 73 1
121 91 1
121 110 1
121 128 1
121 146 1
121 278 1
121 296 1
121 314 1
122 61 1
122 79 1
122 97 1
122 111 1
122 129 1
122 147 1
122 271 1
122 289 1
122 307 1
123 62 1
123 80 1
123 98 1
123 117 1
123 135 1
123 153 1
123 277 1
123 295 1
123 313 1
124 57 1
124 75 1
124 93 1
124 113 1
124 131 1
124 149 1
124 272 1
124 290 1
124 308 1
125 63 1
125 81 1
125 99 1
125 114 1
125 132 1
125 150 1
125 273 1
125 291 1
125 309 1
126 60 1
126 78 1
126 96 1
126 116 1
126 134 1
126 152 1
126 275 1
126 293 1
126 311 1
127 65 1
127 74 1
127 101 1
127 121 1
127 130 1
127 157 1
127 288 1
127 297 1
127 324 1
128 67 1
128 76 1
128 103 1
128 118 1
128 127 1
128 154 1
128 285 1
128 294 1
128 321 1
129 68 1
129 77 1
129 104 1
129 124 1
129 133 1
129 160 1
129 283 1
129 292 1
129 319 1
130 64 1
130 73 1
130 100 1
130 119 1
130 128 1
130 155 1
130 287 1
130 296 1
130 323 1
131 70 1
131 79 1
131 106 1
131 120 1
131 129 1
131 156 1
131 280 1
131 289 1
131 316 1
132 71 1
132 80 1
132 107 1
132 126 1
132 135 1
132 162 1
132 286 1
132 295 1
132 322 1
133 66 1
133 75 1
133 102 1
133 122 1
133 131 1
133 158 1
133 281 1
133 290 1
133 317 1
134 72 1
134 81 1
134 108 1
134 123 1
134 132 1
134 159 1
134 282 1
134 291 1
134 318 1
135 69 1
135 78 1
135 105 1
135 125 1
135 134 1
135 161 1
135 284 1
135 293 1
135 320 1
136 112 1
136 121 1
136 139 1
136 167 1
136 176 1
136 194 1
136 222 1
136 231 1
136 249 1
137 109 1
137 118 1
137 136 1
137 169 1
137 178 1
137 196 1
137 224 1
137 233 1
137 251 1
138 115 1
138 124 1
138 142 1
138 170 1
138 179 1
138 197 1
138 217 1
138 226 1
138 244 1
139 110 1
139 119 1
139 137 1
139 165 1
139 174 1
139 192 1
139 225 1
139 234 1
139 252 1
140 111 1
140 120 1
140 138 1
140 171 1
140 180 1
140 198 1
140 218 1
140 227 1
140 245 1
141 117 1
141 126 1
141 144 1
141 164 1
141 173 1
141 191 1
141 219 1
141 228 1
141 246 1
142 113 1
142 122 1
142 140 1
142 168 1
142 177 1
142 195 1
142 220 1
142 229 1
142 247 1
143 114 1
143 123 1
143 141 1
143 166 1
143 175 1
143 193 1
143 221 1
143 230 1
143 248 1
144 116 1
144 125 1
144 143 1
144 163 1
144 172 1
144 190 1
144 223 1
144 232 1
144 250 1
145 112 1
145 130 1
145 148 1
145 167 1
145 185 1
145 203 1
145 222 1
145 240 1
145 258 1
146 109 1
146 127 1
146 145 1
146 169 1
146 187 1
146 205 1
146 224 1
146 242 1
146 260 1
147 115 1
147 133 1
147 151 1
147 170 1
147 188 1
147 206 1
147 217 1
147 235 1
147 253 1
148 110 1
148 128 1
148 146 1
148 165 1
148 183 1
148 201 1
148 225 1
148 243 1
148 261 1
149 111 1
149 129 1
149 147 1
149 171 1
149 189 1
149 207 1
149 218 1
149 236 1
149 254 1
150 117 1
150 135 1
150 153 1
150 164 1
150 182 1
150 200 1
150 219 1
150 237 1
150 255 1
151 113 1
151 131 1
151 149 1
151 168 1
151 186 1
151 204 1
151 220 1
151 238 1
151 256 1
152 114 1
152 132 1
152 150 1
152 166 1
152 184 1
152 202 1
152 221 1
152 239 1
152 257 1
153 116 1
153 134 1
153 152 1
153 163 1
153 181 1
153 199 1
153 223 1
153 241 1
153 259 1
154 121 1
154 130 1
154 157 1
154 176 1
154 185 1
154 212 1
154 231 1
154 240 1
154 267 1
155 118 1
155 127 1
155 154 1
155 178 1
155 187 1
155 214 1
155 233 1
155 242 1
155 269 1
156 124 1
156 133 1
156 160 1
156 179 1
156 188 1
156 215 1
156 226 1
156 235 1
156 262 1
157 119 1
157 128 1
157 155 1
157 174 1
157 183 1
157 210 1
157 234 1
157 243 1
157 270 1
158 120 1
158 129 1
158 156 1
158 180 1
158 189 1
158 216 1
158 227 1
158 236 1
158 263 1
159 126 1
159 135 1
159 162 1
159 173 1
159 182 1
159 209 1
159 228 1
159 237 1
159 264 1
160 122 1
160 131 1
160 158 1
160 177 1
160 186 1
160 213 1
160 229 1
160 238 1
160 265 1
161 123 1
161 132 1
161 159 1
161 175 1
161 184 1
161 211 1
161 230 1
161 239 1
161 266 1
162 125 1
162 134 1
162 161 1
162 172 1
162 181 1
162 208 1
162 232 1
162 241 1
162 268 1
