%%MatrixMarket matrix coordinate integer general
306 612 2754
1 1 1
1 52 1
1 69 1
1 103 1
1 154 1
1 171 1
1 307 1
1 358 1
1 375 1
2 2 1
2 53 1
2 70 1
2 104 1
2 155 1
2 172 1
2 308 1
2 359 1
2 376 1
3 3 1
3 54 1
3 71 1
3 105 1
3 156 1
3 173 1
3 309 1
3 360 1
3 377 1
4 4 1
4 55 1
4 72 1
4 106 1
4 157 1
4 174 1
4 310 1
4 361 1
4 378 1
5 5 1
5 56 1
5 73 1
5 107 1
5 158 1
5 175 1
5 311 1
5 362 1
5 379 1
6 6 1
6 57 1
6 74 1
6 108 1
6 159 1
6 176 1
6 312 1
6 363 1
6 380 1
7 7 1
7 58 1
7 75 1
7 109 1
7 160 1
7 177 1
7 313 1
7 364 1
7 381 1
8 8 1
8 59 1
8 76 1
8 110 1
8 161 1
8 178 1
8 314 1
8 365 1
8 382 1
9 9 1
9 60 1
9 77 1
9 111 1
9 162 1
9 179 1
9 315 1
9 366 1
9 383 1
10 10 1
10 61 1
10 78 1
10 112 1
10 163 1
10 180 1
10 316 1
10 367 1
10 384 1
11 11 1
11 62 1
11 79 1
11 113 1
11 164 1
11 181 1
11 317 1
11 368 1
11 385 1
12 12 1
12 63 1
12 80 1
12 114 1
12 165 1
12 182 1
12 318 1
12 369 1
12 386 1
13 13 1
13 64 1
13 81 1
13 115 1
13 166 1
13 183 1
13 319 1
13 370 1
13 387 1
14 14 1
14 65 1
14 82 1
14 116 1
14 167 1
14 184 1
14 320 1
14 371 1
14 388 1
15 15 1
15 66 1
15 83 1
15 117 1
15 168 1
15 185 1
15 321 1
15 372 1
15 389 1
16 16 1
16 67 1
16 84 1
16 118 1
16 169 1
16 186 1
16 322 1
16 373 1
16 390 1
17 17 1
17 68 1
17 85 1
17 119 1
17 170 1
17 187 1
17 323 1
17 374 1
17 391 1
18 18 1
18 52 1
18 86 1
18 120 1
18 154 1
18 188 1
18 324 1
18 358 1
18 392 1
19 19 1
19 53 1
19 87 1
19 121 1
19 155 1
19 189 1
19 325 1
19 359 1
19 393 1
20 20 1
20 54 1
20 88 1
20 122 1
20 156 1
20 190 1
20 326 1
20 360 1
20 394 1
21 21 1
21 55 1
21 89 1
21 123 1
21 157 1
21 191 1
21 327 1
21 361 1
21 395 1
22 22 1
22 56 1
22 90 1
22 124 1
22 158 1
22 192 1
22 328 1
22 362 1
22 396 1
23 23 1
23 57 1
23 91 1
23 125 1
23 159 1
23 193 1
23 329 1
23 363 1
23 397 1
24 24 1
24 58 1
24 92 1
24 126 1
24 160 1
24 194 1
24 330 1
24 364 1
24 398 1
25 25 1
25 59 1
25 93 1
25 127 1
25 161 1
25 195 1
25 331 1
25 365 1
25 399 1
26 26 1
26 60 1
26 94 1
26 128 1
26 162 1
26 196 1
26 332 1
26 366 1
26 400 1
27 27 1
27 61 1
27 95 1
27 129 1
27 163 1
27 197 1
27 333 1
27 367 1
27 401 1
28 28 1
28 62 1
28 96 1
28 130 1
28 164 1
28 198 1
28 334 1
28 368 1
28 402 1
29 29 1
29 63 1
29 97 1
29 131 1
29 165 1
29 199 1
29 335 1
29 369 1
29 403 1
30 30 1
30 64 1
30 98 1
30 132 1
30 166 1
30 200 1
30 336 1
30 370 1
30 404 1
31 31 1
31 65 1
31 99 1
31 133 1
31 167 1
31 201 1
31 337 1
31 371 1
31 405 1
32 32 1
32 66 1
32 100 1
32 134 1
32 168 1
32 202 1
32 338 1
32 372 1
32 406 1
33 33 1
33 67 1
33 101 1
33 135 1
33 169 1
33 203 1
33 339 1
33 373 1
33 407 1
34 34 1
34 68 1
34 102 1
34 136 1
34 170 1
34 204 1
34 340 1
34 374 1
34 408 1
35 35 1
35 69 1
35 86 1
35 137 1
35 171 1
35 188 1
35 341 1
35 375 1
35 392 1
36 36 1
36 70 1
36 87 1
36 138 1
36 172 1
36 189 1
36 342 1
36 376 1
36 393 1
37 37 1
37 71 1
37 88 1
37 139 1
37 173 1
37 190 1
37 343 1
37 377 1
37 394 1
38 38 1
38 72 1
38 89 1
38 140 1
38 174 1
38 191 1
38 344 1
38 378 1
38 395 1
39 39 1
39 73 1
39 90 1
39 141 1
39 175 1
39 192 1
39 345 1
39 379 1
39 396 1
40 40 1
40 74 1
40 91 1
40 142 1
40 176 1
40 193 1
40 346 1
40 380 1
40 397 1
41 41 1
41 75 1
41 92 1
41 143 1
41 177 1
41 194 1
41 347 1
41 381 1
41 398 1
42 42 1
42 76 1
42 93 1
42 144 1
42 178 1
42 195 1
42 348 1
42 382 1
42 399 1
43 43 1
43 77 1
43 94 1
43 145 1
43 179 1
43 196 1
43 349 1
43 383 1
43 400 1
44 44 1
44 78 1
44 95 1
44 146 1
44 180 1
44 197 1
44 350 1
44 384 1
44 401 1
45 45 1
45 79 1
45 96 1
45 147 1
45 181 1
45 198 1
45 351 1
45 385 1
45 402 1
46 46 1
46 80 1
46 97 1
46 148 1
46 182 1
46 199 1
46 352 1
46 386 1
46 403 1
47 47 1
47 81 1
47 98 1
47 149 1
47 183 1
47 200 1
47 353 1
47 387 1
47 404 1
48 48 1
48 82 1
48 99 1
48 150 1
48 184 1
48 201 1
48 354 1
48 388 1
48 405 1
49 49 1
49 83 1
49 100 1
49 151 1
49 185 1
49 202 1
49 355 1
49 389 1
49 406 1
50 50 1
50 84 1
50 101 1
50 152 1
50 186 1
50 203 1
50 356 1
50 390 1
50 407 1
51 51 1
51 85 1
51 102 1
51 153 1
51 187 1
51 204 1
51 357 1
51 391 1
51 408 1
52 1 1
52 52 1
52 69 1
52 205 1
52 256 1
52 273 1
52 409 1
52 460 1
52 477 1
53 2 1
53 53 1
53 70 1
53 206 1
53 257 1
53 274 1
53 410 1
53 461 1
53 478 1
54 3 1
54 54 1
54 71 1
54 207 1
54 258 1
54 275 1
54 411 1
54 462 1
54 479 1
55 4 1
55 55 1
55 72 1
55 208 1
55 259 1
55 276 1
55 412 1
55 463 1
55 480 1
56 5 1
56 56 1
56 73 1
56 209 1
56 260 1
56 277 1
56 413 1
56 464 1
56 481 1
57 6 1
57 57 1
57 74 1
57 210 1
57 261 1
57 278 1
57 414 1
57 465 1
57 482 1
58 7 1
58 58 1
58 75 1
58 211 1
58 262 1
58 279 1
58 415 1
58 466 1
58 483 1
59 8 1
59 59 1
59 76 1
59 212 1
59 263 1
59 280 1
59 416 1
59 467 1
59 484 1
60 9 1
60 60 1
60 77 1
60 213 1
60 264 1
60 281 1
60 417 1
60 468 1
60 485 1
61 10 1
61 61 1
61 78 1
61 214 1
61 265 1
61 282 1
61 418 1
61 469 1
61 486 1
62 11 1
62 62 1
62 79 1
62 215 1
62 266 1
62 283 1
62 419 1
62 470 1
62 487 1
63 12 1
63 63 1
63 80 1
63 216 1
63 267 1
63 284 1
63 420 1
63 471 1
63 488 1
64 13 1
64 64 1
64 81 1
64 217 1
64 268 1
64 285 1
64 421 1
64 472 1
64 489 1
65 14 1
65 65 1
65 82 1
65 218 1
65 269 1
65 286 1
65 422 1
65 473 1
65 490 1
66 15 1
66 66 1
66 83 1
66 219 1
66 270 1
66 287 1
66 423 1
66 474 1
66 491 1
67 16 1
67 67 1
67 84 1
67 220 1
67 271 1
67 288 1
67 424 1
67 475 1
67 492 1
68 17 1
68 68 1
68 85 1
68 221 1
68 272 1
68 289 1
68 425 1
68 476 1
68 493 1
69 18 1
69 52 1
69 86 1
69 222 1
69 256 1
69 290 1
69 426 1
69 460 1
69 494 1
70 19 1
70 53 1
70 87 1
70 223 1
70 257 1
70 291 1
70 427 1
70 461 1
70 495 1
71 20 1
71 54 1
71 88 1
71 224 1
71 258 1
71 292 1
71 428 1
71 462 1
71 496 1
72 21 1
72 55 1
72 89 1
72 225 1
72 259 1
72 293 1
72 429 1
72 463 1
72 497 1
73 22 1
73 56 1
73 90 1
73 226 1
73 260 1
73 294 1
73 430 1
73 464 1
73 498 1
74 23 1
74 57 1
74 91 1
74 227 1
74 261 1
74 295 1
74 431 1
74 465 1
74 499 1
75 24 1
75 58 1
75 92 1
75 228 1
75 262 1
75 296 1
75 432 1
75 466 1
75 500 1
76 25 1
76 59 1
76 93 1
76 229 1
76 263 1
76 297 1
76 433 1
76 467 1
76 501 1
77 26 1
77 60 1
77 94 1
77 230 1
77 264 1
77 298 1
77 434 1
77 468 1
77 502 1
78 27 1
78 61 1
78 95 1
78 231 1
78 265 1
78 299 1
78 435 1
78 469 1
78 503 1
79 28 1
79 62 1
79 96 1
79 232 1
79 266 1
79 300 1
79 436 1
79 470 1
79 504 1
80 29 1
80 63 1
80 97 1
80 233 1
80 267 1
80 301 1
80 437 1
80 471 1
80 505 1
81 30 1
81 64 1
81 98 1
81 234 1
81 268 1
81 302 1
81 438 1
81 472 1
81 506 1
82 31 1
82 65 1
82 99 1
82 235 1
82 269 1
82 303 1
82 439 1
82 473 1
82 507 1
83 32 1
83 66 1
83 100 1
83 236 1
83 270 1
83 304 1
83 440 1
83 474 1
83 508 1
84 33 1
84 67 1
84 101 1
84 237 1
84 271 1
84 305 1
84 441 1
84 475 1
84 509 1
85 34 1
85 68 1
85 102 1
85 238 1
85 272 1
85 306 1
85 442 1
85 476 1
85 510 1
86 35 1
86 69 1
86 86 1
86 239 1
86 273 1
86 290 1
86 443 1
86 477 1
86 494 1
87 36 1
87 70 1
87 87 1
87 240 1
87 274 1
87 291 1
87 444 1
87 478 1
87 495 1
88 37 1
88 71 1
88 88 1
88 241 1
88 275 1
88 292 1
88 445 1
88 479 1
88 496 1
89 38 1
89 72 1
89 89 1
89 242 1
89 276 1
89 293 1
89 446 1
89 480 1
89 497 1
90 39 1
90 73 1
90 90 1
90 243 1
90 277 1
90 294 1
90 447 1
90 481 1
90 498 1
91 40 1
91 74 1
91 91 1
91 244 1
91 278 1
91 295 1
91 448 1
91 482 1
91 499 1
92 41 1
92 75 1
92 92 1
92 245 1
92 279 1
92 296 1
92 449 1
92 483 1
92 500 1
93 42 1
93 76 1
93 93 1
93 246 1
93 280 1
93 297 1
93 450 1
93 484 1
93 501 1
94 43 1
94 77 1
94 94 1
94 247 1
94 281 1
94 298 1
94 451 1
94 485 1
94 502 1
95 44 1
95 78 1
95 95 1
95 248 1
95 282 1
95 299 1
95 452 1
95 486 1
95 503 1
96 45 1
96 79 1
96 96 1
96 249 1
96 283 1
96 300 1
96 453 1
96 487 1
96 504 1
97 46 1
97 80 1
97 97 1
97 250 1
97 284 1
97 301 1
97 454 1
97 488 1
97 505 1
98 47 1
98 81 1
98 98 1
98 251 1
98 285 1
98 302 1
98 455 1
98 489 1
98 506 1
99 48 1
99 82 1
99 99 1
99 252 1
99 286 1
99 303 1
99 456 1
99 490 1
99 507 1
100 49 1
100 83 1
100 100 1
100 253 1
100 287 1
100 304 1
100 457 1
100 491 1
100 508 1
101 50 1
101 84 1
101 101 1
101 254 1
101 288 1
101 305 1
101 458 1
101 492 1
101 509 1
102 51 1
102 85 1
102 102 1
102 255 1
102 289 1
102 306 1
102 459 1
102 493 1
102 510 1
103 103 1
103 154 1
103 171 1
103 205 1
103 256 1
103 273 1
103 511 1
103 562 1
103 579 1
104 104 1
104 155 1
104 172 1
104 206 1
104 257 1
104 274 1
104 512 1
104 563 1
104 580 1
105 105 1
105 156 1
105 173 1
105 207 1
105 258 1
105 275 1
105 513 1
105 564 1
105 581 1
106 106 1
106 157 1
106 174 1
106 208 1
106 259 1
106 276 1
106 514 1
106 565 1
106 582 1
107 107 1
107 158 1
107 175 1
107 209 1
107 260 1
107 277 1
107 515 1
107 566 1
107 583 1
108 108 1
108 159 1
108 176 1
108 210 1
108 261 1
108 278 1
108 516 1
108 567 1
108 584 1
109 109 1
109 160 1
109 177 1
109 211 1
109 262 1
109 279 1
109 517 1
109 568 1
109 585 1
110 110 1
110 161 1
110 178 1
110 212 1
110 263 1
110 280 1
110 518 1
110 569 1
110 586 1
111 111 1
111 162 1
111 179 1
111 213 1
111 264 1
111 281 1
111 519 1
111 570 1
111 587 1
112 112 1
112 163 1
112 180 1
112 214 1
112 265 1
112 282 1
112 520 1
112 571 1
112 588 1
113 113 1
113 164 1
113 181 1
113 215 1
113 266 1
113 283 1
113 521 1
113 572 1
113 589 1
114 114 1
114 165 1
114 182 1
114 216 1
114 267 1
114 284 1
114 522 1
114 573 1
114 590 1
115 115 1
115 166 1
115 183 1
115 217 1
115 268 1
115 285 1
115 523 1
115 574 1
115 591 1
116 116 1
116 167 1
116 184 1
116 218 1
116 269 1
116 286 1
116 524 1
116 575 1
116 592 1
117 117 1
117 168 1
117 185 1
117 219 1
117 270 1
117 287 1
117 525 1
117 576 1
117 593 1
118 118 1
118 169 1
118 186 1
118 220 1
118 271 1
118 288 1
118 526 1
118 577 1
118 594 1
119 119 1
119 170 1
119 187 1
119 221 1
119 272 1
119 289 1
119 527 1
119 578 1
119 595 1
120 120 1
120 154 1
120 188 1
120 222 1
120 256 1
120 290 1
120 528 1
120 562 1
120 596 1
121 121 1
121 155 1
121 189 1
121 223 1
121 257 1
121 291 1
121 529 1
121 563 1
121 597 1
122 122 1
122 156 1
122 190 1
122 224 1
122 258 1
122 292 1
122 530 1
122 564 1
122 598 1
123 123 1
123 157 1
123 191 1
123 225 1
123 259 1
123 293 1
123 531 1
123 565 1
123 599 1
124 124 1
124 158 1
124 192 1
124 226 1
124 260 1
124 294 1
124 532 1
124 566 1
124 600 1
125 125 1
125 159 1
125 193 1
125 227 1
125 261 1
125 295 1
125 533 1
125 567 1
125 601 1
126 126 1
126 160 1
126 194 1
126 228 1
126 262 1
126 296 1
126 534 1
126 568 1
126 602 1
127 127 1
127 161 1
127 195 1
127 229 1
127 263 1
127 297 1
127 535 1
127 569 1
127 603 1
128 128 1
128 162 1
128 196 1
128 230 1
128 264 1
128 298 1
128 536 1
128 570 1
128 604 1
129 129 1
129 163 1
129 197 1
129 231 1
129 265 1
129 299 1
129 537 1
129 571 1
129 605 1
130 130 1
130 164 1
130 198 1
130 232 1
130 266 1
130 300 1
130 538 1
130 572 1
130 606 1
131 131 1
131 165 1
131 199 1
131 233 1
131 267 1
131 301 1
131 539 1
131 573 1
131 607 1
132 132 1
132 166 1
132 200 1
132 234 1
132 268 1
132 302 1
132 540 1
132 574 1
132 608 1
133 133 1
133 167 1
133 201 1
133 235 1
133 269 1
133 303 1
133 541 1
133 575 1
133 609 1
134 134 1
134 168 1
134 202 1
134 236 1
134 270 1
134 304 1
134 542 1
134 576 1
134 610 1
135 135 1
135 169 1
135 203 1
135 237 1
135 271 1
135 305 1
135 543 1
135 577 1
135 611 1
136 136 1
136 170 1
136 204 1
136 238 1
136 272 1
136 306 1
136 544 1
136 578 1
136 612 1
137 137 1
137 171 1
137 188 1
137 239 1
137 273 1
137 290 1
137 545 1
137 579 1
137 596 1
138 138 1
138 172 1
138 189 1
138 240 1
138 274 1
138 291 1
138 546 1
138 580 1
138 597 1
139 139 1
139 173 1
139 190 1
139 241 1
139 275 1
139 292 1
139 547 1
139 581 1
139 598 1
140 140 1
140 174 1
140 191 1
140 242 1
140 276 1
140 293 1
140 548 1
140 582 1
140 599 1
141 141 1
141 175 1
141 192 1
141 243 1
141 277 1
141 294 1
141 549 1
141 583 1
141 600 1
142 142 1
142 176 1
142 193 1
142 244 1
142 278 1
142 295 1
142 550 1
142 584 1
142 601 1
143 143 1
143 177 1
143 194 1
143 245 1
143 279 1
143 296 1
143 551 1
143 585 1
143 602 1
144 144 1
144 178 1
144 195 1
144 246 1
144 280 1
144 297 1
144 552 1
144 586 1
144 603 1
145 145 1
145 179 1
145 196 1
145 247 1
145 281 1
145 298 1
145 553 1
145 587 1
145 604 1
146 146 1
146 180 1
146 197 1
146 248 1
146 282 1
146 299 1
146 554 1
146 588 1
146 605 1
147 147 1
147 181 1
147 198 1
147 249 1
147 283 1
147 300 1
147 555 1
147 589 1
147 606 1
148 148 1
148 182 1
148 199 1
148 250 1
148 284 1
148 301 1
148 556 1
148 590 1
148 607 1
149 149 1
149 183 1
149 200 1
149 251 1
149 285 1
149 302 1
149 557 1
149 591 1
149 608 1
150 150 1
150 184 1
150 201 1
150 252 1
150 286 1
150 303 1
150 558 1
150 592 1
150 609 1
151 151 1
151 185 1
151 202 1
151 253 1
151 287 1
151 304 1
151 559 1
151 593 1
151 610 1
152 152 1
152 186 1
152 203 1
152 254 1
152 288 1
152 305 1
152 560 1
152 594 1
152 611 1
153 153 1
153 187 1
153 204 1
153 255 1
153 289 1
153 306 1
153 561 1
153 595 1
153 612 1
154 1 1
154 35 1
154 85 1
154 209 1
154 243 1
154 276 1
154 415 1
154 449 1
154 482 1
155 2 1
155 36 1
155 69 1
155 210 1
155 244 1
155 277 1
155 416 1
155 450 1
155 483 1
156 3 1
156 37 1
156 70 1
156 211 1
156 245 1
156 278 1
156 417 1
156 451 1
156 484 1
157 4 1
157 38 1
157 71 1
157 212 1
157 246 1
157 279 1
157 418 1
157 452 1
157 485 1
158 5 1
158 39 1
158 72 1
158 213 1
158 247 1
158 280 1
158 419 1
158 453 1
158 486 1
159 6 1
159 40 1
159 73 1
159 214 1
159 248 1
159 281 1
159 420 1
159 454 1
159 487 1
160 7 1
160 41 1
160 74 1
160 215 1
160 249 1
160 282 1
160 421 1
160 455 1
160 488 1
161 8 1
161 42 1
161 75 1
161 216 1
161 250 1
161 283 1
161 422 1
161 456 1
161 489 1
162 9 1
162 43 1
162 76 1
162 217 1
162 251 1
162 284 1
162 423 1
162 457 1
162 490 1
163 10 1
163 44 1
163 77 1
163 218 1
163 252 1
163 285 1
163 424 1
163 458 1
163 491 1
164 11 1
164 45 1
164 78 1
164 219 1
164 253 1
164 286 1
164 425 1
164 459 1
164 492 1
165 12 1
165 46 1
165 79 1
165 220 1
165 254 1
165 287 1
165 409 1
165 443 1
165 493 1
166 13 1
166 47 1
166 80 1
166 221 1
166 255 1
166 288 1
166 410 1
166 444 1
166 477 1
167 14 1
167 48 1
167 81 1
167 205 1
167 239 1
167 289 1
167 411 1
167 445 1
167 478 1
168 15 1
168 49 1
168 82 1
168 206 1
168 240 1
168 273 1
168 412 1
168 446 1
168 479 1
169 16 1
169 50 1
169 83 1
169 207 1
169 241 1
169 274 1
169 413 1
169 447 1
169 480 1
170 17 1
170 51 1
170 84 1
170 208 1
170 242 1
170 275 1
170 414 1
170 448 1
170 481 1
171 18 1
171 35 1
171 102 1
171 226 1
171 243 1
171 293 1
171 432 1
171 449 1
171 499 1
172 19 1
172 36 1
172 86 1
172 227 1
172 244 1
172 294 1
172 433 1
172 450 1
172 500 1
173 20 1
173 37 1
173 87 1
173 228 1
173 245 1
173 295 1
173 434 1
173 451 1
173 501 1
174 21 1
174 38 1
174 88 1
174 229 1
174 246 1
174 296 1
174 435 1
174 452 1
174 502 1
175 22 1
175 39 1
175 89 1
175 230 1
175 247 1
175 297 1
175 436 1
175 453 1
175 503 1
176 23 1
176 40 1
176 90 1
176 231 1
176 248 1
176 298 1
176 437 1
176 454 1
176 504 1
177 24 1
177 41 1
177 91 1
177 232 1
177 249 1
177 299 1
177 438 1
177 455 1
177 505 1
178 25 1
178 42 1
178 92 1
178 233 1
178 250 1
178 300 1
178 439 1
178 456 1
178 506 1
179 26 1
179 43 1
179 93 1
179 234 1
179 251 1
179 301 1
179 440 1
179 457 1
179 507 1
180 27 1
180 44 1
180 94 1
180 235 1
180 252 1
180 302 1
180 441 1
180 458 1
180 508 1
181 28 1
181 45 1
181 95 1
181 236 1
181 253 1
181 303 1
181 442 1
181 459 1
181 509 1
182 29 1
182 46 1
182 96 1
182 237 1
182 254 1
182 304 1
182 426 1
182 443 1
182 510 1
183 30 1
183 47 1
183 97 1
183 238 1
183 255 1
183 305 1
183 427 1
183 444 1
183 494 1
184 31 1
184 48 1
184 98 1
184 222 1
184 239 1
184 306 1
184 428 1
184 445 1
184 495 1
185 32 1
185 49 1
185 99 1
185 223 1
185 240 1
185 290 1
185 429 1
185 446 1
185 496 1
186 33 1
186 50 1
186 100 1
186 224 1
186 241 1
186 291 1
186 430 1
186 447 1
186 497 1
187 34 1
187 51 1
187 101 1
187 225 1
187 242 1
187 292 1
187 431 1
187 448 1
187 498 1
188 52 1
188 85 1
188 102 1
188 260 1
188 276 1
188 293 1
188 466 1
188 482 1
188 499 1
189 53 1
189 69 1
189 86 1
189 261 1
189 277 1
189 294 1
189 467 1
189 483 1
189 500 1
190 54 1
190 70 1
190 87 1
190 262 1
190 278 1
190 295 1
190 468 1
190 484 1
190 501 1
191 55 1
191 71 1
191 88 1
191 263 1
191 279 1
191 296 1
191 469 1
191 485 1
191 502 1
192 56 1
192 72 1
192 89 1
192 264 1
192 280 1
192 297 1
192 470 1
192 486 1
192 503 1
193 57 1
193 73 1
193 90 1
193 265 1
193 281 1
193 298 1
193 471 1
193 487 1
193 504 1
194 58 1
194 74 1
194 91 1
194 266 1
194 282 1
194 299 1
194 472 1
194 488 1
194 505 1
195 59 1
195 75 1
195 92 1
195 267 1
195 283 1
195 300 1
195 473 1
195 489 1
195 506 1
196 60 1
196 76 1
196 93 1
196 268 1
196 284 1
196 301 1
196 474 1
196 490 1
196 507 1
197 61 1
197 77 1
197 94 1
197 269 1
197 285 1
197 302 1
197 475 1
197 491 1
197 508 1
198 62 1
198 78 1
198 95 1
198 270 1
198 286 1
198 303 1
198 476 1
198 492 1
198 509 1
199 63 1
199 79 1
199 96 1
199 271 1
199 287 1
199 304 1
199 460 1
199 493 1
199 510 1
200 64 1
200 80 1
200 97 1
200 272 1
200 288 1
200 305 1
200 461 1
200 477 1
200 494 1
201 65 1
201 81 1
201 98 1
201 256 1
201 289 1
201 306 1
201 462 1
201 478 1
201 495 1
202 66 1
202 82 1
202 99 1
202 257 1
202 273 1
202 290 1
202 463 1
202 479 1
202 496 1
203 67 1
203 83 1
203 100 1
203 258 1
203 274 1
203 291 1
203 464 1
203 480 1
203 497 1
204 68 1
204 84 1
204 101 1
204 259 1
204 275 1
204 292 1
204 465 1
204 481 1
204 498 1
205 1 1
205 35 1
205 85 1
205 311 1
205 345 1
205 378 1
205 525 1
205 559 1
205 592 1
206 2 1
206 36 1
206 69 1
206 312 1
206 346 1
206 379 1
206 526 1
206 560 1
206 593 1
207 3 1
207 37 1
207 70 1
207 313 1
207 347 1
207 380 1
207 527 1
207 561 1
207 594 1
208 4 1
208 38 1
208 71 1
208 314 1
208 348 1
208 381 1
208 511 1
208 545 1
208 595 1
209 5 1
209 39 1
209 72 1
209 315 1
209 349 1
209 382 1
209 512 1
209 546 1
209 579 1
210 6 1
210 40 1
210 73 1
210 316 1
210 350 1
210 383 1
210 513 1
210 547 1
210 580 1
211 7 1
211 41 1
211 74 1
211 317 1
211 351 1
211 384 1
211 514 1
211 548 1
211 581 1
212 8 1
212 42 1
212 75 1
212 318 1
212 352 1
212 385 1
212 515 1
212 549 1
212 582 1
213 9 1
213 43 1
213 76 1
213 319 1
213 353 1
213 386 1
213 516 1
213 550 1
213 583 1
214 10 1
214 44 1
214 77 1
214 320 1
214 354 1
214 387 1
214 517 1
214 551 1
214 584 1
215 11 1
215 45 1
215 78 1
215 321 1
215 355 1
215 388 1
215 518 1
215 552 1
215 585 1
216 12 1
216 46 1
216 79 1
216 322 1
216 356 1
216 389 1
216 519 1
216 553 1
216 586 1
217 13 1
217 47 1
217 80 1
217 323 1
217 357 1
217 390 1
217 520 1
217 554 1
217 587 1
218 14 1
218 48 1
218 81 1
218 307 1
218 341 1
218 391 1
218 521 1
218 555 1
218 588 1
219 15 1
219 49 1
219 82 1
219 308 1
219 342 1
219 375 1
219 522 1
219 556 1
219 589 1
220 16 1
220 50 1
220 83 1
220 309 1
220 343 1
220 376 1
220 523 1
220 557 1
220 590 1
221 17 1
221 51 1
221 84 1
221 310 1
221 344 1
221 377 1
221 524 1
221 558 1
221 591 1
222 18 1
222 35 1
222 102 1
222 328 1
222 345 1
222 395 1
222 542 1
222 559 1
222 609 1
223 19 1
223 36 1
223 86 1
223 329 1
223 346 1
223 396 1
223 543 1
223 560 1
223 610 1
224 20 1
224 37 1
224 87 1
224 330 1
224 347 1
224 397 1
224 544 1
224 561 1
224 611 1
225 21 1
225 38 1
225 88 1
225 331 1
225 348 1
225 398 1
225 528 1
225 545 1
225 612 1
226 22 1
226 39 1
226 89 1
226 332 1
226 349 1
226 399 1
226 529 1
226 546 1
226 596 1
227 23 1
227 40 1
227 90 1
227 333 1
227 350 1
227 400 1
227 530 1
227 547 1
227 597 1
228 24 1
228 41 1
228 91 1
228 334 1
228 351 1
228 401 1
228 531 1
228 548 1
228 598 1
229 25 1
229 42 1
229 92 1
229 335 1
229 352 1
229 402 1
229 532 1
229 549 1
229 599 1
230 26 1
230 43 1
230 93 1
230 336 1
230 353 1
230 403 1
230 533 1
230 550 1
230 600 1
231 27 1
231 44 1
231 94 1
231 337 1
231 354 1
231 404 1
231 534 1
231 551 1
231 601 1
232 28 1
232 45 1
232 95 1
232 338 1
232 355 1
232 405 1
232 535 1
232 552 1
232 602 1
233 29 1
233 46 1
233 96 1
233 339 1
233 356 1
233 406 1
233 536 1
233 553 1
233 603 1
234 30 1
234 47 1
234 97 1
234 340 1
234 357 1
234 407 1
234 537 1
234 554 1
234 604 1
235 31 1
235 48 1
235 98 1
235 324 1
235 341 1
235 408 1
235 538 1
235 555 1
235 605 1
236 32 1
236 49 1
236 99 1
236 325 1
236 342 1
236 392 1
236 539 1
236 556 1
236 606 1
237 33 1
237 50 1
237 100 1
237 326 1
237 343 1
237 393 1
237 540 1
237 557 1
237 607 1
238 34 1
238 51 1
238 101 1
238 327 1
238 344 1
238 394 1
238 541 1
238 558 1
238 608 1
239 52 1
239 85 1
239 102 1
239 362 1
239 378 1
239 395 1
239 576 1
239 592 1
239 609 1
240 53 1
240 69 1
240 86 1
240 363 1
240 379 1
240 396 1
240 577 1
240 593 1
240 610 1
241 54 1
241 70 1
241 87 1
241 364 1
241 380 1
241 397 1
241 578 1
241 594 1
241 611 1
242 55 1
242 71 1
242 88 1
242 365 1
242 381 1
242 398 1
242 562 1
242 595 1
242 612 1
243 56 1
243 72 1
243 89 1
243 366 1
243 382 1
243 399 1
243 563 1
243 579 1
243 596 1
244 57 1
244 73 1
244 90 1
244 367 1
244 383 1
244 400 1
244 564 1
244 580 1
244 597 1
245 58 1
245 74 1
245 91 1
245 368 1
245 384 1
245 401 1
245 565 1
245 581 1
245 598 1
246 59 1
246 75 1
246 92 1
246 369 1
246 385 1
246 402 1
246 566 1
246 582 1
246 599 1
247 60 1
247 76 1
247 93 1
247 370 1
247 386 1
247 403 1
247 567 1
247 583 1
247 600 1
248 61 1
248 77 1
248 94 1
248 371 1
248 387 1
248 404 1
248 568 1
248 584 1
248 601 1
249 62 1
249 78 1
249 95 1
249 372 1
249 388 1
249 405 1
249 569 1
249 585 1
249 602 1
250 63 1
250 79 1
250 96 1
250 373 1
250 389 1
250 406 1
250 570 1
250 586 1
250 603 1
251 64 1
251 80 1
251 97 1
251 374 1
251 390 1
251 407 1
251 571 1
251 587 1
251 604 1
252 65 1
252 81 1
252 98 1
252 358 1
252 391 1
252 408 1
252 572 1
252 588 1
252 605 1
253 66 1
253 82 1
253 99 1
253 359 1
253 375 1
253 392 1
253 573 1
253 589 1
253 606 1
254 67 1
254 83 1
254 100 1
254 360 1
254 376 1
254 393 1
254 574 1
254 590 1
254 607 1
255 68 1
255 84 1
255 101 1
255 361 1
255 377 1
255 394 1
255 575 1
255 591 1
255 608 1
256 103 1
256 137 1
256 187 1
256 209 1
256 243 1
256 276 1
256 525 1
256 559 1
256 592 1
257 104 1
257 138 1
257 171 1
257 210 1
257 244 1
257 277 1
257 526 1
257 560 1
257 593 1
258 105 1
258 139 1
258 172 1
258 211 1
258 245 1
258 278 1
258 527 1
258 561 1
258 594 1
259 106 1
259 140 1
259 173 1
259 212 1
259 246 1
259 279 1
259 511 1
259 545 1
259 595 1
260 107 1
260 141 1
260 174 1
260 213 1
260 247 1
260 280 1
260 512 1
260 546 1
260 579 1
261 108 1
261 142 1
261 175 1
261 214 1
261 248 1
261 281 1
261 513 1
261 547 1
261 580 1
262 109 1
262 143 1
262 176 1
262 215 1
262 249 1
262 282 1
262 514 1
262 548 1
262 581 1
263 110 1
263 144 1
263 177 1
263 216 1
263 250 1
263 283 1
263 515 1
263 549 1
263 582 1
264 111 1
264 145 1
264 178 1
264 217 1
264 251 1
264 284 1
264 516 1
264 550 1
264 583 1
265 112 1
265 146 1
265 179 1
265 218 1
265 252 1
265 285 1
265 517 1
265 551 1
265 584 1
266 113 1
266 147 1
266 180 1
266 219 1
266 253 1
266 286 1
266 518 1
266 552 1
266 585 1
267 114 1
267 148 1
267 181 1
267 220 1
267 254 1
267 287 1
267 519 1
267 553 1
267 586 1
268 115 1
268 149 1
268 182 1
268 221 1
268 255 1
268 288 1
268 520 1
268 554 1
268 587 1
269 116 1
269 150 1
269 183 1
269 205 1
269 239 1
269 289 1
269 521 1
269 555 1
269 588 1
270 117 1
270 151 1
270 184 1
270 206 1
270 240 1
270 273 1
270 522 1
270 556 1
270 589 1
271 118 1
271 152 1
271 185 1
271 207 1
271 241 1
271 274 1
271 523 1
271 557 1
271 590 1
272 119 1
272 153 1
272 186 1
272 208 1
272 242 1
272 275 1
272 524 1
272 558 1
272 591 1
273 120 1
273 137 1
273 204 1
273 226 1
273 243 1
273 293 1
273 542 1
273 559 1
273 609 1
274 121 1
274 138 1
274 188 1
274 227 1
274 244 1
274 294 1
274 543 1
274 560 1
274 610 1
275 122 1
275 139 1
275 189 1
275 228 1
275 245 1
275 295 1
275 544 1
275 561 1
275 611 1
276 123 1
276 140 1
276 190 1
276 229 1
276 246 1
276 296 1
276 528 1
276 545 1
276 612 1
277 124 1
277 141 1
277 191 1
277 230 1
277 247 1
277 297 1
277 529 1
277 546 1
277 596 1
278 125 1
278 142 1
278 192 1
278 231 1
278 248 1
278 298 1
278 530 1
278 547 1
278 597 1
279 126 1
279 143 1
279 193 1
279 232 1
279 249 1
279 299 1
279 531 1
279 548 1
279 598 1
280 127 1
280 144 1
280 194 1
280 233 1
280 250 1
280 300 1
280 532 1
280 549 1
280 599 1
281 128 1
281 145 1
281 195 1
281 234 1
281 251 1
281 301 1
281 533 1
281 550 1
281 600 1
282 129 1
282 146 1
282 196 1
282 235 1
282 252 1
282 302 1
282 534 1
282 551 1
282 601 1
283 130 1
283 147 1
283 197 1
283 236 1
283 253 1
283 303 1
283 535 1
283 552 1
283 602 1
284 131 1
284 148 1
284 198 1
284 237 1
284 254 1
284 304 1
284 536 1
284 553 1
284 603 1
285 132 1
285 149 1
285 199 1
285 238 1
285 255 1
285 305 1
285 537 1
285 554 1
285 604 1
286 133 1
286 150 1
286 200 1
286 222 1
286 239 1
286 306 1
286 538 1
286 555 1
286 605 1
287 134 1
287 151 1
287 201 1
287 223 1
287 240 1
287 290 1
287 539 1
287 556 1
287 606 1
288 135 1
288 152 1
288 202 1
288 224 1
288 241 1
288 291 1
288 540 1
288 557 1
288 607 1
289 136 1
289 153 1
289 203 1
289 225 1
289 242 1
289 292 1
289 541 1
289 558 1
289 608 1
290 154 1
290 187 1
290 204 1
290 260 1
290 276 1
290 293 1
290 576 1
290 592 1
290 609 1
291 155 1
291 171 1
291 188 1
291 261 1
291 277 1
291 294 1
291 577 1
291 593 1
291 610 1
292 156 1
292 172 1
292 189 1
292 262 1
292 278 1
292 295 1
292 578 1
292 594 1
292 611 1
293 157 1
293 173 1
293 190 1
293 263 1
293 279 1
293 296 1
293 562 1
293 595 1
293 612 1
294 158 1
294 174 1
294 191 1
294 264 1
294 280 1
294 297 1
294 563 1
294 579 1
294 596 1
295 159 1
295 175 1
295 192 1
295 265 1
295 281 1
295 298 1
295 564 1
295 580 1
295 597 1
296 160 1
296 176 1
296 193 1
296 266 1
296 282 1
296 299 1
296 565 1
296 581 1
296 598 1
297 161 1
297 177 1
297 194 1
297 267 1
297 283 1
297 300 1
297 566 1
297 582 1
297 599 1
298 162 1
298 178 1
298 195 1
298 268 1
298 284 1
298 301 1
298 567 1
298 583 1
298 600 1
299 163 1
299 179 1
299 196 1
299 269 1
299 285 1
299 302 1
299 568 1
299 584 1
299 601 1
300 164 1
300 180 1
300 197 1
300 270 1
300 286 1
300 303 1
300 569 1
300 585 1
300 602 1
301 165 1
301 181 1
301 198 1
301 271 1
301 287 1
301 304 1
301 570 1
301 586 1
301 603 1
302 166 1
302 182 1
302 199 1
302 272 1
302 288 1
302 305 1
302 571 1
302 587 1
302 604 1
303 167 1
303 183 1
303 200 1
303 256 1
303 289 1
303 306 1
303 572 1
303 588 1
303 605 1
304 168 1
304 184 1
304 201 1
304 257 1
304 273 1
304 290 1
304 573 1
304 589 1
304 606 1
305 169 1
305 185 1
305 202 1
305 258 1
305 274 1
305 291 1
305 574 1
305 590 1
305 607 1
306 170 1
306 186 1
306 203 1
306 259 1
306 275 1
306 292 1
306 575 1
306 591 1
306 608 1
