%%MatrixMarket matrix coordinate integer general
256 512 4096
1 1 1
1 33 1
1 41 1
1 49 1
1 257 1
1 289 1
1 297 1
1 305 1
1 321 1
1 353 1
1 361 1
1 369 1
1 385 1
1 417 1
1 425 1
1 433 1
2 2 1
2 34 1
2 42 1
2 50 1
2 258 1
2 290 1
2 298 1
2 306 1
2 322 1
2 354 1
2 362 1
2 370 1
2 386 1
2 418 1
2 426 1
2 434 1
3 3 1
3 35 1
3 43 1
3 51 1
3 259 1
3 291 1
3 299 1
3 307 1
3 323 1
3 355 1
3 363 1
3 371 1
3 387 1
3 419 1
3 427 1
3 435 1
4 4 1
4 36 1
4 44 1
4 52 1
4 260 1
4 292 1
4 300 1
4 308 1
4 324 1
4 356 1
4 364 1
4 372 1
4 388 1
4 420 1
4 428 1
4 436 1
5 5 1
5 37 1
5 45 1
5 53 1
5 261 1
5 293 1
5 301 1
5 309 1
5 325 1
5 357 1
5 365 1
5 373 1
5 389 1
5 421 1
5 429 1
5 437 1
6 6 1
6 38 1
6 46 1
6 54 1
6 262 1
6 294 1
6 302 1
6 310 1
6 326 1
6 358 1
6 366 1
6 374 1
6 390 1
6 422 1
6 430 1
6 438 1
7 7 1
7 39 1
7 47 1
7 55 1
7 263 1
7 295 1
7 303 1
7 311 1
7 327 1
7 359 1
7 367 1
7 375 1
7 391 1
7 423 1
7 431 1
7 439 1
8 8 1
8 40 1
8 48 1
8 56 1
8 264 1
8 296 1
8 304 1
8 312 1
8 328 1
8 360 1
8 368 1
8 376 1
8 392 1
8 424 1
8 432 1
8 440 1
9 9 1
9 33 1
9 41 1
9 57 1
9 265 1
9 289 1
9 297 1
9 313 1
9 329 1
9 353 1
9 361 1
9 377 1
9 393 1
9 417 1
9 425 1
9 441 1
10 10 1
10 34 1
10 42 1
10 58 1
10 266 1
10 290 1
10 298 1
10 314 1
10 330 1
10 354 1
10 362 1
10 378 1
10 394 1
10 418 1
10 426 1
10 442 1
11 11 1
11 35 1
11 43 1
11 59 1
11 267 1
11 291 1
11 299 1
11 315 1
11 331 1
11 355 1
11 363 1
11 379 1
11 395 1
11 419 1
11 427 1
11 443 1
12 12 1
12 36 1
12 44 1
12 60 1
12 268 1
12 292 1
12 300 1
12 316 1
12 332 1
12 356 1
12 364 1
12 380 1
12 396 1
12 420 1
12 428 1
12 444 1
13 13 1
13 37 1
13 45 1
13 61 1
13 269 1
13 293 1
13 301 1
13 317 1
13 333 1
13 357 1
13 365 1
13 381 1
13 397 1
13 421 1
13 429 1
13 445 1
14 14 1
14 38 1
14 46 1
14 62 1
14 270 1
14 294 1
14 302 1
14 318 1
14 334 1
14 358 1
14 366 1
14 382 1
14 398 1
14 422 1
14 430 1
14 446 1
15 15 1
15 39 1
15 47 1
15 63 1
15 271 1
15 295 1
15 303 1
15 319 1
15 335 1
15 359 1
15 367 1
15 383 1
15 399 1
15 423 1
15 431 1
15 447 1
16 16 1
16 40 1
16 48 1
16 64 1
16 272 1
16 296 1
16 304 1
16 320 1
16 336 1
16 360 1
16 368 1
16 384 1
16 400 1
16 424 1
16 432 1
16 448 1
17 17 1
17 33 1
17 49 1
17 57 1
17 273 1
17 289 1
17 305 1
17 313 1
17 337 1
17 353 1
17 369 1
17 377 1
17 401 1
17 417 1
17 433 1
17 441 1
18 18 1
18 34 1
18 50 1
18 58 1
18 274 1
18 290 1
18 306 1
18 314 1
18 338 1
18 354 1
18 370 1
18 378 1
18 402 1
18 418 1
18 434 1
18 442 1
19 19 1
19 35 1
19 51 1
19 59 1
19 275 1
19 291 1
19 307 1
19 315 1
19 339 1
19 355 1
19 371 1
19 379 1
19 403 1
19 419 1
19 435 1
19 443 1
20 20 1
20 36 1
20 52 1
20 60 1
20 276 1
20 292 1
20 308 1
20 316 1
20 340 1
20 356 1
20 372 1
20 380 1
20 404 1
20 420 1
20 436 1
20 444 1
21 21 1
21 37 1
21 53 1
21 61 1
21 277 1
21 293 1
21 309 1
21 317 1
21 341 1
21 357 1
21 373 1
21 381 1
21 405 1
21 421 1
21 437 1
21 445 1
22 22 1
22 38 1
22 54 1
22 62 1
22 278 1
22 294 1
22 310 1
22 318 1
22 342 1
22 358 1
22 374 1
22 382 1
22 406 1
22 422 1
22 438 1
22 446 1
23 23 1
23 39 1
23 55 1
23 63 1
23 279 1
23 295 1
23 311 1
23 319 1
23 343 1
23 359 1
23 375 1
23 383 1
23 407 1
23 423 1
23 439 1
23 447 1
24 24 1
24 40 1
24 56 1
24 64 1
24 280 1
24 296 1
24 312 1
24 320 1
24 344 1
24 360 1
24 376 1
24 384 1
24 408 1
24 424 1
24 440 1
24 448 1
25 25 1
25 41 1
25 49 1
25 57 1
25 281 1
25 297 1
25 305 1
25 313 1
25 345 1
25 361 1
25 369 1
25 377 1
25 409 1
25 425 1
25 433 1
25 441 1
26 26 1
26 42 1
26 50 1
26 58 1
26 282 1
26 298 1
26 306 1
26 314 1
26 346 1
26 362 1
26 370 1
26 378 1
26 410 1
26 426 1
26 434 1
26 442 1
27 27 1
27 43 1
27 51 1
27 59 1
27 283 1
27 299 1
27 307 1
27 315 1
27 347 1
27 363 1
27 371 1
27 379 1
27 411 1
27 427 1
27 435 1
27 443 1
28 28 1
28 44 1
28 52 1
28 60 1
28 284 1
28 300 1
28 308 1
28 316 1
28 348 1
28 364 1
28 372 1
28 380 1
28 412 1
28 428 1
28 436 1
28 444 1
29 29 1
29 45 1
29 53 1
29 61 1
29 285 1
29 301 1
29 309 1
29 317 1
29 349 1
29 365 1
29 373 1
29 381 1
29 413 1
29 429 1
29 437 1
29 445 1
30 30 1
30 46 1
30 54 1
30 62 1
30 286 1
30 302 1
30 310 1
30 318 1
30 350 1
30 366 1
30 374 1
30 382 1
30 414 1
30 430 1
30 438 1
30 446 1
31 31 1
31 47 1
31 55 1
31 63 1
31 287 1
31 303 1
31 311 1
31 319 1
31 351 1
31 367 1
31 375 1
31 383 1
31 415 1
31 431 1
31 439 1
31 447 1
32 32 1
32 48 1
32 56 1
32 64 1
32 288 1
32 304 1
32 312 1
32 320 1
32 352 1
32 368 1
32 376 1
32 384 1
32 416 1
32 432 1
32 440 1
32 448 1
33 65 1
33 97 1
33 105 1
33 113 1
33 257 1
33 289 1
33 297 1
33 305 1
33 321 1
33 353 1
33 361 1
33 369 1
33 449 1
33 481 1
33 489 1
33 497 1
34 66 1
34 98 1
34 106 1
34 114 1
34 258 1
34 290 1
34 298 1
34 306 1
34 322 1
34 354 1
34 362 1
34 370 1
34 450 1
34 482 1
34 490 1
34 498 1
35 67 1
35 99 1
35 107 1
35 115 1
35 259 1
35 291 1
35 299 1
35 307 1
35 323 1
35 355 1
35 363 1
35 371 1
35 451 1
35 483 1
35 491 1
35 499 1
36 68 1
36 100 1
36 108 1
36 116 1
36 260 1
36 292 1
36 300 1
36 308 1
36 324 1
36 356 1
36 364 1
36 372 1
36 452 1
36 484 1
36 492 1
36 500 1
37 69 1
37 101 1
37 109 1
37 117 1
37 261 1
37 293 1
37 301 1
37 309 1
37 325 1
37 357 1
37 365 1
37 373 1
37 453 1
37 485 1
37 493 1
37 501 1
38 70 1
38 102 1
38 110 1
38 118 1
38 262 1
38 294 1
38 302 1
38 310 1
38 326 1
38 358 1
38 366 1
38 374 1
38 454 1
38 486 1
38 494 1
38 502 1
39 71 1
39 103 1
39 111 1
39 119 1
39 263 1
39 295 1
39 303 1
39 311 1
39 327 1
39 359 1
39 367 1
39 375 1
39 455 1
39 487 1
39 495 1
39 503 1
40 72 1
40 104 1
40 112 1
40 120 1
40 264 1
40 296 1
40 304 1
40 312 1
40 328 1
40 360 1
40 368 1
40 376 1
40 456 1
40 488 1
40 496 1
40 504 1
41 73 1
41 97 1
41 105 1
41 121 1
41 265 1
41 289 1
41 297 1
41 313 1
41 329 1
41 353 1
41 361 1
41 377 1
41 457 1
41 481 1
41 489 1
41 505 1
42 74 1
42 98 1
42 106 1
42 122 1
42 266 1
42 290 1
42 298 1
42 314 1
42 330 1
42 354 1
42 362 1
42 378 1
42 458 1
42 482 1
42 490 1
42 506 1
43 75 1
43 99 1
43 107 1
43 123 1
43 267 1
43 291 1
43 299 1
43 315 1
43 331 1
43 355 1
43 363 1
43 379 1
43 459 1
43 483 1
43 491 1
43 507 1
44 76 1
44 100 1
44 108 1
44 124 1
44 268 1
44 292 1
44 300 1
44 316 1
44 332 1
44 356 1
44 364 1
44 380 1
44 460 1
44 484 1
44 492 1
44 508 1
45 77 1
45 101 1
45 109 1
45 125 1
45 269 1
45 293 1
45 301 1
45 317 1
45 333 1
45 357 1
45 365 1
45 381 1
45 461 1
45 485 1
45 493 1
45 509 1
46 78 1
46 102 1
46 110 1
46 126 1
46 270 1
46 294 1
46 302 1
46 318 1
46 334 1
46 358 1
46 366 1
46 382 1
46 462 1
46 486 1
46 494 1
46 510 1
47 79 1
47 103 1
47 111 1
47 127 1
47 271 1
47 295 1
47 303 1
47 319 1
47 335 1
47 359 1
47 367 1
47 383 1
47 463 1
47 487 1
47 495 1
47 511 1
48 80 1
48 104 1
48 112 1
48 128 1
48 272 1
48 296 1
48 304 1
48 320 1
48 336 1
48 360 1
48 368 1
48 384 1
48 464 1
48 488 1
48 496 1
48 512 1
49 81 1
49 97 1
49 113 1
49 121 1
49 273 1
49 289 1
49 305 1
49 313 1
49 337 1
49 353 1
49 369 1
49 377 1
49 465 1
49 481 1
49 497 1
49 505 1
50 82 1
50 98 1
50 114 1
50 122 1
50 274 1
50 290 1
50 306 1
50 314 1
50 338 1
50 354 1
50 370 1
50 378 1
50 466 1
50 482 1
50 498 1
50 506 1
51 83 1
51 99 1
51 115 1
51 123 1
51 275 1
51 291 1
51 307 1
51 315 1
51 339 1
51 355 1
51 371 1
51 379 1
51 467 1
51 483 1
51 499 1
51 507 1
52 84 1
52 100 1
52 116 1
52 124 1
52 276 1
52 292 1
52 308 1
52 316 1
52 340 1
52 356 1
52 372 1
52 380 1
52 468 1
52 484 1
52 500 1
52 508 1
53 85 1
53 101 1
53 117 1
53 125 1
53 277 1
53 293 1
53 309 1
53 317 1
53 341 1
53 357 1
53 373 1
53 381 1
53 469 1
53 485 1
53 501 1
53 509 1
54 86 1
54 102 1
54 118 1
54 126 1
54 278 1
54 294 1
54 310 1
54 318 1
54 342 1
54 358 1
54 374 1
54 382 1
54 470 1
54 486 1
54 502 1
54 510 1
55 87 1
55 103 1
55 119 1
55 127 1
55 279 1
55 295 1
55 311 1
55 319 1
55 343 1
55 359 1
55 375 1
55 383 1
55 471 1
55 487 1
55 503 1
55 511 1
56 88 1
56 104 1
56 120 1
56 128 1
56 280 1
56 296 1
56 312 1
56 320 1
56 344 1
56 360 1
56 376 1
56 384 1
56 472 1
56 488 1
56 504 1
56 512 1
57 89 1
57 105 1
57 113 1
57 121 1
57 281 1
57 297 1
57 305 1
57 313 1
57 345 1
57 361 1
57 369 1
57 377 1
57 473 1
57 489 1
57 497 1
57 505 1
58 90 1
58 106 1
58 114 1
58 122 1
58 282 1
58 298 1
58 306 1
58 314 1
58 346 1
58 362 1
58 370 1
58 378 1
58 474 1
58 490 1
58 498 1
58 506 1
59 91 1
59 107 1
59 115 1
59 123 1
59 283 1
59 299 1
59 307 1
59 315 1
59 347 1
59 363 1
59 371 1
59 379 1
59 475 1
59 491 1
59 499 1
59 507 1
60 92 1
60 108 1
60 116 1
60 124 1
60 284 1
60 300 1
60 308 1
60 316 1
60 348 1
60 364 1
60 372 1
60 380 1
60 476 1
60 492 1
60 500 1
60 508 1
61 93 1
61 109 1
61 117 1
61 125 1
61 285 1
61 301 1
61 309 1
61 317 1
61 349 1
61 365 1
61 373 1
61 381 1
61 477 1
61 493 1
61 501 1
61 509 1
62 94 1
62 110 1
62 118 1
62 126 1
62 286 1
62 302 1
62 310 1
62 318 1
62 350 1
62 366 1
62 374 1
62 382 1
62 478 1
62 494 1
62 502 1
62 510 1
63 95 1
63 111 1
63 119 1
63 127 1
63 287 1
63 303 1
63 311 1
63 319 1
63 351 1
63 367 1
63 375 1
63 383 1
63 479 1
63 495 1
63 503 1
63 511 1
64 96 1
64 112 1
64 120 1
64 128 1
64 288 1
64 304 1
64 312 1
64 320 1
64 352 1
64 368 1
64 376 1
64 384 1
64 480 1
64 496 1
64 504 1
64 512 1
65 129 1
65 161 1
65 169 1
65 177 1
65 257 1
65 289 1
65 297 1
65 305 1
65 385 1
65 417 1
65 425 1
65 433 1
65 449 1
65 481 1
65 489 1
65 497 1
66 130 1
66 162 1
66 170 1
66 178 1
66 258 1
66 290 1
66 298 1
66 306 1
66 386 1
66 418 1
66 426 1
66 434 1
66 450 1
66 482 1
66 490 1
66 498 1
67 131 1
67 163 1
67 171 1
67 179 1
67 259 1
67 291 1
67 299 1
67 307 1
67 387 1
67 419 1
67 427 1
67 435 1
67 451 1
67 483 1
67 491 1
67 499 1
68 132 1
68 164 1
68 172 1
68 180 1
68 260 1
68 292 1
68 300 1
68 308 1
68 388 1
68 420 1
68 428 1
68 436 1
68 452 1
68 484 1
68 492 1
68 500 1
69 133 1
69 165 1
69 173 1
69 181 1
69 261 1
69 293 1
69 301 1
69 309 1
69 389 1
69 421 1
69 429 1
69 437 1
69 453 1
69 485 1
69 493 1
69 501 1
70 134 1
70 166 1
70 174 1
70 182 1
70 262 1
70 294 1
70 302 1
70 310 1
70 390 1
70 422 1
70 430 1
70 438 1
70 454 1
70 486 1
70 494 1
70 502 1
71 135 1
71 167 1
71 175 1
71 183 1
71 263 1
71 295 1
71 303 1
71 311 1
71 391 1
71 423 1
71 431 1
71 439 1
71 455 1
71 487 1
71 495 1
71 503 1
72 136 1
72 168 1
72 176 1
72 184 1
72 264 1
72 296 1
72 304 1
72 312 1
72 392 1
72 424 1
72 432 1
72 440 1
72 456 1
72 488 1
72 496 1
72 504 1
73 137 1
73 161 1
73 169 1
73 185 1
73 265 1
73 289 1
73 297 1
73 313 1
73 393 1
73 417 1
73 425 1
73 441 1
73 457 1
73 481 1
73 489 1
73 505 1
74 138 1
74 162 1
74 170 1
74 186 1
74 266 1
74 290 1
74 298 1
74 314 1
74 394 1
74 418 1
74 426 1
74 442 1
74 458 1
74 482 1
74 490 1
74 506 1
75 139 1
75 163 1
75 171 1
75 187 1
75 267 1
75 291 1
75 299 1
75 315 1
75 395 1
75 419 1
75 427 1
75 443 1
75 459 1
75 483 1
75 491 1
75 507 1
76 140 1
76 164 1
76 172 1
76 188 1
76 268 1
76 292 1
76 300 1
76 316 1
76 396 1
76 420 1
76 428 1
76 444 1
76 460 1
76 484 1
76 492 1
76 508 1
77 141 1
77 165 1
77 173 1
77 189 1
77 269 1
77 293 1
77 301 1
77 317 1
77 397 1
77 421 1
77 429 1
77 445 1
77 461 1
77 485 1
77 493 1
77 509 1
78 142 1
78 166 1
78 174 1
78 190 1
78 270 1
78 294 1
78 302 1
78 318 1
78 398 1
78 422 1
78 430 1
78 446 1
78 462 1
78 486 1
78 494 1
78 510 1
79 143 1
79 167 1
79 175 1
79 191 1
79 271 1
79 295 1
79 303 1
79 319 1
79 399 1
79 423 1
79 431 1
79 447 1
79 463 1
79 487 1
79 495 1
79 511 1
80 144 1
80 168 1
80 176 1
80 192 1
80 272 1
80 296 1
80 304 1
80 320 1
80 400 1
80 424 1
80 432 1
80 448 1
80 464 1
80 488 1
80 496 1
80 512 1
81 145 1
81 161 1
81 177 1
81 185 1
81 273 1
81 289 1
81 305 1
81 313 1
81 401 1
81 417 1
81 433 1
81 441 1
81 465 1
81 481 1
81 497 1
81 505 1
82 146 1
82 162 1
82 178 1
82 186 1
82 274 1
82 290 1
82 306 1
82 314 1
82 402 1
82 418 1
82 434 1
82 442 1
82 466 1
82 482 1
82 498 1
82 506 1
83 147 1
83 163 1
83 179 1
83 187 1
83 275 1
83 291 1
83 307 1
83 315 1
83 403 1
83 419 1
83 435 1
83 443 1
83 467 1
83 483 1
83 499 1
83 507 1
84 148 1
84 164 1
84 180 1
84 188 1
84 276 1
84 292 1
84 308 1
84 316 1
84 404 1
84 420 1
84 436 1
84 444 1
84 468 1
84 484 1
84 500 1
84 508 1
85 149 1
85 165 1
85 181 1
85 189 1
85 277 1
85 293 1
85 309 1
85 317 1
85 405 1
85 421 1
85 437 1
85 445 1
85 469 1
85 485 1
85 501 1
85 509 1
86 150 1
86 166 1
86 182 1
86 190 1
86 278 1
86 294 1
86 310 1
86 318 1
86 406 1
86 422 1
86 438 1
86 446 1
86 470 1
86 486 1
86 502 1
86 510 1
87 151 1
87 167 1
87 183 1
87 191 1
87 279 1
87 295 1
87 311 1
87 319 1
87 407 1
87 423 1
87 439 1
87 447 1
87 471 1
87 487 1
87 503 1
87 511 1
88 152 1
88 168 1
88 184 1
88 192 1
88 280 1
88 296 1
88 312 1
88 320 1
88 408 1
88 424 1
88 440 1
88 448 1
88 472 1
88 488 1
88 504 1
88 512 1
89 153 1
89 169 1
89 177 1
89 185 1
89 281 1
89 297 1
89 305 1
89 313 1
89 409 1
89 425 1
89 433 1
89 441 1
89 473 1
89 489 1
89 497 1
89 505 1
90 154 1
90 170 1
90 178 1
90 186 1
90 282 1
90 298 1
90 306 1
90 314 1
90 410 1
90 426 1
90 434 1
90 442 1
90 474 1
90 490 1
90 498 1
90 506 1
91 155 1
91 171 1
91 179 1
91 187 1
91 283 1
91 299 1
91 307 1
91 315 1
91 411 1
91 427 1
91 435 1
91 443 1
91 475 1
91 491 1
91 499 1
91 507 1
92 156 1
92 172 1
92 180 1
92 188 1
92 284 1
92 300 1
92 308 1
92 316 1
92 412 1
92 428 1
92 436 1
92 444 1
92 476 1
92 492 1
92 500 1
92 508 1
93 157 1
93 173 1
93 181 1
93 189 1
93 285 1
93 301 1
93 309 1
93 317 1
93 413 1
93 429 1
93 437 1
93 445 1
93 477 1
93 493 1
93 501 1
93 509 1
94 158 1
94 174 1
94 182 1
94 190 1
94 286 1
94 302 1
94 310 1
94 318 1
94 414 1
94 430 1
94 438 1
94 446 1
94 478 1
94 494 1
94 502 1
94 510 1
95 159 1
95 175 1
95 183 1
95 191 1
95 287 1
95 303 1
95 311 1
95 319 1
95 415 1
95 431 1
95 439 1
95 447 1
95 479 1
95 495 1
95 503 1
95 511 1
96 160 1
96 176 1
96 184 1
96 192 1
96 288 1
96 304 1
96 312 1
96 320 1
96 416 1
96 432 1
96 440 1
96 448 1
96 480 1
96 496 1
96 504 1
96 512 1
97 193 1
97 225 1
97 233 1
97 241 1
97 321 1
97 353 1
97 361 1
97 369 1
97 385 1
97 417 1
97 425 1
97 433 1
97 449 1
97 481 1
97 489 1
97 497 1
98 194 1
98 226 1
98 234 1
98 242 1
98 322 1
98 354 1
98 362 1
98 370 1
98 386 1
98 418 1
98 426 1
98 434 1
98 450 1
98 482 1
98 490 1
98 498 1
99 195 1
99 227 1
99 235 1
99 243 1
99 323 1
99 355 1
99 363 1
99 371 1
99 387 1
99 419 1
99 427 1
99 435 1
99 451 1
99 483 1
99 491 1
99 499 1
100 196 1
100 228 1
100 236 1
100 244 1
100 324 1
100 356 1
100 364 1
100 372 1
100 388 1
100 420 1
100 428 1
100 436 1
100 452 1
100 484 1
100 492 1
100 500 1
101 197 1
101 229 1
101 237 1
101 245 1
101 325 1
101 357 1
101 365 1
101 373 1
101 389 1
101 421 1
101 429 1
101 437 1
101 453 1
101 485 1
101 493 1
101 501 1
102 198 1
102 230 1
102 238 1
102 246 1
102 326 1
102 358 1
102 366 1
102 374 1
102 390 1
102 422 1
102 430 1
102 438 1
102 454 1
102 486 1
102 494 1
102 502 1
103 199 1
103 231 1
103 239 1
103 247 1
103 327 1
103 359 1
103 367 1
103 375 1
103 391 1
103 423 1
103 431 1
103 439 1
103 455 1
103 487 1
103 495 1
103 503 1
104 200 1
104 232 1
104 240 1
104 248 1
104 328 1
104 360 1
104 368 1
104 376 1
104 392 1
104 424 1
104 432 1
104 440 1
104 456 1
104 488 1
104 496 1
104 504 1
105 201 1
105 225 1
105 233 1
105 249 1
105 329 1
105 353 1
105 361 1
105 377 1
105 393 1
105 417 1
105 425 1
105 441 1
105 457 1
105 481 1
105 489 1
105 505 1
106 202 1
106 226 1
106 234 1
106 250 1
106 330 1
106 354 1
106 362 1
106 378 1
106 394 1
106 418 1
106 426 1
106 442 1
106 458 1
106 482 1
106 490 1
106 506 1
107 203 1
107 227 1
107 235 1
107 251 1
107 331 1
107 355 1
107 363 1
107 379 1
107 395 1
107 419 1
107 427 1
107 443 1
107 459 1
107 483 1
107 491 1
107 507 1
108 204 1
108 228 1
108 236 1
108 252 1
108 332 1
108 356 1
108 364 1
108 380 1
108 396 1
108 420 1
108 428 1
108 444 1
108 460 1
108 484 1
108 492 1
108 508 1
109 205 1
109 229 1
109 237 1
109 253 1
109 333 1
109 357 1
109 365 1
109 381 1
109 397 1
109 421 1
109 429 1
109 445 1
109 461 1
109 485 1
109 493 1
109 509 1
110 206 1
110 230 1
110 238 1
110 254 1
110 334 1
110 358 1
110 366 1
110 382 1
110 398 1
110 422 1
110 430 1
110 446 1
110 462 1
110 486 1
110 494 1
110 510 1
111 207 1
111 231 1
111 239 1
111 255 1
111 335 1
111 359 1
111 367 1
111 383 1
111 399 1
111 423 1
111 431 1
111 447 1
111 463 1
111 487 1
111 495 1
111 511 1
112 208 1
112 232 1
112 240 1
112 256 1
112 336 1
112 360 1
112 368 1
112 384 1
112 400 1
112 424 1
112 432 1
112 448 1
112 464 1
112 488 1
112 496 1
112 512 1
113 209 1
113 225 1
113 241 1
113 249 1
113 337 1
113 353 1
113 369 1
113 377 1
113 401 1
113 417 1
113 433 1
113 441 1
113 465 1
113 481 1
113 497 1
113 505 1
114 210 1
114 226 1
114 242 1
114 250 1
114 338 1
114 354 1
114 370 1
114 378 1
114 402 1
114 418 1
114 434 1
114 442 1
114 466 1
114 482 1
114 498 1
114 506 1
115 211 1
115 227 1
115 243 1
115 251 1
115 339 1
115 355 1
115 371 1
115 379 1
115 403 1
115 419 1
115 435 1
115 443 1
115 467 1
115 483 1
115 499 1
115 507 1
116 212 1
116 228 1
116 244 1
116 252 1
116 340 1
116 356 1
116 372 1
116 380 1
116 404 1
116 420 1
116 436 1
116 444 1
116 468 1
116 484 1
116 500 1
116 508 1
117 213 1
117 229 1
117 245 1
117 253 1
117 341 1
117 357 1
117 373 1
117 381 1
117 405 1
117 421 1
117 437 1
117 445 1
117 469 1
117 485 1
117 501 1
117 509 1
118 214 1
118 230 1
118 246 1
118 254 1
118 342 1
118 358 1
118 374 1
118 382 1
118 406 1
118 422 1
118 438 1
118 446 1
118 470 1
118 486 1
118 502 1
118 510 1
119 215 1
119 231 1
119 247 1
119 255 1
119 343 1
119 359 1
119 375 1
119 383 1
119 407 1
119 423 1
119 439 1
119 447 1
119 471 1
119 487 1
119 503 1
119 511 1
120 216 1
120 232 1
120 248 1
120 256 1
120 344 1
120 360 1
120 376 1
120 384 1
120 408 1
120 424 1
120 440 1
120 448 1
120 472 1
120 488 1
120 504 1
120 512 1
121 217 1
121 233 1
121 241 1
121 249 1
121 345 1
121 361 1
121 369 1
121 377 1
121 409 1
121 425 1
121 433 1
121 441 1
121 473 1
121 489 1
121 497 1
121 505 1
122 218 1
122 234 1
122 242 1
122 250 1
122 346 1
122 362 1
122 370 1
122 378 1
122 410 1
122 426 1
122 434 1
122 442 1
122 474 1
122 490 1
122 498 1
122 506 1
123 219 1
123 235 1
123 243 1
123 251 1
123 347 1
123 363 1
123 371 1
123 379 1
123 411 1
123 427 1
123 435 1
123 443 1
123 475 1
123 491 1
123 499 1
123 507 1
124 220 1
124 236 1
124 244 1
124 252 1
124 348 1
124 364 1
124 372 1
124 380 1
124 412 1
124 428 1
124 436 1
124 444 1
124 476 1
124 492 1
124 500 1
124 508 1
125 221 1
125 237 1
125 245 1
125 253 1
125 349 1
125 365 1
125 373 1
125 381 1
125 413 1
125 429 1
125 437 1
125 445 1
125 477 1
125 493 1
125 501 1
125 509 1
126 222 1
126 238 1
126 246 1
126 254 1
126 350 1
126 366 1
126 374 1
126 382 1
126 414 1
126 430 1
126 438 1
126 446 1
126 478 1
126 494 1
126 502 1
126 510 1
127 223 1
127 239 1
127 247 1
127 255 1
127 351 1
127 367 1
127 375 1
127 383 1
127 415 1
127 431 1
127 439 1
127 447 1
127 479 1
127 495 1
127 503 1
127 511 1
128 224 1
128 240 1
128 248 1
128 256 1
128 352 1
128 368 1
128 376 1
128 384 1
128 416 1
128 432 1
128 440 1
128 448 1
128 480 1
128 496 1
128 504 1
128 512 1
129 1 1
129 38 1
129 51 1
129 64 1
129 197 1
129 227 1
129 242 1
129 249 1
129 327 1
129 357 1
129 372 1
129 378 1
129 391 1
129 421 1
129 436 1
129 442 1
130 2 1
130 33 1
130 53 1
130 59 1
130 199 1
130 229 1
130 244 1
130 250 1
130 328 1
130 359 1
130 374 1
130 380 1
130 392 1
130 423 1
130 438 1
130 444 1
131 3 1
131 40 1
131 49 1
131 62 1
131 194 1
131 225 1
131 245 1
131 251 1
131 324 1
131 354 1
131 375 1
131 381 1
131 388 1
131 418 1
131 439 1
131 445 1
132 4 1
132 34 1
132 55 1
132 61 1
132 200 1
132 231 1
132 246 1
132 252 1
132 323 1
132 360 1
132 369 1
132 382 1
132 387 1
132 424 1
132 433 1
132 446 1
133 5 1
133 35 1
133 50 1
133 57 1
133 196 1
133 226 1
133 247 1
133 253 1
133 326 1
133 356 1
133 376 1
133 383 1
133 390 1
133 420 1
133 440 1
133 447 1
134 6 1
134 36 1
134 56 1
134 63 1
134 195 1
134 232 1
134 241 1
134 254 1
134 325 1
134 355 1
134 370 1
134 377 1
134 389 1
134 419 1
134 434 1
134 441 1
135 7 1
135 37 1
135 52 1
135 58 1
135 198 1
135 228 1
135 248 1
135 255 1
135 321 1
135 358 1
135 371 1
135 384 1
135 385 1
135 422 1
135 435 1
135 448 1
136 8 1
136 39 1
136 54 1
136 60 1
136 193 1
136 230 1
136 243 1
136 256 1
136 322 1
136 353 1
136 373 1
136 379 1
136 386 1
136 417 1
136 437 1
136 443 1
137 9 1
137 38 1
137 43 1
137 51 1
137 205 1
137 227 1
137 234 1
137 242 1
137 335 1
137 357 1
137 364 1
137 372 1
137 399 1
137 421 1
137 428 1
137 436 1
138 10 1
138 33 1
138 45 1
138 53 1
138 207 1
138 229 1
138 236 1
138 244 1
138 336 1
138 359 1
138 366 1
138 374 1
138 400 1
138 423 1
138 430 1
138 438 1
139 11 1
139 40 1
139 41 1
139 49 1
139 202 1
139 225 1
139 237 1
139 245 1
139 332 1
139 354 1
139 367 1
139 375 1
139 396 1
139 418 1
139 431 1
139 439 1
140 12 1
140 34 1
140 47 1
140 55 1
140 208 1
140 231 1
140 238 1
140 246 1
140 331 1
140 360 1
140 361 1
140 369 1
140 395 1
140 424 1
140 425 1
140 433 1
141 13 1
141 35 1
141 42 1
141 50 1
141 204 1
141 226 1
141 239 1
141 247 1
141 334 1
141 356 1
141 368 1
141 376 1
141 398 1
141 420 1
141 432 1
141 440 1
142 14 1
142 36 1
142 48 1
142 56 1
142 203 1
142 232 1
142 233 1
142 241 1
142 333 1
142 355 1
142 362 1
142 370 1
142 397 1
142 419 1
142 426 1
142 434 1
143 15 1
143 37 1
143 44 1
143 52 1
143 206 1
143 228 1
143 240 1
143 248 1
143 329 1
143 358 1
143 363 1
143 371 1
143 393 1
143 422 1
143 427 1
143 435 1
144 16 1
144 39 1
144 46 1
144 54 1
144 201 1
144 230 1
144 235 1
144 243 1
144 330 1
144 353 1
144 365 1
144 373 1
144 394 1
144 417 1
144 429 1
144 437 1
145 22 1
145 38 1
145 43 1
145 64 1
145 211 1
145 227 1
145 234 1
145 249 1
145 341 1
145 357 1
145 364 1
145 378 1
145 405 1
145 421 1
145 428 1
145 442 1
146 17 1
146 33 1
146 45 1
146 59 1
146 213 1
146 229 1
146 236 1
146 250 1
146 343 1
146 359 1
146 366 1
146 380 1
146 407 1
146 423 1
146 430 1
146 444 1
147 24 1
147 40 1
147 41 1
147 62 1
147 209 1
147 225 1
147 237 1
147 251 1
147 338 1
147 354 1
147 367 1
147 381 1
147 402 1
147 418 1
147 431 1
147 445 1
148 18 1
148 34 1
148 47 1
148 61 1
148 215 1
148 231 1
148 238 1
148 252 1
148 344 1
148 360 1
148 361 1
148 382 1
148 408 1
148 424 1
148 425 1
148 446 1
149 19 1
149 35 1
149 42 1
149 57 1
149 210 1
149 226 1
149 239 1
149 253 1
149 340 1
149 356 1
149 368 1
149 383 1
149 404 1
149 420 1
149 432 1
149 447 1
150 20 1
150 36 1
150 48 1
150 63 1
150 216 1
150 232 1
150 233 1
150 254 1
150 339 1
150 355 1
150 362 1
150 377 1
150 403 1
150 419 1
150 426 1
150 441 1
151 21 1
151 37 1
151 44 1
151 58 1
151 212 1
151 228 1
151 240 1
151 255 1
151 342 1
151 358 1
151 363 1
151 384 1
151 406 1
151 422 1
151 427 1
151 448 1
152 23 1
152 39 1
152 46 1
152 60 1
152 214 1
152 230 1
152 235 1
152 256 1
152 337 1
152 353 1
152 365 1
152 379 1
152 401 1
152 417 1
152 429 1
152 443 1
153 30 1
153 43 1
153 51 1
153 64 1
153 219 1
153 234 1
153 242 1
153 249 1
153 349 1
153 364 1
153 372 1
153 378 1
153 413 1
153 428 1
153 436 1
153 442 1
154 25 1
154 45 1
154 53 1
154 59 1
154 221 1
154 236 1
154 244 1
154 250 1
154 351 1
154 366 1
154 374 1
154 380 1
154 415 1
154 430 1
154 438 1
154 444 1
155 32 1
155 41 1
155 49 1
155 62 1
155 217 1
155 237 1
155 245 1
155 251 1
155 346 1
155 367 1
155 375 1
155 381 1
155 410 1
155 431 1
155 439 1
155 445 1
156 26 1
156 47 1
156 55 1
156 61 1
156 223 1
156 238 1
156 246 1
156 252 1
156 352 1
156 361 1
156 369 1
156 382 1
156 416 1
156 425 1
156 433 1
156 446 1
157 27 1
157 42 1
157 50 1
157 57 1
157 218 1
157 239 1
157 247 1
157 253 1
157 348 1
157 368 1
157 376 1
157 383 1
157 412 1
157 432 1
157 440 1
157 447 1
158 28 1
158 48 1
158 56 1
158 63 1
158 224 1
158 233 1
158 241 1
158 254 1
158 347 1
158 362 1
158 370 1
158 377 1
158 411 1
158 426 1
158 434 1
158 441 1
159 29 1
159 44 1
159 52 1
159 58 1
159 220 1
159 240 1
159 248 1
159 255 1
159 350 1
159 363 1
159 371 1
159 384 1
159 414 1
159 427 1
159 435 1
159 448 1
160 31 1
160 46 1
160 54 1
160 60 1
160 222 1
160 235 1
160 243 1
160 256 1
160 345 1
160 365 1
160 373 1
160 379 1
160 409 1
160 429 1
160 437 1
160 443 1
161 65 1
161 102 1
161 115 1
161 128 1
161 197 1
161 227 1
161 242 1
161 249 1
161 327 1
161 357 1
161 372 1
161 378 1
161 456 1
161 487 1
161 502 1
161 508 1
162 66 1
162 97 1
162 117 1
162 123 1
162 199 1
162 229 1
162 244 1
162 250 1
162 328 1
162 359 1
162 374 1
162 380 1
162 451 1
162 488 1
162 497 1
162 510 1
163 67 1
163 104 1
163 113 1
163 126 1
163 194 1
163 225 1
163 245 1
163 251 1
163 324 1
163 354 1
163 375 1
163 381 1
163 454 1
163 484 1
163 504 1
163 511 1
164 68 1
164 98 1
164 119 1
164 125 1
164 200 1
164 231 1
164 246 1
164 252 1
164 323 1
164 360 1
164 369 1
164 382 1
164 453 1
164 483 1
164 498 1
164 505 1
165 69 1
165 99 1
165 114 1
165 121 1
165 196 1
165 226 1
165 247 1
165 253 1
165 326 1
165 356 1
165 376 1
165 383 1
165 449 1
165 486 1
165 499 1
165 512 1
166 70 1
166 100 1
166 120 1
166 127 1
166 195 1
166 232 1
166 241 1
166 254 1
166 325 1
166 355 1
166 370 1
166 377 1
166 455 1
166 485 1
166 500 1
166 506 1
167 71 1
167 101 1
167 116 1
167 122 1
167 198 1
167 228 1
167 248 1
167 255 1
167 321 1
167 358 1
167 371 1
167 384 1
167 450 1
167 481 1
167 501 1
167 507 1
168 72 1
168 103 1
168 118 1
168 124 1
168 193 1
168 230 1
168 243 1
168 256 1
168 322 1
168 353 1
168 373 1
168 379 1
168 452 1
168 482 1
168 503 1
168 509 1
169 73 1
169 102 1
169 107 1
169 115 1
169 205 1
169 227 1
169 234 1
169 242 1
169 335 1
169 357 1
169 364 1
169 372 1
169 464 1
169 487 1
169 494 1
169 502 1
170 74 1
170 97 1
170 109 1
170 117 1
170 207 1
170 229 1
170 236 1
170 244 1
170 336 1
170 359 1
170 366 1
170 374 1
170 459 1
170 488 1
170 489 1
170 497 1
171 75 1
171 104 1
171 105 1
171 113 1
171 202 1
171 225 1
171 237 1
171 245 1
171 332 1
171 354 1
171 367 1
171 375 1
171 462 1
171 484 1
171 496 1
171 504 1
172 76 1
172 98 1
172 111 1
172 119 1
172 208 1
172 231 1
172 238 1
172 246 1
172 331 1
172 360 1
172 361 1
172 369 1
172 461 1
172 483 1
172 490 1
172 498 1
173 77 1
173 99 1
173 106 1
173 114 1
173 204 1
173 226 1
173 239 1
173 247 1
173 334 1
173 356 1
173 368 1
173 376 1
173 457 1
173 486 1
173 491 1
173 499 1
174 78 1
174 100 1
174 112 1
174 120 1
174 203 1
174 232 1
174 233 1
174 241 1
174 333 1
174 355 1
174 362 1
174 370 1
174 463 1
174 485 1
174 492 1
174 500 1
175 79 1
175 101 1
175 108 1
175 116 1
175 206 1
175 228 1
175 240 1
175 248 1
175 329 1
175 358 1
175 363 1
175 371 1
175 458 1
175 481 1
175 493 1
175 501 1
176 80 1
176 103 1
176 110 1
176 118 1
176 201 1
176 230 1
176 235 1
176 243 1
176 330 1
176 353 1
176 365 1
176 373 1
176 460 1
176 482 1
176 495 1
176 503 1
177 86 1
177 102 1
177 107 1
177 128 1
177 211 1
177 227 1
177 234 1
177 249 1
177 341 1
177 357 1
177 364 1
177 378 1
177 471 1
177 487 1
177 494 1
177 508 1
178 81 1
178 97 1
178 109 1
178 123 1
178 213 1
178 229 1
178 236 1
178 250 1
178 343 1
178 359 1
178 366 1
178 380 1
178 472 1
178 488 1
178 489 1
178 510 1
179 88 1
179 104 1
179 105 1
179 126 1
179 209 1
179 225 1
179 237 1
179 251 1
179 338 1
179 354 1
179 367 1
179 381 1
179 468 1
179 484 1
179 496 1
179 511 1
180 82 1
180 98 1
180 111 1
180 125 1
180 215 1
180 231 1
180 238 1
180 252 1
180 344 1
180 360 1
180 361 1
180 382 1
180 467 1
180 483 1
180 490 1
180 505 1
181 83 1
181 99 1
181 106 1
181 121 1
181 210 1
181 226 1
181 239 1
181 253 1
181 340 1
181 356 1
181 368 1
181 383 1
181 470 1
181 486 1
181 491 1
181 512 1
182 84 1
182 100 1
182 112 1
182 127 1
182 216 1
182 232 1
182 233 1
182 254 1
182 339 1
182 355 1
182 362 1
182 377 1
182 469 1
182 485 1
182 492 1
182 506 1
183 85 1
183 101 1
183 108 1
183 122 1
183 212 1
183 228 1
183 240 1
183 255 1
183 342 1
183 358 1
183 363 1
183 384 1
183 465 1
183 481 1
183 493 1
183 507 1
184 87 1
184 103 1
184 110 1
184 124 1
184 214 1
184 230 1
184 235 1
184 256 1
184 337 1
184 353 1
184 365 1
184 379 1
184 466 1
184 482 1
184 495 1
184 509 1
185 94 1
185 107 1
185 115 1
185 128 1
185 219 1
185 234 1
185 242 1
185 249 1
185 349 1
185 364 1
185 372 1
185 378 1
185 479 1
185 494 1
185 502 1
185 508 1
186 89 1
186 109 1
186 117 1
186 123 1
186 221 1
186 236 1
186 244 1
186 250 1
186 351 1
186 366 1
186 374 1
186 380 1
186 480 1
186 489 1
186 497 1
186 510 1
187 96 1
187 105 1
187 113 1
187 126 1
187 217 1
187 237 1
187 245 1
187 251 1
187 346 1
187 367 1
187 375 1
187 381 1
187 476 1
187 496 1
187 504 1
187 511 1
188 90 1
188 111 1
188 119 1
188 125 1
188 223 1
188 238 1
188 246 1
188 252 1
188 352 1
188 361 1
188 369 1
188 382 1
188 475 1
188 490 1
188 498 1
188 505 1
189 91 1
189 106 1
189 114 1
189 121 1
189 218 1
189 239 1
189 247 1
189 253 1
189 348 1
189 368 1
189 376 1
189 383 1
189 478 1
189 491 1
189 499 1
189 512 1
190 92 1
190 112 1
190 120 1
190 127 1
190 224 1
190 233 1
190 241 1
190 254 1
190 347 1
190 362 1
190 370 1
190 377 1
190 477 1
190 492 1
190 500 1
190 506 1
191 93 1
191 108 1
191 116 1
191 122 1
191 220 1
191 240 1
191 248 1
191 255 1
191 350 1
191 363 1
191 371 1
191 384 1
191 473 1
191 493 1
191 501 1
191 507 1
192 95 1
192 110 1
192 118 1
192 124 1
192 222 1
192 235 1
192 243 1
192 256 1
192 345 1
192 365 1
192 373 1
192 379 1
192 474 1
192 495 1
192 503 1
192 509 1
193 130 1
193 161 1
193 181 1
193 187 1
193 197 1
193 227 1
193 242 1
193 249 1
193 391 1
193 421 1
193 436 1
193 442 1
193 456 1
193 487 1
193 502 1
193 508 1
194 132 1
194 162 1
194 183 1
194 189 1
194 199 1
194 229 1
194 244 1
194 250 1
194 392 1
194 423 1
194 438 1
194 444 1
194 451 1
194 488 1
194 497 1
194 510 1
195 133 1
195 163 1
195 178 1
195 185 1
195 194 1
195 225 1
195 245 1
195 251 1
195 388 1
195 418 1
195 439 1
195 445 1
195 454 1
195 484 1
195 504 1
195 511 1
196 134 1
196 164 1
196 184 1
196 191 1
196 200 1
196 231 1
196 246 1
196 252 1
196 387 1
196 424 1
196 433 1
196 446 1
196 453 1
196 483 1
196 498 1
196 505 1
197 135 1
197 165 1
197 180 1
197 186 1
197 196 1
197 226 1
197 247 1
197 253 1
197 390 1
197 420 1
197 440 1
197 447 1
197 449 1
197 486 1
197 499 1
197 512 1
198 129 1
198 166 1
198 179 1
198 192 1
198 195 1
198 232 1
198 241 1
198 254 1
198 389 1
198 419 1
198 434 1
198 441 1
198 455 1
198 485 1
198 500 1
198 506 1
199 136 1
199 167 1
199 182 1
199 188 1
199 198 1
199 228 1
199 248 1
199 255 1
199 385 1
199 422 1
199 435 1
199 448 1
199 450 1
199 481 1
199 501 1
199 507 1
200 131 1
200 168 1
200 177 1
200 190 1
200 193 1
200 230 1
200 243 1
200 256 1
200 386 1
200 417 1
200 437 1
200 443 1
200 452 1
200 482 1
200 503 1
200 509 1
201 138 1
201 161 1
201 173 1
201 181 1
201 205 1
201 227 1
201 234 1
201 242 1
201 399 1
201 421 1
201 428 1
201 436 1
201 464 1
201 487 1
201 494 1
201 502 1
202 140 1
202 162 1
202 175 1
202 183 1
202 207 1
202 229 1
202 236 1
202 244 1
202 400 1
202 423 1
202 430 1
202 438 1
202 459 1
202 488 1
202 489 1
202 497 1
203 141 1
203 163 1
203 170 1
203 178 1
203 202 1
203 225 1
203 237 1
203 245 1
203 396 1
203 418 1
203 431 1
203 439 1
203 462 1
203 484 1
203 496 1
203 504 1
204 142 1
204 164 1
204 176 1
204 184 1
204 208 1
204 231 1
204 238 1
204 246 1
204 395 1
204 424 1
204 425 1
204 433 1
204 461 1
204 483 1
204 490 1
204 498 1
205 143 1
205 165 1
205 172 1
205 180 1
205 204 1
205 226 1
205 239 1
205 247 1
205 398 1
205 420 1
205 432 1
205 440 1
205 457 1
205 486 1
205 491 1
205 499 1
206 137 1
206 166 1
206 171 1
206 179 1
206 203 1
206 232 1
206 233 1
206 241 1
206 397 1
206 419 1
206 426 1
206 434 1
206 463 1
206 485 1
206 492 1
206 500 1
207 144 1
207 167 1
207 174 1
207 182 1
207 206 1
207 228 1
207 240 1
207 248 1
207 393 1
207 422 1
207 427 1
207 435 1
207 458 1
207 481 1
207 493 1
207 501 1
208 139 1
208 168 1
208 169 1
208 177 1
208 201 1
208 230 1
208 235 1
208 243 1
208 394 1
208 417 1
208 429 1
208 437 1
208 460 1
208 482 1
208 495 1
208 503 1
209 145 1
209 161 1
209 173 1
209 187 1
209 211 1
209 227 1
209 234 1
209 249 1
209 405 1
209 421 1
209 428 1
209 442 1
209 471 1
209 487 1
209 494 1
209 508 1
210 146 1
210 162 1
210 175 1
210 189 1
210 213 1
210 229 1
210 236 1
210 250 1
210 407 1
210 423 1
210 430 1
210 444 1
210 472 1
210 488 1
210 489 1
210 510 1
211 147 1
211 163 1
211 170 1
211 185 1
211 209 1
211 225 1
211 237 1
211 251 1
211 402 1
211 418 1
211 431 1
211 445 1
211 468 1
211 484 1
211 496 1
211 511 1
212 148 1
212 164 1
212 176 1
212 191 1
212 215 1
212 231 1
212 238 1
212 252 1
212 408 1
212 424 1
212 425 1
212 446 1
212 467 1
212 483 1
212 490 1
212 505 1
213 149 1
213 165 1
213 172 1
213 186 1
213 210 1
213 226 1
213 239 1
213 253 1
213 404 1
213 420 1
213 432 1
213 447 1
213 470 1
213 486 1
213 491 1
213 512 1
214 150 1
214 166 1
214 171 1
214 192 1
214 216 1
214 232 1
214 233 1
214 254 1
214 403 1
214 419 1
214 426 1
214 441 1
214 469 1
214 485 1
214 492 1
214 506 1
215 151 1
215 167 1
215 174 1
215 188 1
215 212 1
215 228 1
215 240 1
215 255 1
215 406 1
215 422 1
215 427 1
215 448 1
215 465 1
215 481 1
215 493 1
215 507 1
216 152 1
216 168 1
216 169 1
216 190 1
216 214 1
216 230 1
216 235 1
216 256 1
216 401 1
216 417 1
216 429 1
216 443 1
216 466 1
216 482 1
216 495 1
216 509 1
217 153 1
217 173 1
217 181 1
217 187 1
217 219 1
217 234 1
217 242 1
217 249 1
217 413 1
217 428 1
217 436 1
217 442 1
217 479 1
217 494 1
217 502 1
217 508 1
218 154 1
218 175 1
218 183 1
218 189 1
218 221 1
218 236 1
218 244 1
218 250 1
218 415 1
218 430 1
218 438 1
218 444 1
218 480 1
218 489 1
218 497 1
218 510 1
219 155 1
219 170 1
219 178 1
219 185 1
219 217 1
219 237 1
219 245 1
219 251 1
219 410 1
219 431 1
219 439 1
219 445 1
219 476 1
219 496 1
219 504 1
219 511 1
220 156 1
220 176 1
220 184 1
220 191 1
220 223 1
220 238 1
220 246 1
220 252 1
220 416 1
220 425 1
220 433 1
220 446 1
220 475 1
220 490 1
220 498 1
220 505 1
221 157 1
221 172 1
221 180 1
221 186 1
221 218 1
221 239 1
221 247 1
221 253 1
221 412 1
221 432 1
221 440 1
221 447 1
221 478 1
221 491 1
221 499 1
221 512 1
222 158 1
222 171 1
222 179 1
222 192 1
222 224 1
222 233 1
222 241 1
222 254 1
222 411 1
222 426 1
222 434 1
222 441 1
222 477 1
222 492 1
222 500 1
222 506 1
223 159 1
223 174 1
223 182 1
223 188 1
223 220 1
223 240 1
223 248 1
223 255 1
223 414 1
223 427 1
223 435 1
223 448 1
223 473 1
223 493 1
223 501 1
223 507 1
224 160 1
224 169 1
224 177 1
224 190 1
224 222 1
224 235 1
224 243 1
224 256 1
224 409 1
224 429 1
224 437 1
224 443 1
224 474 1
224 495 1
224 503 1
224 509 1
225 262 1
225 292 1
225 312 1
225 319 1
225 327 1
225 357 1
225 372 1
225 378 1
225 391 1
225 421 1
225 436 1
225 442 1
225 456 1
225 487 1
225 502 1
225 508 1
226 257 1
226 294 1
226 307 1
226 320 1
226 328 1
226 359 1
226 374 1
226 380 1
226 392 1
226 423 1
226 438 1
226 444 1
226 451 1
226 488 1
226 497 1
226 510 1
227 264 1
227 295 1
227 310 1
227 316 1
227 324 1
227 354 1
227 375 1
227 381 1
227 388 1
227 418 1
227 439 1
227 445 1
227 454 1
227 484 1
227 504 1
227 511 1
228 258 1
228 289 1
228 309 1
228 315 1
228 323 1
228 360 1
228 369 1
228 382 1
228 387 1
228 424 1
228 433 1
228 446 1
228 453 1
228 483 1
228 498 1
228 505 1
229 259 1
229 296 1
229 305 1
229 318 1
229 326 1
229 356 1
229 376 1
229 383 1
229 390 1
229 420 1
229 440 1
229 447 1
229 449 1
229 486 1
229 499 1
229 512 1
230 260 1
230 290 1
230 311 1
230 317 1
230 325 1
230 355 1
230 370 1
230 377 1
230 389 1
230 419 1
230 434 1
230 441 1
230 455 1
230 485 1
230 500 1
230 506 1
231 261 1
231 291 1
231 306 1
231 313 1
231 321 1
231 358 1
231 371 1
231 384 1
231 385 1
231 422 1
231 435 1
231 448 1
231 450 1
231 481 1
231 501 1
231 507 1
232 263 1
232 293 1
232 308 1
232 314 1
232 322 1
232 353 1
232 373 1
232 379 1
232 386 1
232 417 1
232 437 1
232 443 1
232 452 1
232 482 1
232 503 1
232 509 1
233 270 1
233 292 1
233 304 1
233 312 1
233 335 1
233 357 1
233 364 1
233 372 1
233 399 1
233 421 1
233 428 1
233 436 1
233 464 1
233 487 1
233 494 1
233 502 1
234 265 1
234 294 1
234 299 1
234 307 1
234 336 1
234 359 1
234 366 1
234 374 1
234 400 1
234 423 1
234 430 1
234 438 1
234 459 1
234 488 1
234 489 1
234 497 1
235 272 1
235 295 1
235 302 1
235 310 1
235 332 1
235 354 1
235 367 1
235 375 1
235 396 1
235 418 1
235 431 1
235 439 1
235 462 1
235 484 1
235 496 1
235 504 1
236 266 1
236 289 1
236 301 1
236 309 1
236 331 1
236 360 1
236 361 1
236 369 1
236 395 1
236 424 1
236 425 1
236 433 1
236 461 1
236 483 1
236 490 1
236 498 1
237 267 1
237 296 1
237 297 1
237 305 1
237 334 1
237 356 1
237 368 1
237 376 1
237 398 1
237 420 1
237 432 1
237 440 1
237 457 1
237 486 1
237 491 1
237 499 1
238 268 1
238 290 1
238 303 1
238 311 1
238 333 1
238 355 1
238 362 1
238 370 1
238 397 1
238 419 1
238 426 1
238 434 1
238 463 1
238 485 1
238 492 1
238 500 1
239 269 1
239 291 1
239 298 1
239 306 1
239 329 1
239 358 1
239 363 1
239 371 1
239 393 1
239 422 1
239 427 1
239 435 1
239 458 1
239 481 1
239 493 1
239 501 1
240 271 1
240 293 1
240 300 1
240 308 1
240 330 1
240 353 1
240 365 1
240 373 1
240 394 1
240 417 1
240 429 1
240 437 1
240 460 1
240 482 1
240 495 1
240 503 1
241 276 1
241 292 1
241 304 1
241 319 1
241 341 1
241 357 1
241 364 1
241 378 1
241 405 1
241 421 1
241 428 1
241 442 1
241 471 1
241 487 1
241 494 1
241 508 1
242 278 1
242 294 1
242 299 1
242 320 1
242 343 1
242 359 1
242 366 1
242 380 1
242 407 1
242 423 1
242 430 1
242 444 1
242 472 1
242 488 1
242 489 1
242 510 1
243 279 1
243 295 1
243 302 1
243 316 1
243 338 1
243 354 1
243 367 1
243 381 1
243 402 1
243 418 1
243 431 1
243 445 1
243 468 1
243 484 1
243 496 1
243 511 1
244 273 1
244 289 1
244 301 1
244 315 1
244 344 1
244 360 1
244 361 1
244 382 1
244 408 1
244 424 1
244 425 1
244 446 1
244 467 1
244 483 1
244 490 1
244 505 1
245 280 1
245 296 1
245 297 1
245 318 1
245 340 1
245 356 1
245 368 1
245 383 1
245 404 1
245 420 1
245 432 1
245 447 1
245 470 1
245 486 1
245 491 1
245 512 1
246 274 1
246 290 1
246 303 1
246 317 1
246 339 1
246 355 1
246 362 1
246 377 1
246 403 1
246 419 1
246 426 1
246 441 1
246 469 1
246 485 1
246 492 1
246 506 1
247 275 1
247 291 1
247 298 1
247 313 1
247 342 1
247 358 1
247 363 1
247 384 1
247 406 1
247 422 1
247 427 1
247 448 1
247 465 1
247 481 1
247 493 1
247 507 1
248 277 1
248 293 1
248 300 1
248 314 1
248 337 1
248 353 1
248 365 1
248 379 1
248 401 1
248 417 1
248 429 1
248 443 1
248 466 1
248 482 1
248 495 1
248 509 1
249 284 1
249 304 1
249 312 1
249 319 1
249 349 1
249 364 1
249 372 1
249 378 1
249 413 1
249 428 1
249 436 1
249 442 1
249 479 1
249 494 1
249 502 1
249 508 1
250 286 1
250 299 1
250 307 1
250 320 1
250 351 1
250 366 1
250 374 1
250 380 1
250 415 1
250 430 1
250 438 1
250 444 1
250 480 1
250 489 1
250 497 1
250 510 1
251 287 1
251 302 1
251 310 1
251 316 1
251 346 1
251 367 1
251 375 1
251 381 1
251 410 1
251 431 1
251 439 1
251 445 1
251 476 1
251 496 1
251 504 1
251 511 1
252 281 1
252 301 1
252 309 1
252 315 1
252 352 1
252 361 1
252 369 1
252 382 1
252 416 1
252 425 1
252 433 1
252 446 1
252 475 1
252 490 1
252 498 1
252 505 1
253 288 1
253 297 1
253 305 1
253 318 1
253 348 1
253 368 1
253 376 1
253 383 1
253 412 1
253 432 1
253 440 1
253 447 1
253 478 1
253 491 1
253 499 1
253 512 1
254 282 1
254 303 1
254 311 1
254 317 1
254 347 1
254 362 1
254 370 1
254 377 1
254 411 1
254 426 1
254 434 1
254 441 1
254 477 1
254 492 1
254 500 1
254 506 1
255 283 1
255 298 1
255 306 1
255 313 1
255 350 1
255 363 1
255 371 1
255 384 1
255 414 1
255 427 1
255 435 1
255 448 1
255 473 1
255 493 1
255 501 1
255 507 1
256 285 1
256 300 1
256 308 1
256 314 1
256 345 1
256 365 1
256 373 1
256 379 1
256 409 1
256 429 1
256 437 1
256 443 1
256 474 1
256 495 1
256 503 1
256 509 1
