%%MatrixMarket matrix coordinate integer general
288 576 2592
1 1 1
1 43 1
1 86 1
1 289 1
1 331 1
1 374 1
1 385 1
1 427 1
1 470 1
2 2 1
2 46 1
2 84 1
2 290 1
2 334 1
2 372 1
2 386 1
2 430 1
2 468 1
3 3 1
3 47 1
3 87 1
3 291 1
3 335 1
3 375 1
3 387 1
3 431 1
3 471 1
4 4 1
4 33 1
4 92 1
4 292 1
4 321 1
4 380 1
4 388 1
4 417 1
4 476 1
5 5 1
5 36 1
5 93 1
5 293 1
5 324 1
5 381 1
5 389 1
5 420 1
5 477 1
6 6 1
6 48 1
6 89 1
6 294 1
6 336 1
6 377 1
6 390 1
6 432 1
6 473 1
7 7 1
7 34 1
7 85 1
7 295 1
7 322 1
7 373 1
7 391 1
7 418 1
7 469 1
8 8 1
8 39 1
8 91 1
8 296 1
8 327 1
8 379 1
8 392 1
8 423 1
8 475 1
9 9 1
9 35 1
9 88 1
9 297 1
9 323 1
9 376 1
9 393 1
9 419 1
9 472 1
10 10 1
10 41 1
10 94 1
10 298 1
10 329 1
10 382 1
10 394 1
10 425 1
10 478 1
11 11 1
11 37 1
11 96 1
11 299 1
11 325 1
11 384 1
11 395 1
11 421 1
11 480 1
12 12 1
12 38 1
12 90 1
12 300 1
12 326 1
12 378 1
12 396 1
12 422 1
12 474 1
13 13 1
13 44 1
13 95 1
13 301 1
13 332 1
13 383 1
13 397 1
13 428 1
13 479 1
14 14 1
14 40 1
14 81 1
14 302 1
14 328 1
14 369 1
14 398 1
14 424 1
14 465 1
15 15 1
15 42 1
15 82 1
15 303 1
15 330 1
15 370 1
15 399 1
15 426 1
15 466 1
16 16 1
16 45 1
16 83 1
16 304 1
16 333 1
16 371 1
16 400 1
16 429 1
16 467 1
17 1 1
17 59 1
17 76 1
17 289 1
17 347 1
17 364 1
17 385 1
17 443 1
17 460 1
18 2 1
18 62 1
18 69 1
18 290 1
18 350 1
18 357 1
18 386 1
18 446 1
18 453 1
19 3 1
19 63 1
19 72 1
19 291 1
19 351 1
19 360 1
19 387 1
19 447 1
19 456 1
20 4 1
20 49 1
20 77 1
20 292 1
20 337 1
20 365 1
20 388 1
20 433 1
20 461 1
21 5 1
21 52 1
21 80 1
21 293 1
21 340 1
21 368 1
21 389 1
21 436 1
21 464 1
22 6 1
22 64 1
22 74 1
22 294 1
22 352 1
22 362 1
22 390 1
22 448 1
22 458 1
23 7 1
23 50 1
23 75 1
23 295 1
23 338 1
23 363 1
23 391 1
23 434 1
23 459 1
24 8 1
24 55 1
24 65 1
24 296 1
24 343 1
24 353 1
24 392 1
24 439 1
24 449 1
25 9 1
25 51 1
25 78 1
25 297 1
25 339 1
25 366 1
25 393 1
25 435 1
25 462 1
26 10 1
26 57 1
26 66 1
26 298 1
26 345 1
26 354 1
26 394 1
26 441 1
26 450 1
27 11 1
27 53 1
27 70 1
27 299 1
27 341 1
27 358 1
27 395 1
27 437 1
27 454 1
28 12 1
28 54 1
28 79 1
28 300 1
28 342 1
28 367 1
28 396 1
28 438 1
28 463 1
29 13 1
29 60 1
29 67 1
29 301 1
29 348 1
29 355 1
29 397 1
29 444 1
29 451 1
30 14 1
30 56 1
30 68 1
30 302 1
30 344 1
30 356 1
30 398 1
30 440 1
30 452 1
31 15 1
31 58 1
31 71 1
31 303 1
31 346 1
31 359 1
31 399 1
31 442 1
31 455 1
32 16 1
32 61 1
32 73 1
32 304 1
32 349 1
32 361 1
32 400 1
32 445 1
32 457 1
33 31 1
33 43 1
33 76 1
33 319 1
33 331 1
33 364 1
33 415 1
33 427 1
33 460 1
34 32 1
34 46 1
34 69 1
34 320 1
34 334 1
34 357 1
34 416 1
34 430 1
34 453 1
35 17 1
35 47 1
35 72 1
35 305 1
35 335 1
35 360 1
35 401 1
35 431 1
35 456 1
36 19 1
36 33 1
36 77 1
36 307 1
36 321 1
36 365 1
36 403 1
36 417 1
36 461 1
37 25 1
37 36 1
37 80 1
37 313 1
37 324 1
37 368 1
37 409 1
37 420 1
37 464 1
38 18 1
38 48 1
38 74 1
38 306 1
38 336 1
38 362 1
38 402 1
38 432 1
38 458 1
39 22 1
39 34 1
39 75 1
39 310 1
39 322 1
39 363 1
39 406 1
39 418 1
39 459 1
40 28 1
40 39 1
40 65 1
40 316 1
40 327 1
40 353 1
40 412 1
40 423 1
40 449 1
41 20 1
41 35 1
41 78 1
41 308 1
41 323 1
41 366 1
41 404 1
41 419 1
41 462 1
42 21 1
42 41 1
42 66 1
42 309 1
42 329 1
42 354 1
42 405 1
42 425 1
42 450 1
43 26 1
43 37 1
43 70 1
43 314 1
43 325 1
43 358 1
43 410 1
43 421 1
43 454 1
44 23 1
44 38 1
44 79 1
44 311 1
44 326 1
44 367 1
44 407 1
44 422 1
44 463 1
45 24 1
45 44 1
45 67 1
45 312 1
45 332 1
45 355 1
45 408 1
45 428 1
45 451 1
46 29 1
46 40 1
46 68 1
46 317 1
46 328 1
46 356 1
46 413 1
46 424 1
46 452 1
47 27 1
47 42 1
47 71 1
47 315 1
47 330 1
47 359 1
47 411 1
47 426 1
47 455 1
48 30 1
48 45 1
48 73 1
48 318 1
48 333 1
48 361 1
48 414 1
48 429 1
48 457 1
49 97 1
49 139 1
49 182 1
49 289 1
49 331 1
49 374 1
49 481 1
49 523 1
49 566 1
50 98 1
50 142 1
50 180 1
50 290 1
50 334 1
50 372 1
50 482 1
50 526 1
50 564 1
51 99 1
51 143 1
51 183 1
51 291 1
51 335 1
51 375 1
51 483 1
51 527 1
51 567 1
52 100 1
52 129 1
52 188 1
52 292 1
52 321 1
52 380 1
52 484 1
52 513 1
52 572 1
53 101 1
53 132 1
53 189 1
53 293 1
53 324 1
53 381 1
53 485 1
53 516 1
53 573 1
54 102 1
54 144 1
54 185 1
54 294 1
54 336 1
54 377 1
54 486 1
54 528 1
54 569 1
55 103 1
55 130 1
55 181 1
55 295 1
55 322 1
55 373 1
55 487 1
55 514 1
55 565 1
56 104 1
56 135 1
56 187 1
56 296 1
56 327 1
56 379 1
56 488 1
56 519 1
56 571 1
57 105 1
57 131 1
57 184 1
57 297 1
57 323 1
57 376 1
57 489 1
57 515 1
57 568 1
58 106 1
58 137 1
58 190 1
58 298 1
58 329 1
58 382 1
58 490 1
58 521 1
58 574 1
59 107 1
59 133 1
59 192 1
59 299 1
59 325 1
59 384 1
59 491 1
59 517 1
59 576 1
60 108 1
60 134 1
60 186 1
60 300 1
60 326 1
60 378 1
60 492 1
60 518 1
60 570 1
61 109 1
61 140 1
61 191 1
61 301 1
61 332 1
61 383 1
61 493 1
61 524 1
61 575 1
62 110 1
62 136 1
62 177 1
62 302 1
62 328 1
62 369 1
62 494 1
62 520 1
62 561 1
63 111 1
63 138 1
63 178 1
63 303 1
63 330 1
63 370 1
63 495 1
63 522 1
63 562 1
64 112 1
64 141 1
64 179 1
64 304 1
64 333 1
64 371 1
64 496 1
64 525 1
64 563 1
65 97 1
65 155 1
65 172 1
65 289 1
65 347 1
65 364 1
65 481 1
65 539 1
65 556 1
66 98 1
66 158 1
66 165 1
66 290 1
66 350 1
66 357 1
66 482 1
66 542 1
66 549 1
67 99 1
67 159 1
67 168 1
67 291 1
67 351 1
67 360 1
67 483 1
67 543 1
67 552 1
68 100 1
68 145 1
68 173 1
68 292 1
68 337 1
68 365 1
68 484 1
68 529 1
68 557 1
69 101 1
69 148 1
69 176 1
69 293 1
69 340 1
69 368 1
69 485 1
69 532 1
69 560 1
70 102 1
70 160 1
70 170 1
70 294 1
70 352 1
70 362 1
70 486 1
70 544 1
70 554 1
71 103 1
71 146 1
71 171 1
71 295 1
71 338 1
71 363 1
71 487 1
71 530 1
71 555 1
72 104 1
72 151 1
72 161 1
72 296 1
72 343 1
72 353 1
72 488 1
72 535 1
72 545 1
73 105 1
73 147 1
73 174 1
73 297 1
73 339 1
73 366 1
73 489 1
73 531 1
73 558 1
74 106 1
74 153 1
74 162 1
74 298 1
74 345 1
74 354 1
74 490 1
74 537 1
74 546 1
75 107 1
75 149 1
75 166 1
75 299 1
75 341 1
75 358 1
75 491 1
75 533 1
75 550 1
76 108 1
76 150 1
76 175 1
76 300 1
76 342 1
76 367 1
76 492 1
76 534 1
76 559 1
77 109 1
77 156 1
77 163 1
77 301 1
77 348 1
77 355 1
77 493 1
77 540 1
77 547 1
78 110 1
78 152 1
78 164 1
78 302 1
78 344 1
78 356 1
78 494 1
78 536 1
78 548 1
79 111 1
79 154 1
79 167 1
79 303 1
79 346 1
79 359 1
79 495 1
79 538 1
79 551 1
80 112 1
80 157 1
80 169 1
80 304 1
80 349 1
80 361 1
80 496 1
80 541 1
80 553 1
81 127 1
81 139 1
81 172 1
81 319 1
81 331 1
81 364 1
81 511 1
81 523 1
81 556 1
82 128 1
82 142 1
82 165 1
82 320 1
82 334 1
82 357 1
82 512 1
82 526 1
82 549 1
83 113 1
83 143 1
83 168 1
83 305 1
83 335 1
83 360 1
83 497 1
83 527 1
83 552 1
84 115 1
84 129 1
84 173 1
84 307 1
84 321 1
84 365 1
84 499 1
84 513 1
84 557 1
85 121 1
85 132 1
85 176 1
85 313 1
85 324 1
85 368 1
85 505 1
85 516 1
85 560 1
86 114 1
86 144 1
86 170 1
86 306 1
86 336 1
86 362 1
86 498 1
86 528 1
86 554 1
87 118 1
87 130 1
87 171 1
87 310 1
87 322 1
87 363 1
87 502 1
87 514 1
87 555 1
88 124 1
88 135 1
88 161 1
88 316 1
88 327 1
88 353 1
88 508 1
88 519 1
88 545 1
89 116 1
89 131 1
89 174 1
89 308 1
89 323 1
89 366 1
89 500 1
89 515 1
89 558 1
90 117 1
90 137 1
90 162 1
90 309 1
90 329 1
90 354 1
90 501 1
90 521 1
90 546 1
91 122 1
91 133 1
91 166 1
91 314 1
91 325 1
91 358 1
91 506 1
91 517 1
91 550 1
92 119 1
92 134 1
92 175 1
92 311 1
92 326 1
92 367 1
92 503 1
92 518 1
92 559 1
93 120 1
93 140 1
93 163 1
93 312 1
93 332 1
93 355 1
93 504 1
93 524 1
93 547 1
94 125 1
94 136 1
94 164 1
94 317 1
94 328 1
94 356 1
94 509 1
94 520 1
94 548 1
95 123 1
95 138 1
95 167 1
95 315 1
95 330 1
95 359 1
95 507 1
95 522 1
95 551 1
96 126 1
96 141 1
96 169 1
96 318 1
96 333 1
96 361 1
96 510 1
96 525 1
96 553 1
97 193 1
97 235 1
97 278 1
97 385 1
97 427 1
97 470 1
97 481 1
97 523 1
97 566 1
98 194 1
98 238 1
98 276 1
98 386 1
98 430 1
98 468 1
98 482 1
98 526 1
98 564 1
99 195 1
99 239 1
99 279 1
99 387 1
99 431 1
99 471 1
99 483 1
99 527 1
99 567 1
100 196 1
100 225 1
100 284 1
100 388 1
100 417 1
100 476 1
100 484 1
100 513 1
100 572 1
101 197 1
101 228 1
101 285 1
101 389 1
101 420 1
101 477 1
101 485 1
101 516 1
101 573 1
102 198 1
102 240 1
102 281 1
102 390 1
102 432 1
102 473 1
102 486 1
102 528 1
102 569 1
103 199 1
103 226 1
103 277 1
103 391 1
103 418 1
103 469 1
103 487 1
103 514 1
103 565 1
104 200 1
104 231 1
104 283 1
104 392 1
104 423 1
104 475 1
104 488 1
104 519 1
104 571 1
105 201 1
105 227 1
105 280 1
105 393 1
105 419 1
105 472 1
105 489 1
105 515 1
105 568 1
106 202 1
106 233 1
106 286 1
106 394 1
106 425 1
106 478 1
106 490 1
106 521 1
106 574 1
107 203 1
107 229 1
107 288 1
107 395 1
107 421 1
107 480 1
107 491 1
107 517 1
107 576 1
108 204 1
108 230 1
108 282 1
108 396 1
108 422 1
108 474 1
108 492 1
108 518 1
108 570 1
109 205 1
109 236 1
109 287 1
109 397 1
109 428 1
109 479 1
109 493 1
109 524 1
109 575 1
110 206 1
110 232 1
110 273 1
110 398 1
110 424 1
110 465 1
110 494 1
110 520 1
110 561 1
111 207 1
111 234 1
111 274 1
111 399 1
111 426 1
111 466 1
111 495 1
111 522 1
111 562 1
112 208 1
112 237 1
112 275 1
112 400 1
112 429 1
112 467 1
112 496 1
112 525 1
112 563 1
113 193 1
113 251 1
113 268 1
113 385 1
113 443 1
113 460 1
113 481 1
113 539 1
113 556 1
114 194 1
114 254 1
114 261 1
114 386 1
114 446 1
114 453 1
114 482 1
114 542 1
114 549 1
115 195 1
115 255 1
115 264 1
115 387 1
115 447 1
115 456 1
115 483 1
115 543 1
115 552 1
116 196 1
116 241 1
116 269 1
116 388 1
116 433 1
116 461 1
116 484 1
116 529 1
116 557 1
117 197 1
117 244 1
117 272 1
117 389 1
117 436 1
117 464 1
117 485 1
117 532 1
117 560 1
118 198 1
118 256 1
118 266 1
118 390 1
118 448 1
118 458 1
118 486 1
118 544 1
118 554 1
119 199 1
119 242 1
119 267 1
119 391 1
119 434 1
119 459 1
119 487 1
119 530 1
119 555 1
120 200 1
120 247 1
120 257 1
120 392 1
120 439 1
120 449 1
120 488 1
120 535 1
120 545 1
121 201 1
121 243 1
121 270 1
121 393 1
121 435 1
121 462 1
121 489 1
121 531 1
121 558 1
122 202 1
122 249 1
122 258 1
122 394 1
122 441 1
122 450 1
122 490 1
122 537 1
122 546 1
123 203 1
123 245 1
123 262 1
123 395 1
123 437 1
123 454 1
123 491 1
123 533 1
123 550 1
124 204 1
124 246 1
124 271 1
124 396 1
124 438 1
124 463 1
124 492 1
124 534 1
124 559 1
125 205 1
125 252 1
125 259 1
125 397 1
125 444 1
125 451 1
125 493 1
125 540 1
125 547 1
126 206 1
126 248 1
126 260 1
126 398 1
126 440 1
126 452 1
126 494 1
126 536 1
126 548 1
127 207 1
127 250 1
127 263 1
127 399 1
127 442 1
127 455 1
127 495 1
127 538 1
127 551 1
128 208 1
128 253 1
128 265 1
128 400 1
128 445 1
128 457 1
128 496 1
128 541 1
128 553 1
129 223 1
129 235 1
129 268 1
129 415 1
129 427 1
129 460 1
129 511 1
129 523 1
129 556 1
130 224 1
130 238 1
130 261 1
130 416 1
130 430 1
130 453 1
130 512 1
130 526 1
130 549 1
131 209 1
131 239 1
131 264 1
131 401 1
131 431 1
131 456 1
131 497 1
131 527 1
131 552 1
132 211 1
132 225 1
132 269 1
132 403 1
132 417 1
132 461 1
132 499 1
132 513 1
132 557 1
133 217 1
133 228 1
133 272 1
133 409 1
133 420 1
133 464 1
133 505 1
133 516 1
133 560 1
134 210 1
134 240 1
134 266 1
134 402 1
134 432 1
134 458 1
134 498 1
134 528 1
134 554 1
135 214 1
135 226 1
135 267 1
135 406 1
135 418 1
135 459 1
135 502 1
135 514 1
135 555 1
136 220 1
136 231 1
136 257 1
136 412 1
136 423 1
136 449 1
136 508 1
136 519 1
136 545 1
137 212 1
137 227 1
137 270 1
137 404 1
137 419 1
137 462 1
137 500 1
137 515 1
137 558 1
138 213 1
138 233 1
138 258 1
138 405 1
138 425 1
138 450 1
138 501 1
138 521 1
138 546 1
139 218 1
139 229 1
139 262 1
139 410 1
139 421 1
139 454 1
139 506 1
139 517 1
139 550 1
140 215 1
140 230 1
140 271 1
140 407 1
140 422 1
140 463 1
140 503 1
140 518 1
140 559 1
141 216 1
141 236 1
141 259 1
141 408 1
141 428 1
141 451 1
141 504 1
141 524 1
141 547 1
142 221 1
142 232 1
142 260 1
142 413 1
142 424 1
142 452 1
142 509 1
142 520 1
142 548 1
143 219 1
143 234 1
143 263 1
143 411 1
143 426 1
143 455 1
143 507 1
143 522 1
143 551 1
144 222 1
144 237 1
144 265 1
144 414 1
144 429 1
144 457 1
144 510 1
144 525 1
144 553 1
145 1 1
145 17 1
145 49 1
145 394 1
145 410 1
145 442 1
145 492 1
145 508 1
145 540 1
146 2 1
146 18 1
146 50 1
146 397 1
146 413 1
146 445 1
146 485 1
146 501 1
146 533 1
147 3 1
147 19 1
147 51 1
147 395 1
147 411 1
147 443 1
147 488 1
147 504 1
147 536 1
148 4 1
148 20 1
148 52 1
148 399 1
148 415 1
148 447 1
148 493 1
148 509 1
148 541 1
149 5 1
149 21 1
149 53 1
149 387 1
149 403 1
149 435 1
149 496 1
149 512 1
149 544 1
150 6 1
150 22 1
150 54 1
150 398 1
150 414 1
150 446 1
150 490 1
150 506 1
150 538 1
151 7 1
151 23 1
151 55 1
151 400 1
151 416 1
151 448 1
151 491 1
151 507 1
151 539 1
152 8 1
152 24 1
152 56 1
152 390 1
152 406 1
152 438 1
152 481 1
152 497 1
152 529 1
153 9 1
153 25 1
153 57 1
153 385 1
153 401 1
153 433 1
153 494 1
153 510 1
153 542 1
154 10 1
154 26 1
154 58 1
154 388 1
154 404 1
154 436 1
154 482 1
154 498 1
154 530 1
155 11 1
155 27 1
155 59 1
155 393 1
155 409 1
155 441 1
155 486 1
155 502 1
155 534 1
156 12 1
156 28 1
156 60 1
156 386 1
156 402 1
156 434 1
156 495 1
156 511 1
156 543 1
157 13 1
157 29 1
157 61 1
157 391 1
157 407 1
157 439 1
157 483 1
157 499 1
157 531 1
158 14 1
158 30 1
158 62 1
158 396 1
158 412 1
158 444 1
158 484 1
158 500 1
158 532 1
159 15 1
159 31 1
159 63 1
159 389 1
159 405 1
159 437 1
159 487 1
159 503 1
159 535 1
160 16 1
160 32 1
160 64 1
160 392 1
160 408 1
160 440 1
160 489 1
160 505 1
160 537 1
161 1 1
161 33 1
161 65 1
161 394 1
161 426 1
161 458 1
161 492 1
161 524 1
161 556 1
162 2 1
162 34 1
162 66 1
162 397 1
162 429 1
162 461 1
162 485 1
162 517 1
162 549 1
163 3 1
163 35 1
163 67 1
163 395 1
163 427 1
163 459 1
163 488 1
163 520 1
163 552 1
164 4 1
164 36 1
164 68 1
164 399 1
164 431 1
164 463 1
164 493 1
164 525 1
164 557 1
165 5 1
165 37 1
165 69 1
165 387 1
165 419 1
165 451 1
165 496 1
165 528 1
165 560 1
166 6 1
166 38 1
166 70 1
166 398 1
166 430 1
166 462 1
166 490 1
166 522 1
166 554 1
167 7 1
167 39 1
167 71 1
167 400 1
167 432 1
167 464 1
167 491 1
167 523 1
167 555 1
168 8 1
168 40 1
168 72 1
168 390 1
168 422 1
168 454 1
168 481 1
168 513 1
168 545 1
169 9 1
169 41 1
169 73 1
169 385 1
169 417 1
169 449 1
169 494 1
169 526 1
169 558 1
170 10 1
170 42 1
170 74 1
170 388 1
170 420 1
170 452 1
170 482 1
170 514 1
170 546 1
171 11 1
171 43 1
171 75 1
171 393 1
171 425 1
171 457 1
171 486 1
171 518 1
171 550 1
172 12 1
172 44 1
172 76 1
172 386 1
172 418 1
172 450 1
172 495 1
172 527 1
172 559 1
173 13 1
173 45 1
173 77 1
173 391 1
173 423 1
173 455 1
173 483 1
173 515 1
173 547 1
174 14 1
174 46 1
174 78 1
174 396 1
174 428 1
174 460 1
174 484 1
174 516 1
174 548 1
175 15 1
175 47 1
175 79 1
175 389 1
175 421 1
175 453 1
175 487 1
175 519 1
175 551 1
176 16 1
176 48 1
176 80 1
176 392 1
176 424 1
176 456 1
176 489 1
176 521 1
176 553 1
177 17 1
177 33 1
177 81 1
177 410 1
177 426 1
177 474 1
177 508 1
177 524 1
177 572 1
178 18 1
178 34 1
178 82 1
178 413 1
178 429 1
178 477 1
178 501 1
178 517 1
178 565 1
179 19 1
179 35 1
179 83 1
179 411 1
179 427 1
179 475 1
179 504 1
179 520 1
179 568 1
180 20 1
180 36 1
180 84 1
180 415 1
180 431 1
180 479 1
180 509 1
180 525 1
180 573 1
181 21 1
181 37 1
181 85 1
181 403 1
181 419 1
181 467 1
181 512 1
181 528 1
181 576 1
182 22 1
182 38 1
182 86 1
182 414 1
182 430 1
182 478 1
182 506 1
182 522 1
182 570 1
183 23 1
183 39 1
183 87 1
183 416 1
183 432 1
183 480 1
183 507 1
183 523 1
183 571 1
184 24 1
184 40 1
184 88 1
184 406 1
184 422 1
184 470 1
184 497 1
184 513 1
184 561 1
185 25 1
185 41 1
185 89 1
185 401 1
185 417 1
185 465 1
185 510 1
185 526 1
185 574 1
186 26 1
186 42 1
186 90 1
186 404 1
186 420 1
186 468 1
186 498 1
186 514 1
186 562 1
187 27 1
187 43 1
187 91 1
187 409 1
187 425 1
187 473 1
187 502 1
187 518 1
187 566 1
188 28 1
188 44 1
188 92 1
188 402 1
188 418 1
188 466 1
188 511 1
188 527 1
188 575 1
189 29 1
189 45 1
189 93 1
189 407 1
189 423 1
189 471 1
189 499 1
189 515 1
189 563 1
190 30 1
190 46 1
190 94 1
190 412 1
190 428 1
190 476 1
190 500 1
190 516 1
190 564 1
191 31 1
191 47 1
191 95 1
191 405 1
191 421 1
191 469 1
191 503 1
191 519 1
191 567 1
192 32 1
192 48 1
192 96 1
192 408 1
192 424 1
192 472 1
192 505 1
192 521 1
192 569 1
193 99 1
193 115 1
193 147 1
193 198 1
193 214 1
193 246 1
193 492 1
193 508 1
193 540 1
194 102 1
194 118 1
194 150 1
194 196 1
194 212 1
194 244 1
194 485 1
194 501 1
194 533 1
195 100 1
195 116 1
195 148 1
195 199 1
195 215 1
195 247 1
195 488 1
195 504 1
195 536 1
196 105 1
196 121 1
196 153 1
196 204 1
196 220 1
196 252 1
196 493 1
196 509 1
196 541 1
197 106 1
197 122 1
197 154 1
197 205 1
197 221 1
197 253 1
197 496 1
197 512 1
197 544 1
198 103 1
198 119 1
198 151 1
198 201 1
198 217 1
198 249 1
198 490 1
198 506 1
198 538 1
199 108 1
199 124 1
199 156 1
199 197 1
199 213 1
199 245 1
199 491 1
199 507 1
199 539 1
200 109 1
200 125 1
200 157 1
200 203 1
200 219 1
200 251 1
200 481 1
200 497 1
200 529 1
201 101 1
201 117 1
201 149 1
201 200 1
201 216 1
201 248 1
201 494 1
201 510 1
201 542 1
202 107 1
202 123 1
202 155 1
202 206 1
202 222 1
202 254 1
202 482 1
202 498 1
202 530 1
203 111 1
203 127 1
203 159 1
203 208 1
203 224 1
203 256 1
203 486 1
203 502 1
203 534 1
204 104 1
204 120 1
204 152 1
204 202 1
204 218 1
204 250 1
204 495 1
204 511 1
204 543 1
205 110 1
205 126 1
205 158 1
205 207 1
205 223 1
205 255 1
205 483 1
205 499 1
205 531 1
206 112 1
206 128 1
206 160 1
206 193 1
206 209 1
206 241 1
206 484 1
206 500 1
206 532 1
207 97 1
207 113 1
207 145 1
207 194 1
207 210 1
207 242 1
207 487 1
207 503 1
207 535 1
208 98 1
208 114 1
208 146 1
208 195 1
208 211 1
208 243 1
208 489 1
208 505 1
208 537 1
209 99 1
209 131 1
209 163 1
209 198 1
209 230 1
209 262 1
209 492 1
209 524 1
209 556 1
210 102 1
210 134 1
210 166 1
210 196 1
210 228 1
210 260 1
210 485 1
210 517 1
210 549 1
211 100 1
211 132 1
211 164 1
211 199 1
211 231 1
211 263 1
211 488 1
211 520 1
211 552 1
212 105 1
212 137 1
212 169 1
212 204 1
212 236 1
212 268 1
212 493 1
212 525 1
212 557 1
213 106 1
213 138 1
213 170 1
213 205 1
213 237 1
213 269 1
213 496 1
213 528 1
213 560 1
214 103 1
214 135 1
214 167 1
214 201 1
214 233 1
214 265 1
214 490 1
214 522 1
214 554 1
215 108 1
215 140 1
215 172 1
215 197 1
215 229 1
215 261 1
215 491 1
215 523 1
215 555 1
216 109 1
216 141 1
216 173 1
216 203 1
216 235 1
216 267 1
216 481 1
216 513 1
216 545 1
217 101 1
217 133 1
217 165 1
217 200 1
217 232 1
217 264 1
217 494 1
217 526 1
217 558 1
218 107 1
218 139 1
218 171 1
218 206 1
218 238 1
218 270 1
218 482 1
218 514 1
218 546 1
219 111 1
219 143 1
219 175 1
219 208 1
219 240 1
219 272 1
219 486 1
219 518 1
219 550 1
220 104 1
220 136 1
220 168 1
220 202 1
220 234 1
220 266 1
220 495 1
220 527 1
220 559 1
221 110 1
221 142 1
221 174 1
221 207 1
221 239 1
221 271 1
221 483 1
221 515 1
221 547 1
222 112 1
222 144 1
222 176 1
222 193 1
222 225 1
222 257 1
222 484 1
222 516 1
222 548 1
223 97 1
223 129 1
223 161 1
223 194 1
223 226 1
223 258 1
223 487 1
223 519 1
223 551 1
224 98 1
224 130 1
224 162 1
224 195 1
224 227 1
224 259 1
224 489 1
224 521 1
224 553 1
225 115 1
225 131 1
225 179 1
225 214 1
225 230 1
225 278 1
225 508 1
225 524 1
225 572 1
226 118 1
226 134 1
226 182 1
226 212 1
226 228 1
226 276 1
226 501 1
226 517 1
226 565 1
227 116 1
227 132 1
227 180 1
227 215 1
227 231 1
227 279 1
227 504 1
227 520 1
227 568 1
228 121 1
228 137 1
228 185 1
228 220 1
228 236 1
228 284 1
228 509 1
228 525 1
228 573 1
229 122 1
229 138 1
229 186 1
229 221 1
229 237 1
229 285 1
229 512 1
229 528 1
229 576 1
230 119 1
230 135 1
230 183 1
230 217 1
230 233 1
230 281 1
230 506 1
230 522 1
230 570 1
231 124 1
231 140 1
231 188 1
231 213 1
231 229 1
231 277 1
231 507 1
231 523 1
231 571 1
232 125 1
232 141 1
232 189 1
232 219 1
232 235 1
232 283 1
232 497 1
232 513 1
232 561 1
233 117 1
233 133 1
233 181 1
233 216 1
233 232 1
233 280 1
233 510 1
233 526 1
233 574 1
234 123 1
234 139 1
234 187 1
234 222 1
234 238 1
234 286 1
234 498 1
234 514 1
234 562 1
235 127 1
235 143 1
235 191 1
235 224 1
235 240 1
235 288 1
235 502 1
235 518 1
235 566 1
236 120 1
236 136 1
236 184 1
236 218 1
236 234 1
236 282 1
236 511 1
236 527 1
236 575 1
237 126 1
237 142 1
237 190 1
237 223 1
237 239 1
237 287 1
237 499 1
237 515 1
237 563 1
238 128 1
238 144 1
238 192 1
238 209 1
238 225 1
238 273 1
238 500 1
238 516 1
238 564 1
239 113 1
239 129 1
239 177 1
239 210 1
239 226 1
239 274 1
239 503 1
239 519 1
239 567 1
240 114 1
240 130 1
240 178 1
240 211 1
240 227 1
240 275 1
240 505 1
240 521 1
240 569 1
241 198 1
241 214 1
241 246 1
241 297 1
241 313 1
241 345 1
241 394 1
241 410 1
241 442 1
242 196 1
242 212 1
242 244 1
242 300 1
242 316 1
242 348 1
242 397 1
242 413 1
242 445 1
243 199 1
243 215 1
243 247 1
243 293 1
243 309 1
243 341 1
243 395 1
243 411 1
243 443 1
244 204 1
244 220 1
244 252 1
244 298 1
244 314 1
244 346 1
244 399 1
244 415 1
244 447 1
245 205 1
245 221 1
245 253 1
245 303 1
245 319 1
245 351 1
245 387 1
245 403 1
245 435 1
246 201 1
246 217 1
246 249 1
246 296 1
246 312 1
246 344 1
246 398 1
246 414 1
246 446 1
247 197 1
247 213 1
247 245 1
247 301 1
247 317 1
247 349 1
247 400 1
247 416 1
247 448 1
248 203 1
248 219 1
248 251 1
248 304 1
248 320 1
248 352 1
248 390 1
248 406 1
248 438 1
249 200 1
249 216 1
249 248 1
249 299 1
249 315 1
249 347 1
249 385 1
249 401 1
249 433 1
250 206 1
250 222 1
250 254 1
250 289 1
250 305 1
250 337 1
250 388 1
250 404 1
250 436 1
251 208 1
251 224 1
251 256 1
251 291 1
251 307 1
251 339 1
251 393 1
251 409 1
251 441 1
252 202 1
252 218 1
252 250 1
252 302 1
252 318 1
252 350 1
252 386 1
252 402 1
252 434 1
253 207 1
253 223 1
253 255 1
253 290 1
253 306 1
253 338 1
253 391 1
253 407 1
253 439 1
254 193 1
254 209 1
254 241 1
254 294 1
254 310 1
254 342 1
254 396 1
254 412 1
254 444 1
255 194 1
255 210 1
255 242 1
255 292 1
255 308 1
255 340 1
255 389 1
255 405 1
255 437 1
256 195 1
256 211 1
256 243 1
256 295 1
256 311 1
256 343 1
256 392 1
256 408 1
256 440 1
257 198 1
257 230 1
257 262 1
257 297 1
257 329 1
257 361 1
257 394 1
257 426 1
257 458 1
258 196 1
258 228 1
258 260 1
258 300 1
258 332 1
258 364 1
258 397 1
258 429 1
258 461 1
259 199 1
259 231 1
259 263 1
259 293 1
259 325 1
259 357 1
259 395 1
259 427 1
259 459 1
260 204 1
260 236 1
260 268 1
260 298 1
260 330 1
260 362 1
260 399 1
260 431 1
260 463 1
261 205 1
261 237 1
261 269 1
261 303 1
261 335 1
261 367 1
261 387 1
261 419 1
261 451 1
262 201 1
262 233 1
262 265 1
262 296 1
262 328 1
262 360 1
262 398 1
262 430 1
262 462 1
263 197 1
263 229 1
263 261 1
263 301 1
263 333 1
263 365 1
263 400 1
263 432 1
263 464 1
264 203 1
264 235 1
264 267 1
264 304 1
264 336 1
264 368 1
264 390 1
264 422 1
264 454 1
265 200 1
265 232 1
265 264 1
265 299 1
265 331 1
265 363 1
265 385 1
265 417 1
265 449 1
266 206 1
266 238 1
266 270 1
266 289 1
266 321 1
266 353 1
266 388 1
266 420 1
266 452 1
267 208 1
267 240 1
267 272 1
267 291 1
267 323 1
267 355 1
267 393 1
267 425 1
267 457 1
268 202 1
268 234 1
268 266 1
268 302 1
268 334 1
268 366 1
268 386 1
268 418 1
268 450 1
269 207 1
269 239 1
269 271 1
269 290 1
269 322 1
269 354 1
269 391 1
269 423 1
269 455 1
270 193 1
270 225 1
270 257 1
270 294 1
270 326 1
270 358 1
270 396 1
270 428 1
270 460 1
271 194 1
271 226 1
271 258 1
271 292 1
271 324 1
271 356 1
271 389 1
271 421 1
271 453 1
272 195 1
272 227 1
272 259 1
272 295 1
272 327 1
272 359 1
272 392 1
272 424 1
272 456 1
273 214 1
273 230 1
273 278 1
273 313 1
273 329 1
273 377 1
273 410 1
273 426 1
273 474 1
274 212 1
274 228 1
274 276 1
274 316 1
274 332 1
274 380 1
274 413 1
274 429 1
274 477 1
275 215 1
275 231 1
275 279 1
275 309 1
275 325 1
275 373 1
275 411 1
275 427 1
275 475 1
276 220 1
276 236 1
276 284 1
276 314 1
276 330 1
276 378 1
276 415 1
276 431 1
276 479 1
277 221 1
277 237 1
277 285 1
277 319 1
277 335 1
277 383 1
277 403 1
277 419 1
277 467 1
278 217 1
278 233 1
278 281 1
278 312 1
278 328 1
278 376 1
278 414 1
278 430 1
278 478 1
279 213 1
279 229 1
279 277 1
279 317 1
279 333 1
279 381 1
279 416 1
279 432 1
279 480 1
280 219 1
280 235 1
280 283 1
280 320 1
280 336 1
280 384 1
280 406 1
280 422 1
280 470 1
281 216 1
281 232 1
281 280 1
281 315 1
281 331 1
281 379 1
281 401 1
281 417 1
281 465 1
282 222 1
282 238 1
282 286 1
282 305 1
282 321 1
282 369 1
282 404 1
282 420 1
282 468 1
283 224 1
283 240 1
283 288 1
283 307 1
283 323 1
283 371 1
283 409 1
283 425 1
283 473 1
284 218 1
284 234 1
284 282 1
284 318 1
284 334 1
284 382 1
284 402 1
284 418 1
284 466 1
285 223 1
285 239 1
285 287 1
285 306 1
285 322 1
285 370 1
285 407 1
285 423 1
285 471 1
286 209 1
286 225 1
286 273 1
286 310 1
286 326 1
286 374 1
286 412 1
286 428 1
286 476 1
287 210 1
287 226 1
287 274 1
287 308 1
287 324 1
287 372 1
287 405 1
287 421 1
287 469 1
288 211 1
288 227 1
288 275 1
288 311 1
288 327 1
288 375 1
288 408 1
288 424 1
288 472 1
