%%MatrixMarket matrix coordinate integer general
224 448 3584
1 1 1
1 33 1
1 44 1
1 51 1
1 225 1
1 257 1
1 268 1
1 275 1
1 281 1
1 313 1
1 324 1
1 331 1
1 337 1
1 369 1
1 380 1
1 387 1
2 2 1
2 34 1
2 45 1
2 52 1
2 226 1
2 258 1
2 269 1
2 276 1
2 282 1
2 314 1
2 325 1
2 332 1
2 338 1
2 370 1
2 381 1
2 388 1
3 3 1
3 35 1
3 46 1
3 53 1
3 227 1
3 259 1
3 270 1
3 277 1
3 283 1
3 315 1
3 326 1
3 333 1
3 339 1
3 371 1
3 382 1
3 389 1
4 4 1
4 29 1
4 47 1
4 54 1
4 228 1
4 253 1
4 271 1
4 278 1
4 284 1
4 309 1
4 327 1
4 334 1
4 340 1
4 365 1
4 383 1
4 390 1
5 5 1
5 30 1
5 48 1
5 55 1
5 229 1
5 254 1
5 272 1
5 279 1
5 285 1
5 310 1
5 328 1
5 335 1
5 341 1
5 366 1
5 384 1
5 391 1
6 6 1
6 31 1
6 49 1
6 56 1
6 230 1
6 255 1
6 273 1
6 280 1
6 286 1
6 311 1
6 329 1
6 336 1
6 342 1
6 367 1
6 385 1
6 392 1
7 7 1
7 32 1
7 43 1
7 50 1
7 231 1
7 256 1
7 267 1
7 274 1
7 287 1
7 312 1
7 323 1
7 330 1
7 343 1
7 368 1
7 379 1
7 386 1
8 8 1
8 33 1
8 38 1
8 44 1
8 232 1
8 257 1
8 262 1
8 268 1
8 288 1
8 313 1
8 318 1
8 324 1
8 344 1
8 369 1
8 374 1
8 380 1
9 9 1
9 34 1
9 39 1
9 45 1
9 233 1
9 258 1
9 263 1
9 269 1
9 289 1
9 314 1
9 319 1
9 325 1
9 345 1
9 370 1
9 375 1
9 381 1
10 10 1
10 35 1
10 40 1
10 46 1
10 234 1
10 259 1
10 264 1
10 270 1
10 290 1
10 315 1
10 320 1
10 326 1
10 346 1
10 371 1
10 376 1
10 382 1
11 11 1
11 29 1
11 41 1
11 47 1
11 235 1
11 253 1
11 265 1
11 271 1
11 291 1
11 309 1
11 321 1
11 327 1
11 347 1
11 365 1
11 377 1
11 383 1
12 12 1
12 30 1
12 42 1
12 48 1
12 236 1
12 254 1
12 266 1
12 272 1
12 292 1
12 310 1
12 322 1
12 328 1
12 348 1
12 366 1
12 378 1
12 384 1
13 13 1
13 31 1
13 36 1
13 49 1
13 237 1
13 255 1
13 260 1
13 273 1
13 293 1
13 311 1
13 316 1
13 329 1
13 349 1
13 367 1
13 372 1
13 385 1
14 14 1
14 32 1
14 37 1
14 43 1
14 238 1
14 256 1
14 261 1
14 267 1
14 294 1
14 312 1
14 317 1
14 323 1
14 350 1
14 368 1
14 373 1
14 379 1
15 20 1
15 33 1
15 38 1
15 51 1
15 244 1
15 257 1
15 262 1
15 275 1
15 300 1
15 313 1
15 318 1
15 331 1
15 356 1
15 369 1
15 374 1
15 387 1
16 21 1
16 34 1
16 39 1
16 52 1
16 245 1
16 258 1
16 263 1
16 276 1
16 301 1
16 314 1
16 319 1
16 332 1
16 357 1
16 370 1
16 375 1
16 388 1
17 15 1
17 35 1
17 40 1
17 53 1
17 239 1
17 259 1
17 264 1
17 277 1
17 295 1
17 315 1
17 320 1
17 333 1
17 351 1
17 371 1
17 376 1
17 389 1
18 16 1
18 29 1
18 41 1
18 54 1
18 240 1
18 253 1
18 265 1
18 278 1
18 296 1
18 309 1
18 321 1
18 334 1
18 352 1
18 365 1
18 377 1
18 390 1
19 17 1
19 30 1
19 42 1
19 55 1
19 241 1
19 254 1
19 266 1
19 279 1
19 297 1
19 310 1
19 322 1
19 335 1
19 353 1
19 366 1
19 378 1
19 391 1
20 18 1
20 31 1
20 36 1
20 56 1
20 242 1
20 255 1
20 260 1
20 280 1
20 298 1
20 311 1
20 316 1
20 336 1
20 354 1
20 367 1
20 372 1
20 392 1
21 19 1
21 32 1
21 37 1
21 50 1
21 243 1
21 256 1
21 261 1
21 274 1
21 299 1
21 312 1
21 317 1
21 330 1
21 355 1
21 368 1
21 373 1
21 386 1
22 26 1
22 38 1
22 44 1
22 51 1
22 250 1
22 262 1
22 268 1
22 275 1
22 306 1
22 318 1
22 324 1
22 331 1
22 362 1
22 374 1
22 380 1
22 387 1
23 27 1
23 39 1
23 45 1
23 52 1
23 251 1
23 263 1
23 269 1
23 276 1
23 307 1
23 319 1
23 325 1
23 332 1
23 363 1
23 375 1
23 381 1
23 388 1
24 28 1
24 40 1
24 46 1
24 53 1
24 252 1
24 264 1
24 270 1
24 277 1
24 308 1
24 320 1
24 326 1
24 333 1
24 364 1
24 376 1
24 382 1
24 389 1
25 22 1
25 41 1
25 47 1
25 54 1
25 246 1
25 265 1
25 271 1
25 278 1
25 302 1
25 321 1
25 327 1
25 334 1
25 358 1
25 377 1
25 383 1
25 390 1
26 23 1
26 42 1
26 48 1
26 55 1
26 247 1
26 266 1
26 272 1
26 279 1
26 303 1
26 322 1
26 328 1
26 335 1
26 359 1
26 378 1
26 384 1
26 391 1
27 24 1
27 36 1
27 49 1
27 56 1
27 248 1
27 260 1
27 273 1
27 280 1
27 304 1
27 316 1
27 329 1
27 336 1
27 360 1
27 372 1
27 385 1
27 392 1
28 25 1
28 37 1
28 43 1
28 50 1
28 249 1
28 261 1
28 267 1
28 274 1
28 305 1
28 317 1
28 323 1
28 330 1
28 361 1
28 373 1
28 379 1
28 386 1
29 57 1
29 89 1
29 100 1
29 107 1
29 225 1
29 257 1
29 268 1
29 275 1
29 281 1
29 313 1
29 324 1
29 331 1
29 393 1
29 425 1
29 436 1
29 443 1
30 58 1
30 90 1
30 101 1
30 108 1
30 226 1
30 258 1
30 269 1
30 276 1
30 282 1
30 314 1
30 325 1
30 332 1
30 394 1
30 426 1
30 437 1
30 444 1
31 59 1
31 91 1
31 102 1
31 109 1
31 227 1
31 259 1
31 270 1
31 277 1
31 283 1
31 315 1
31 326 1
31 333 1
31 395 1
31 427 1
31 438 1
31 445 1
32 60 1
32 85 1
32 103 1
32 110 1
32 228 1
32 253 1
32 271 1
32 278 1
32 284 1
32 309 1
32 327 1
32 334 1
32 396 1
32 421 1
32 439 1
32 446 1
33 61 1
33 86 1
33 104 1
33 111 1
33 229 1
33 254 1
33 272 1
33 279 1
33 285 1
33 310 1
33 328 1
33 335 1
33 397 1
33 422 1
33 440 1
33 447 1
34 62 1
34 87 1
34 105 1
34 112 1
34 230 1
34 255 1
34 273 1
34 280 1
34 286 1
34 311 1
34 329 1
34 336 1
34 398 1
34 423 1
34 441 1
34 448 1
35 63 1
35 88 1
35 99 1
35 106 1
35 231 1
35 256 1
35 267 1
35 274 1
35 287 1
35 312 1
35 323 1
35 330 1
35 399 1
35 424 1
35 435 1
35 442 1
36 64 1
36 89 1
36 94 1
36 100 1
36 232 1
36 257 1
36 262 1
36 268 1
36 288 1
36 313 1
36 318 1
36 324 1
36 400 1
36 425 1
36 430 1
36 436 1
37 65 1
37 90 1
37 95 1
37 101 1
37 233 1
37 258 1
37 263 1
37 269 1
37 289 1
37 314 1
37 319 1
37 325 1
37 401 1
37 426 1
37 431 1
37 437 1
38 66 1
38 91 1
38 96 1
38 102 1
38 234 1
38 259 1
38 264 1
38 270 1
38 290 1
38 315 1
38 320 1
38 326 1
38 402 1
38 427 1
38 432 1
38 438 1
39 67 1
39 85 1
39 97 1
39 103 1
39 235 1
39 253 1
39 265 1
39 271 1
39 291 1
39 309 1
39 321 1
39 327 1
39 403 1
39 421 1
39 433 1
39 439 1
40 68 1
40 86 1
40 98 1
40 104 1
40 236 1
40 254 1
40 266 1
40 272 1
40 292 1
40 310 1
40 322 1
40 328 1
40 404 1
40 422 1
40 434 1
40 440 1
41 69 1
41 87 1
41 92 1
41 105 1
41 237 1
41 255 1
41 260 1
41 273 1
41 293 1
41 311 1
41 316 1
41 329 1
41 405 1
41 423 1
41 428 1
41 441 1
42 70 1
42 88 1
42 93 1
42 99 1
42 238 1
42 256 1
42 261 1
42 267 1
42 294 1
42 312 1
42 317 1
42 323 1
42 406 1
42 424 1
42 429 1
42 435 1
43 76 1
43 89 1
43 94 1
43 107 1
43 244 1
43 257 1
43 262 1
43 275 1
43 300 1
43 313 1
43 318 1
43 331 1
43 412 1
43 425 1
43 430 1
43 443 1
44 77 1
44 90 1
44 95 1
44 108 1
44 245 1
44 258 1
44 263 1
44 276 1
44 301 1
44 314 1
44 319 1
44 332 1
44 413 1
44 426 1
44 431 1
44 444 1
45 71 1
45 91 1
45 96 1
45 109 1
45 239 1
45 259 1
45 264 1
45 277 1
45 295 1
45 315 1
45 320 1
45 333 1
45 407 1
45 427 1
45 432 1
45 445 1
46 72 1
46 85 1
46 97 1
46 110 1
46 240 1
46 253 1
46 265 1
46 278 1
46 296 1
46 309 1
46 321 1
46 334 1
46 408 1
46 421 1
46 433 1
46 446 1
47 73 1
47 86 1
47 98 1
47 111 1
47 241 1
47 254 1
47 266 1
47 279 1
47 297 1
47 310 1
47 322 1
47 335 1
47 409 1
47 422 1
47 434 1
47 447 1
48 74 1
48 87 1
48 92 1
48 112 1
48 242 1
48 255 1
48 260 1
48 280 1
48 298 1
48 311 1
48 316 1
48 336 1
48 410 1
48 423 1
48 428 1
48 448 1
49 75 1
49 88 1
49 93 1
49 106 1
49 243 1
49 256 1
49 261 1
49 274 1
49 299 1
49 312 1
49 317 1
49 330 1
49 411 1
49 424 1
49 429 1
49 442 1
50 82 1
50 94 1
50 100 1
50 107 1
50 250 1
50 262 1
50 268 1
50 275 1
50 306 1
50 318 1
50 324 1
50 331 1
50 418 1
50 430 1
50 436 1
50 443 1
51 83 1
51 95 1
51 101 1
51 108 1
51 251 1
51 263 1
51 269 1
51 276 1
51 307 1
51 319 1
51 325 1
51 332 1
51 419 1
51 431 1
51 437 1
51 444 1
52 84 1
52 96 1
52 102 1
52 109 1
52 252 1
52 264 1
52 270 1
52 277 1
52 308 1
52 320 1
52 326 1
52 333 1
52 420 1
52 432 1
52 438 1
52 445 1
53 78 1
53 97 1
53 103 1
53 110 1
53 246 1
53 265 1
53 271 1
53 278 1
53 302 1
53 321 1
53 327 1
53 334 1
53 414 1
53 433 1
53 439 1
53 446 1
54 79 1
54 98 1
54 104 1
54 111 1
54 247 1
54 266 1
54 272 1
54 279 1
54 303 1
54 322 1
54 328 1
54 335 1
54 415 1
54 434 1
54 440 1
54 447 1
55 80 1
55 92 1
55 105 1
55 112 1
55 248 1
55 260 1
55 273 1
55 280 1
55 304 1
55 316 1
55 329 1
55 336 1
55 416 1
55 428 1
55 441 1
55 448 1
56 81 1
56 93 1
56 99 1
56 106 1
56 249 1
56 261 1
56 267 1
56 274 1
56 305 1
56 317 1
56 323 1
56 330 1
56 417 1
56 429 1
56 435 1
56 442 1
57 113 1
57 145 1
57 156 1
57 163 1
57 225 1
57 257 1
57 268 1
57 275 1
57 337 1
57 369 1
57 380 1
57 387 1
57 393 1
57 425 1
57 436 1
57 443 1
58 114 1
58 146 1
58 157 1
58 164 1
58 226 1
58 258 1
58 269 1
58 276 1
58 338 1
58 370 1
58 381 1
58 388 1
58 394 1
58 426 1
58 437 1
58 444 1
59 115 1
59 147 1
59 158 1
59 165 1
59 227 1
59 259 1
59 270 1
59 277 1
59 339 1
59 371 1
59 382 1
59 389 1
59 395 1
59 427 1
59 438 1
59 445 1
60 116 1
60 141 1
60 159 1
60 166 1
60 228 1
60 253 1
60 271 1
60 278 1
60 340 1
60 365 1
60 383 1
60 390 1
60 396 1
60 421 1
60 439 1
60 446 1
61 117 1
61 142 1
61 160 1
61 167 1
61 229 1
61 254 1
61 272 1
61 279 1
61 341 1
61 366 1
61 384 1
61 391 1
61 397 1
61 422 1
61 440 1
61 447 1
62 118 1
62 143 1
62 161 1
62 168 1
62 230 1
62 255 1
62 273 1
62 280 1
62 342 1
62 367 1
62 385 1
62 392 1
62 398 1
62 423 1
62 441 1
62 448 1
63 119 1
63 144 1
63 155 1
63 162 1
63 231 1
63 256 1
63 267 1
63 274 1
63 343 1
63 368 1
63 379 1
63 386 1
63 399 1
63 424 1
63 435 1
63 442 1
64 120 1
64 145 1
64 150 1
64 156 1
64 232 1
64 257 1
64 262 1
64 268 1
64 344 1
64 369 1
64 374 1
64 380 1
64 400 1
64 425 1
64 430 1
64 436 1
65 121 1
65 146 1
65 151 1
65 157 1
65 233 1
65 258 1
65 263 1
65 269 1
65 345 1
65 370 1
65 375 1
65 381 1
65 401 1
65 426 1
65 431 1
65 437 1
66 122 1
66 147 1
66 152 1
66 158 1
66 234 1
66 259 1
66 264 1
66 270 1
66 346 1
66 371 1
66 376 1
66 382 1
66 402 1
66 427 1
66 432 1
66 438 1
67 123 1
67 141 1
67 153 1
67 159 1
67 235 1
67 253 1
67 265 1
67 271 1
67 347 1
67 365 1
67 377 1
67 383 1
67 403 1
67 421 1
67 433 1
67 439 1
68 124 1
68 142 1
68 154 1
68 160 1
68 236 1
68 254 1
68 266 1
68 272 1
68 348 1
68 366 1
68 378 1
68 384 1
68 404 1
68 422 1
68 434 1
68 440 1
69 125 1
69 143 1
69 148 1
69 161 1
69 237 1
69 255 1
69 260 1
69 273 1
69 349 1
69 367 1
69 372 1
69 385 1
69 405 1
69 423 1
69 428 1
69 441 1
70 126 1
70 144 1
70 149 1
70 155 1
70 238 1
70 256 1
70 261 1
70 267 1
70 350 1
70 368 1
70 373 1
70 379 1
70 406 1
70 424 1
70 429 1
70 435 1
71 132 1
71 145 1
71 150 1
71 163 1
71 244 1
71 257 1
71 262 1
71 275 1
71 356 1
71 369 1
71 374 1
71 387 1
71 412 1
71 425 1
71 430 1
71 443 1
72 133 1
72 146 1
72 151 1
72 164 1
72 245 1
72 258 1
72 263 1
72 276 1
72 357 1
72 370 1
72 375 1
72 388 1
72 413 1
72 426 1
72 431 1
72 444 1
73 127 1
73 147 1
73 152 1
73 165 1
73 239 1
73 259 1
73 264 1
73 277 1
73 351 1
73 371 1
73 376 1
73 389 1
73 407 1
73 427 1
73 432 1
73 445 1
74 128 1
74 141 1
74 153 1
74 166 1
74 240 1
74 253 1
74 265 1
74 278 1
74 352 1
74 365 1
74 377 1
74 390 1
74 408 1
74 421 1
74 433 1
74 446 1
75 129 1
75 142 1
75 154 1
75 167 1
75 241 1
75 254 1
75 266 1
75 279 1
75 353 1
75 366 1
75 378 1
75 391 1
75 409 1
75 422 1
75 434 1
75 447 1
76 130 1
76 143 1
76 148 1
76 168 1
76 242 1
76 255 1
76 260 1
76 280 1
76 354 1
76 367 1
76 372 1
76 392 1
76 410 1
76 423 1
76 428 1
76 448 1
77 131 1
77 144 1
77 149 1
77 162 1
77 243 1
77 256 1
77 261 1
77 274 1
77 355 1
77 368 1
77 373 1
77 386 1
77 411 1
77 424 1
77 429 1
77 442 1
78 138 1
78 150 1
78 156 1
78 163 1
78 250 1
78 262 1
78 268 1
78 275 1
78 362 1
78 374 1
78 380 1
78 387 1
78 418 1
78 430 1
78 436 1
78 443 1
79 139 1
79 151 1
79 157 1
79 164 1
79 251 1
79 263 1
79 269 1
79 276 1
79 363 1
79 375 1
79 381 1
79 388 1
79 419 1
79 431 1
79 437 1
79 444 1
80 140 1
80 152 1
80 158 1
80 165 1
80 252 1
80 264 1
80 270 1
80 277 1
80 364 1
80 376 1
80 382 1
80 389 1
80 420 1
80 432 1
80 438 1
80 445 1
81 134 1
81 153 1
81 159 1
81 166 1
81 246 1
81 265 1
81 271 1
81 278 1
81 358 1
81 377 1
81 383 1
81 390 1
81 414 1
81 433 1
81 439 1
81 446 1
82 135 1
82 154 1
82 160 1
82 167 1
82 247 1
82 266 1
82 272 1
82 279 1
82 359 1
82 378 1
82 384 1
82 391 1
82 415 1
82 434 1
82 440 1
82 447 1
83 136 1
83 148 1
83 161 1
83 168 1
83 248 1
83 260 1
83 273 1
83 280 1
83 360 1
83 372 1
83 385 1
83 392 1
83 416 1
83 428 1
83 441 1
83 448 1
84 137 1
84 149 1
84 155 1
84 162 1
84 249 1
84 261 1
84 267 1
84 274 1
84 361 1
84 373 1
84 379 1
84 386 1
84 417 1
84 429 1
84 435 1
84 442 1
85 169 1
85 201 1
85 212 1
85 219 1
85 281 1
85 313 1
85 324 1
85 331 1
85 337 1
85 369 1
85 380 1
85 387 1
85 393 1
85 425 1
85 436 1
85 443 1
86 170 1
86 202 1
86 213 1
86 220 1
86 282 1
86 314 1
86 325 1
86 332 1
86 338 1
86 370 1
86 381 1
86 388 1
86 394 1
86 426 1
86 437 1
86 444 1
87 171 1
87 203 1
87 214 1
87 221 1
87 283 1
87 315 1
87 326 1
87 333 1
87 339 1
87 371 1
87 382 1
87 389 1
87 395 1
87 427 1
87 438 1
87 445 1
88 172 1
88 197 1
88 215 1
88 222 1
88 284 1
88 309 1
88 327 1
88 334 1
88 340 1
88 365 1
88 383 1
88 390 1
88 396 1
88 421 1
88 439 1
88 446 1
89 173 1
89 198 1
89 216 1
89 223 1
89 285 1
89 310 1
89 328 1
89 335 1
89 341 1
89 366 1
89 384 1
89 391 1
89 397 1
89 422 1
89 440 1
89 447 1
90 174 1
90 199 1
90 217 1
90 224 1
90 286 1
90 311 1
90 329 1
90 336 1
90 342 1
90 367 1
90 385 1
90 392 1
90 398 1
90 423 1
90 441 1
90 448 1
91 175 1
91 200 1
91 211 1
91 218 1
91 287 1
91 312 1
91 323 1
91 330 1
91 343 1
91 368 1
91 379 1
91 386 1
91 399 1
91 424 1
91 435 1
91 442 1
92 176 1
92 201 1
92 206 1
92 212 1
92 288 1
92 313 1
92 318 1
92 324 1
92 344 1
92 369 1
92 374 1
92 380 1
92 400 1
92 425 1
92 430 1
92 436 1
93 177 1
93 202 1
93 207 1
93 213 1
93 289 1
93 314 1
93 319 1
93 325 1
93 345 1
93 370 1
93 375 1
93 381 1
93 401 1
93 426 1
93 431 1
93 437 1
94 178 1
94 203 1
94 208 1
94 214 1
94 290 1
94 315 1
94 320 1
94 326 1
94 346 1
94 371 1
94 376 1
94 382 1
94 402 1
94 427 1
94 432 1
94 438 1
95 179 1
95 197 1
95 209 1
95 215 1
95 291 1
95 309 1
95 321 1
95 327 1
95 347 1
95 365 1
95 377 1
95 383 1
95 403 1
95 421 1
95 433 1
95 439 1
96 180 1
96 198 1
96 210 1
96 216 1
96 292 1
96 310 1
96 322 1
96 328 1
96 348 1
96 366 1
96 378 1
96 384 1
96 404 1
96 422 1
96 434 1
96 440 1
97 181 1
97 199 1
97 204 1
97 217 1
97 293 1
97 311 1
97 316 1
97 329 1
97 349 1
97 367 1
97 372 1
97 385 1
97 405 1
97 423 1
97 428 1
97 441 1
98 182 1
98 200 1
98 205 1
98 211 1
98 294 1
98 312 1
98 317 1
98 323 1
98 350 1
98 368 1
98 373 1
98 379 1
98 406 1
98 424 1
98 429 1
98 435 1
99 188 1
99 201 1
99 206 1
99 219 1
99 300 1
99 313 1
99 318 1
99 331 1
99 356 1
99 369 1
99 374 1
99 387 1
99 412 1
99 425 1
99 430 1
99 443 1
100 189 1
100 202 1
100 207 1
100 220 1
100 301 1
100 314 1
100 319 1
100 332 1
100 357 1
100 370 1
100 375 1
100 388 1
100 413 1
100 426 1
100 431 1
100 444 1
101 183 1
101 203 1
101 208 1
101 221 1
101 295 1
101 315 1
101 320 1
101 333 1
101 351 1
101 371 1
101 376 1
101 389 1
101 407 1
101 427 1
101 432 1
101 445 1
102 184 1
102 197 1
102 209 1
102 222 1
102 296 1
102 309 1
102 321 1
102 334 1
102 352 1
102 365 1
102 377 1
102 390 1
102 408 1
102 421 1
102 433 1
102 446 1
103 185 1
103 198 1
103 210 1
103 223 1
103 297 1
103 310 1
103 322 1
103 335 1
103 353 1
103 366 1
103 378 1
103 391 1
103 409 1
103 422 1
103 434 1
103 447 1
104 186 1
104 199 1
104 204 1
104 224 1
104 298 1
104 311 1
104 316 1
104 336 1
104 354 1
104 367 1
104 372 1
104 392 1
104 410 1
104 423 1
104 428 1
104 448 1
105 187 1
105 200 1
105 205 1
105 218 1
105 299 1
105 312 1
105 317 1
105 330 1
105 355 1
105 368 1
105 373 1
105 386 1
105 411 1
105 424 1
105 429 1
105 442 1
106 194 1
106 206 1
106 212 1
106 219 1
106 306 1
106 318 1
106 324 1
106 331 1
106 362 1
106 374 1
106 380 1
106 387 1
106 418 1
106 430 1
106 436 1
106 443 1
107 195 1
107 207 1
107 213 1
107 220 1
107 307 1
107 319 1
107 325 1
107 332 1
107 363 1
107 375 1
107 381 1
107 388 1
107 419 1
107 431 1
107 437 1
107 444 1
108 196 1
108 208 1
108 214 1
108 221 1
108 308 1
108 320 1
108 326 1
108 333 1
108 364 1
108 376 1
108 382 1
108 389 1
108 420 1
108 432 1
108 438 1
108 445 1
109 190 1
109 209 1
109 215 1
109 222 1
109 302 1
109 321 1
109 327 1
109 334 1
109 358 1
109 377 1
109 383 1
109 390 1
109 414 1
109 433 1
109 439 1
109 446 1
110 191 1
110 210 1
110 216 1
110 223 1
110 303 1
110 322 1
110 328 1
110 335 1
110 359 1
110 378 1
110 384 1
110 391 1
110 415 1
110 434 1
110 440 1
110 447 1
111 192 1
111 204 1
111 217 1
111 224 1
111 304 1
111 316 1
111 329 1
111 336 1
111 360 1
111 372 1
111 385 1
111 392 1
111 416 1
111 428 1
111 441 1
111 448 1
112 193 1
112 205 1
112 211 1
112 218 1
112 305 1
112 317 1
112 323 1
112 330 1
112 361 1
112 373 1
112 379 1
112 386 1
112 417 1
112 429 1
112 435 1
112 442 1
113 1 1
113 29 1
113 36 1
113 43 1
113 225 1
113 253 1
113 260 1
113 267 1
113 282 1
113 310 1
113 317 1
113 324 1
113 396 1
113 424 1
113 431 1
113 438 1
114 2 1
114 30 1
114 37 1
114 44 1
114 226 1
114 254 1
114 261 1
114 268 1
114 283 1
114 311 1
114 318 1
114 325 1
114 397 1
114 425 1
114 432 1
114 439 1
115 3 1
115 31 1
115 38 1
115 45 1
115 227 1
115 255 1
115 262 1
115 269 1
115 284 1
115 312 1
115 319 1
115 326 1
115 398 1
115 426 1
115 433 1
115 440 1
116 4 1
116 32 1
116 39 1
116 46 1
116 228 1
116 256 1
116 263 1
116 270 1
116 285 1
116 313 1
116 320 1
116 327 1
116 399 1
116 427 1
116 434 1
116 441 1
117 5 1
117 33 1
117 40 1
117 47 1
117 229 1
117 257 1
117 264 1
117 271 1
117 286 1
117 314 1
117 321 1
117 328 1
117 393 1
117 421 1
117 428 1
117 435 1
118 6 1
118 34 1
118 41 1
118 48 1
118 230 1
118 258 1
118 265 1
118 272 1
118 287 1
118 315 1
118 322 1
118 329 1
118 394 1
118 422 1
118 429 1
118 436 1
119 7 1
119 35 1
119 42 1
119 49 1
119 231 1
119 259 1
119 266 1
119 273 1
119 281 1
119 309 1
119 316 1
119 323 1
119 395 1
119 423 1
119 430 1
119 437 1
120 8 1
120 29 1
120 36 1
120 50 1
120 232 1
120 253 1
120 260 1
120 274 1
120 289 1
120 310 1
120 317 1
120 331 1
120 403 1
120 424 1
120 431 1
120 445 1
121 9 1
121 30 1
121 37 1
121 51 1
121 233 1
121 254 1
121 261 1
121 275 1
121 290 1
121 311 1
121 318 1
121 332 1
121 404 1
121 425 1
121 432 1
121 446 1
122 10 1
122 31 1
122 38 1
122 52 1
122 234 1
122 255 1
122 262 1
122 276 1
122 291 1
122 312 1
122 319 1
122 333 1
122 405 1
122 426 1
122 433 1
122 447 1
123 11 1
123 32 1
123 39 1
123 53 1
123 235 1
123 256 1
123 263 1
123 277 1
123 292 1
123 313 1
123 320 1
123 334 1
123 406 1
123 427 1
123 434 1
123 448 1
124 12 1
124 33 1
124 40 1
124 54 1
124 236 1
124 257 1
124 264 1
124 278 1
124 293 1
124 314 1
124 321 1
124 335 1
124 400 1
124 421 1
124 428 1
124 442 1
125 13 1
125 34 1
125 41 1
125 55 1
125 237 1
125 258 1
125 265 1
125 279 1
125 294 1
125 315 1
125 322 1
125 336 1
125 401 1
125 422 1
125 429 1
125 443 1
126 14 1
126 35 1
126 42 1
126 56 1
126 238 1
126 259 1
126 266 1
126 280 1
126 288 1
126 309 1
126 316 1
126 330 1
126 402 1
126 423 1
126 430 1
126 444 1
127 15 1
127 29 1
127 43 1
127 50 1
127 239 1
127 253 1
127 267 1
127 274 1
127 296 1
127 310 1
127 324 1
127 331 1
127 410 1
127 424 1
127 438 1
127 445 1
128 16 1
128 30 1
128 44 1
128 51 1
128 240 1
128 254 1
128 268 1
128 275 1
128 297 1
128 311 1
128 325 1
128 332 1
128 411 1
128 425 1
128 439 1
128 446 1
129 17 1
129 31 1
129 45 1
129 52 1
129 241 1
129 255 1
129 269 1
129 276 1
129 298 1
129 312 1
129 326 1
129 333 1
129 412 1
129 426 1
129 440 1
129 447 1
130 18 1
130 32 1
130 46 1
130 53 1
130 242 1
130 256 1
130 270 1
130 277 1
130 299 1
130 313 1
130 327 1
130 334 1
130 413 1
130 427 1
130 441 1
130 448 1
131 19 1
131 33 1
131 47 1
131 54 1
131 243 1
131 257 1
131 271 1
131 278 1
131 300 1
131 314 1
131 328 1
131 335 1
131 407 1
131 421 1
131 435 1
131 442 1
132 20 1
132 34 1
132 48 1
132 55 1
132 244 1
132 258 1
132 272 1
132 279 1
132 301 1
132 315 1
132 329 1
132 336 1
132 408 1
132 422 1
132 436 1
132 443 1
133 21 1
133 35 1
133 49 1
133 56 1
133 245 1
133 259 1
133 273 1
133 280 1
133 295 1
133 309 1
133 323 1
133 330 1
133 409 1
133 423 1
133 437 1
133 444 1
134 22 1
134 36 1
134 43 1
134 50 1
134 246 1
134 260 1
134 267 1
134 274 1
134 303 1
134 317 1
134 324 1
134 331 1
134 417 1
134 431 1
134 438 1
134 445 1
135 23 1
135 37 1
135 44 1
135 51 1
135 247 1
135 261 1
135 268 1
135 275 1
135 304 1
135 318 1
135 325 1
135 332 1
135 418 1
135 432 1
135 439 1
135 446 1
136 24 1
136 38 1
136 45 1
136 52 1
136 248 1
136 262 1
136 269 1
136 276 1
136 305 1
136 319 1
136 326 1
136 333 1
136 419 1
136 433 1
136 440 1
136 447 1
137 25 1
137 39 1
137 46 1
137 53 1
137 249 1
137 263 1
137 270 1
137 277 1
137 306 1
137 320 1
137 327 1
137 334 1
137 420 1
137 434 1
137 441 1
137 448 1
138 26 1
138 40 1
138 47 1
138 54 1
138 250 1
138 264 1
138 271 1
138 278 1
138 307 1
138 321 1
138 328 1
138 335 1
138 414 1
138 428 1
138 435 1
138 442 1
139 27 1
139 41 1
139 48 1
139 55 1
139 251 1
139 265 1
139 272 1
139 279 1
139 308 1
139 322 1
139 329 1
139 336 1
139 415 1
139 429 1
139 436 1
139 443 1
140 28 1
140 42 1
140 49 1
140 56 1
140 252 1
140 266 1
140 273 1
140 280 1
140 302 1
140 316 1
140 323 1
140 330 1
140 416 1
140 430 1
140 437 1
140 444 1
141 57 1
141 85 1
141 92 1
141 99 1
141 225 1
141 253 1
141 260 1
141 267 1
141 339 1
141 367 1
141 374 1
141 381 1
141 396 1
141 424 1
141 431 1
141 438 1
142 58 1
142 86 1
142 93 1
142 100 1
142 226 1
142 254 1
142 261 1
142 268 1
142 340 1
142 368 1
142 375 1
142 382 1
142 397 1
142 425 1
142 432 1
142 439 1
143 59 1
143 87 1
143 94 1
143 101 1
143 227 1
143 255 1
143 262 1
143 269 1
143 341 1
143 369 1
143 376 1
143 383 1
143 398 1
143 426 1
143 433 1
143 440 1
144 60 1
144 88 1
144 95 1
144 102 1
144 228 1
144 256 1
144 263 1
144 270 1
144 342 1
144 370 1
144 377 1
144 384 1
144 399 1
144 427 1
144 434 1
144 441 1
145 61 1
145 89 1
145 96 1
145 103 1
145 229 1
145 257 1
145 264 1
145 271 1
145 343 1
145 371 1
145 378 1
145 385 1
145 393 1
145 421 1
145 428 1
145 435 1
146 62 1
146 90 1
146 97 1
146 104 1
146 230 1
146 258 1
146 265 1
146 272 1
146 337 1
146 365 1
146 372 1
146 379 1
146 394 1
146 422 1
146 429 1
146 436 1
147 63 1
147 91 1
147 98 1
147 105 1
147 231 1
147 259 1
147 266 1
147 273 1
147 338 1
147 366 1
147 373 1
147 380 1
147 395 1
147 423 1
147 430 1
147 437 1
148 64 1
148 85 1
148 92 1
148 106 1
148 232 1
148 253 1
148 260 1
148 274 1
148 346 1
148 367 1
148 374 1
148 388 1
148 403 1
148 424 1
148 431 1
148 445 1
149 65 1
149 86 1
149 93 1
149 107 1
149 233 1
149 254 1
149 261 1
149 275 1
149 347 1
149 368 1
149 375 1
149 389 1
149 404 1
149 425 1
149 432 1
149 446 1
150 66 1
150 87 1
150 94 1
150 108 1
150 234 1
150 255 1
150 262 1
150 276 1
150 348 1
150 369 1
150 376 1
150 390 1
150 405 1
150 426 1
150 433 1
150 447 1
151 67 1
151 88 1
151 95 1
151 109 1
151 235 1
151 256 1
151 263 1
151 277 1
151 349 1
151 370 1
151 377 1
151 391 1
151 406 1
151 427 1
151 434 1
151 448 1
152 68 1
152 89 1
152 96 1
152 110 1
152 236 1
152 257 1
152 264 1
152 278 1
152 350 1
152 371 1
152 378 1
152 392 1
152 400 1
152 421 1
152 428 1
152 442 1
153 69 1
153 90 1
153 97 1
153 111 1
153 237 1
153 258 1
153 265 1
153 279 1
153 344 1
153 365 1
153 372 1
153 386 1
153 401 1
153 422 1
153 429 1
153 443 1
154 70 1
154 91 1
154 98 1
154 112 1
154 238 1
154 259 1
154 266 1
154 280 1
154 345 1
154 366 1
154 373 1
154 387 1
154 402 1
154 423 1
154 430 1
154 444 1
155 71 1
155 85 1
155 99 1
155 106 1
155 239 1
155 253 1
155 267 1
155 274 1
155 353 1
155 367 1
155 381 1
155 388 1
155 410 1
155 424 1
155 438 1
155 445 1
156 72 1
156 86 1
156 100 1
156 107 1
156 240 1
156 254 1
156 268 1
156 275 1
156 354 1
156 368 1
156 382 1
156 389 1
156 411 1
156 425 1
156 439 1
156 446 1
157 73 1
157 87 1
157 101 1
157 108 1
157 241 1
157 255 1
157 269 1
157 276 1
157 355 1
157 369 1
157 383 1
157 390 1
157 412 1
157 426 1
157 440 1
157 447 1
158 74 1
158 88 1
158 102 1
158 109 1
158 242 1
158 256 1
158 270 1
158 277 1
158 356 1
158 370 1
158 384 1
158 391 1
158 413 1
158 427 1
158 441 1
158 448 1
159 75 1
159 89 1
159 103 1
159 110 1
159 243 1
159 257 1
159 271 1
159 278 1
159 357 1
159 371 1
159 385 1
159 392 1
159 407 1
159 421 1
159 435 1
159 442 1
160 76 1
160 90 1
160 104 1
160 111 1
160 244 1
160 258 1
160 272 1
160 279 1
160 351 1
160 365 1
160 379 1
160 386 1
160 408 1
160 422 1
160 436 1
160 443 1
161 77 1
161 91 1
161 105 1
161 112 1
161 245 1
161 259 1
161 273 1
161 280 1
161 352 1
161 366 1
161 380 1
161 387 1
161 409 1
161 423 1
161 437 1
161 444 1
162 78 1
162 92 1
162 99 1
162 106 1
162 246 1
162 260 1
162 267 1
162 274 1
162 360 1
162 374 1
162 381 1
162 388 1
162 417 1
162 431 1
162 438 1
162 445 1
163 79 1
163 93 1
163 100 1
163 107 1
163 247 1
163 261 1
163 268 1
163 275 1
163 361 1
163 375 1
163 382 1
163 389 1
163 418 1
163 432 1
163 439 1
163 446 1
164 80 1
164 94 1
164 101 1
164 108 1
164 248 1
164 262 1
164 269 1
164 276 1
164 362 1
164 376 1
164 383 1
164 390 1
164 419 1
164 433 1
164 440 1
164 447 1
165 81 1
165 95 1
165 102 1
165 109 1
165 249 1
165 263 1
165 270 1
165 277 1
165 363 1
165 377 1
165 384 1
165 391 1
165 420 1
165 434 1
165 441 1
165 448 1
166 82 1
166 96 1
166 103 1
166 110 1
166 250 1
166 264 1
166 271 1
166 278 1
166 364 1
166 378 1
166 385 1
166 392 1
166 414 1
166 428 1
166 435 1
166 442 1
167 83 1
167 97 1
167 104 1
167 111 1
167 251 1
167 265 1
167 272 1
167 279 1
167 358 1
167 372 1
167 379 1
167 386 1
167 415 1
167 429 1
167 436 1
167 443 1
168 84 1
168 98 1
168 105 1
168 112 1
168 252 1
168 266 1
168 273 1
168 280 1
168 359 1
168 373 1
168 380 1
168 387 1
168 416 1
168 430 1
168 437 1
168 444 1
169 113 1
169 141 1
169 148 1
169 155 1
169 282 1
169 310 1
169 317 1
169 324 1
169 339 1
169 367 1
169 374 1
169 381 1
169 396 1
169 424 1
169 431 1
169 438 1
170 114 1
170 142 1
170 149 1
170 156 1
170 283 1
170 311 1
170 318 1
170 325 1
170 340 1
170 368 1
170 375 1
170 382 1
170 397 1
170 425 1
170 432 1
170 439 1
171 115 1
171 143 1
171 150 1
171 157 1
171 284 1
171 312 1
171 319 1
171 326 1
171 341 1
171 369 1
171 376 1
171 383 1
171 398 1
171 426 1
171 433 1
171 440 1
172 116 1
172 144 1
172 151 1
172 158 1
172 285 1
172 313 1
172 320 1
172 327 1
172 342 1
172 370 1
172 377 1
172 384 1
172 399 1
172 427 1
172 434 1
172 441 1
173 117 1
173 145 1
173 152 1
173 159 1
173 286 1
173 314 1
173 321 1
173 328 1
173 343 1
173 371 1
173 378 1
173 385 1
173 393 1
173 421 1
173 428 1
173 435 1
174 118 1
174 146 1
174 153 1
174 160 1
174 287 1
174 315 1
174 322 1
174 329 1
174 337 1
174 365 1
174 372 1
174 379 1
174 394 1
174 422 1
174 429 1
174 436 1
175 119 1
175 147 1
175 154 1
175 161 1
175 281 1
175 309 1
175 316 1
175 323 1
175 338 1
175 366 1
175 373 1
175 380 1
175 395 1
175 423 1
175 430 1
175 437 1
176 120 1
176 141 1
176 148 1
176 162 1
176 289 1
176 310 1
176 317 1
176 331 1
176 346 1
176 367 1
176 374 1
176 388 1
176 403 1
176 424 1
176 431 1
176 445 1
177 121 1
177 142 1
177 149 1
177 163 1
177 290 1
177 311 1
177 318 1
177 332 1
177 347 1
177 368 1
177 375 1
177 389 1
177 404 1
177 425 1
177 432 1
177 446 1
178 122 1
178 143 1
178 150 1
178 164 1
178 291 1
178 312 1
178 319 1
178 333 1
178 348 1
178 369 1
178 376 1
178 390 1
178 405 1
178 426 1
178 433 1
178 447 1
179 123 1
179 144 1
179 151 1
179 165 1
179 292 1
179 313 1
179 320 1
179 334 1
179 349 1
179 370 1
179 377 1
179 391 1
179 406 1
179 427 1
179 434 1
179 448 1
180 124 1
180 145 1
180 152 1
180 166 1
180 293 1
180 314 1
180 321 1
180 335 1
180 350 1
180 371 1
180 378 1
180 392 1
180 400 1
180 421 1
180 428 1
180 442 1
181 125 1
181 146 1
181 153 1
181 167 1
181 294 1
181 315 1
181 322 1
181 336 1
181 344 1
181 365 1
181 372 1
181 386 1
181 401 1
181 422 1
181 429 1
181 443 1
182 126 1
182 147 1
182 154 1
182 168 1
182 288 1
182 309 1
182 316 1
182 330 1
182 345 1
182 366 1
182 373 1
182 387 1
182 402 1
182 423 1
182 430 1
182 444 1
183 127 1
183 141 1
183 155 1
183 162 1
183 296 1
183 310 1
183 324 1
183 331 1
183 353 1
183 367 1
183 381 1
183 388 1
183 410 1
183 424 1
183 438 1
183 445 1
184 128 1
184 142 1
184 156 1
184 163 1
184 297 1
184 311 1
184 325 1
184 332 1
184 354 1
184 368 1
184 382 1
184 389 1
184 411 1
184 425 1
184 439 1
184 446 1
185 129 1
185 143 1
185 157 1
185 164 1
185 298 1
185 312 1
185 326 1
185 333 1
185 355 1
185 369 1
185 383 1
185 390 1
185 412 1
185 426 1
185 440 1
185 447 1
186 130 1
186 144 1
186 158 1
186 165 1
186 299 1
186 313 1
186 327 1
186 334 1
186 356 1
186 370 1
186 384 1
186 391 1
186 413 1
186 427 1
186 441 1
186 448 1
187 131 1
187 145 1
187 159 1
187 166 1
187 300 1
187 314 1
187 328 1
187 335 1
187 357 1
187 371 1
187 385 1
187 392 1
187 407 1
187 421 1
187 435 1
187 442 1
188 132 1
188 146 1
188 160 1
188 167 1
188 301 1
188 315 1
188 329 1
188 336 1
188 351 1
188 365 1
188 379 1
188 386 1
188 408 1
188 422 1
188 436 1
188 443 1
189 133 1
189 147 1
189 161 1
189 168 1
189 295 1
189 309 1
189 323 1
189 330 1
189 352 1
189 366 1
189 380 1
189 387 1
189 409 1
189 423 1
189 437 1
189 444 1
190 134 1
190 148 1
190 155 1
190 162 1
190 303 1
190 317 1
190 324 1
190 331 1
190 360 1
190 374 1
190 381 1
190 388 1
190 417 1
190 431 1
190 438 1
190 445 1
191 135 1
191 149 1
191 156 1
191 163 1
191 304 1
191 318 1
191 325 1
191 332 1
191 361 1
191 375 1
191 382 1
191 389 1
191 418 1
191 432 1
191 439 1
191 446 1
192 136 1
192 150 1
192 157 1
192 164 1
192 305 1
192 319 1
192 326 1
192 333 1
192 362 1
192 376 1
192 383 1
192 390 1
192 419 1
192 433 1
192 440 1
192 447 1
193 137 1
193 151 1
193 158 1
193 165 1
193 306 1
193 320 1
193 327 1
193 334 1
193 363 1
193 377 1
193 384 1
193 391 1
193 420 1
193 434 1
193 441 1
193 448 1
194 138 1
194 152 1
194 159 1
194 166 1
194 307 1
194 321 1
194 328 1
194 335 1
194 364 1
194 378 1
194 385 1
194 392 1
194 414 1
194 428 1
194 435 1
194 442 1
195 139 1
195 153 1
195 160 1
195 167 1
195 308 1
195 322 1
195 329 1
195 336 1
195 358 1
195 372 1
195 379 1
195 386 1
195 415 1
195 429 1
195 436 1
195 443 1
196 140 1
196 154 1
196 161 1
196 168 1
196 302 1
196 316 1
196 323 1
196 330 1
196 359 1
196 373 1
196 380 1
196 387 1
196 416 1
196 430 1
196 437 1
196 444 1
197 169 1
197 197 1
197 204 1
197 211 1
197 225 1
197 253 1
197 260 1
197 267 1
197 282 1
197 310 1
197 317 1
197 324 1
197 339 1
197 367 1
197 374 1
197 381 1
198 170 1
198 198 1
198 205 1
198 212 1
198 226 1
198 254 1
198 261 1
198 268 1
198 283 1
198 311 1
198 318 1
198 325 1
198 340 1
198 368 1
198 375 1
198 382 1
199 171 1
199 199 1
199 206 1
199 213 1
199 227 1
199 255 1
199 262 1
199 269 1
199 284 1
199 312 1
199 319 1
199 326 1
199 341 1
199 369 1
199 376 1
199 383 1
200 172 1
200 200 1
200 207 1
200 214 1
200 228 1
200 256 1
200 263 1
200 270 1
200 285 1
200 313 1
200 320 1
200 327 1
200 342 1
200 370 1
200 377 1
200 384 1
201 173 1
201 201 1
201 208 1
201 215 1
201 229 1
201 257 1
201 264 1
201 271 1
201 286 1
201 314 1
201 321 1
201 328 1
201 343 1
201 371 1
201 378 1
201 385 1
202 174 1
202 202 1
202 209 1
202 216 1
202 230 1
202 258 1
202 265 1
202 272 1
202 287 1
202 315 1
202 322 1
202 329 1
202 337 1
202 365 1
202 372 1
202 379 1
203 175 1
203 203 1
203 210 1
203 217 1
203 231 1
203 259 1
203 266 1
203 273 1
203 281 1
203 309 1
203 316 1
203 323 1
203 338 1
203 366 1
203 373 1
203 380 1
204 176 1
204 197 1
204 204 1
204 218 1
204 232 1
204 253 1
204 260 1
204 274 1
204 289 1
204 310 1
204 317 1
204 331 1
204 346 1
204 367 1
204 374 1
204 388 1
205 177 1
205 198 1
205 205 1
205 219 1
205 233 1
205 254 1
205 261 1
205 275 1
205 290 1
205 311 1
205 318 1
205 332 1
205 347 1
205 368 1
205 375 1
205 389 1
206 178 1
206 199 1
206 206 1
206 220 1
206 234 1
206 255 1
206 262 1
206 276 1
206 291 1
206 312 1
206 319 1
206 333 1
206 348 1
206 369 1
206 376 1
206 390 1
207 179 1
207 200 1
207 207 1
207 221 1
207 235 1
207 256 1
207 263 1
207 277 1
207 292 1
207 313 1
207 320 1
207 334 1
207 349 1
207 370 1
207 377 1
207 391 1
208 180 1
208 201 1
208 208 1
208 222 1
208 236 1
208 257 1
208 264 1
208 278 1
208 293 1
208 314 1
208 321 1
208 335 1
208 350 1
208 371 1
208 378 1
208 392 1
209 181 1
209 202 1
209 209 1
209 223 1
209 237 1
209 258 1
209 265 1
209 279 1
209 294 1
209 315 1
209 322 1
209 336 1
209 344 1
209 365 1
209 372 1
209 386 1
210 182 1
210 203 1
210 210 1
210 224 1
210 238 1
210 259 1
210 266 1
210 280 1
210 288 1
210 309 1
210 316 1
210 330 1
210 345 1
210 366 1
210 373 1
210 387 1
211 183 1
211 197 1
211 211 1
211 218 1
211 239 1
211 253 1
211 267 1
211 274 1
211 296 1
211 310 1
211 324 1
211 331 1
211 353 1
211 367 1
211 381 1
211 388 1
212 184 1
212 198 1
212 212 1
212 219 1
212 240 1
212 254 1
212 268 1
212 275 1
212 297 1
212 311 1
212 325 1
212 332 1
212 354 1
212 368 1
212 382 1
212 389 1
213 185 1
213 199 1
213 213 1
213 220 1
213 241 1
213 255 1
213 269 1
213 276 1
213 298 1
213 312 1
213 326 1
213 333 1
213 355 1
213 369 1
213 383 1
213 390 1
214 186 1
214 200 1
214 214 1
214 221 1
214 242 1
214 256 1
214 270 1
214 277 1
214 299 1
214 313 1
214 327 1
214 334 1
214 356 1
214 370 1
214 384 1
214 391 1
215 187 1
215 201 1
215 215 1
215 222 1
215 243 1
215 257 1
215 271 1
215 278 1
215 300 1
215 314 1
215 328 1
215 335 1
215 357 1
215 371 1
215 385 1
215 392 1
216 188 1
216 202 1
216 216 1
216 223 1
216 244 1
216 258 1
216 272 1
216 279 1
216 301 1
216 315 1
216 329 1
216 336 1
216 351 1
216 365 1
216 379 1
216 386 1
217 189 1
217 203 1
217 217 1
217 224 1
217 245 1
217 259 1
217 273 1
217 280 1
217 295 1
217 309 1
217 323 1
217 330 1
217 352 1
217 366 1
217 380 1
217 387 1
218 190 1
218 204 1
218 211 1
218 218 1
218 246 1
218 260 1
218 267 1
218 274 1
218 303 1
218 317 1
218 324 1
218 331 1
218 360 1
218 374 1
218 381 1
218 388 1
219 191 1
219 205 1
219 212 1
219 219 1
219 247 1
219 261 1
219 268 1
219 275 1
219 304 1
219 318 1
219 325 1
219 332 1
219 361 1
219 375 1
219 382 1
219 389 1
220 192 1
220 206 1
220 213 1
220 220 1
220 248 1
220 262 1
220 269 1
220 276 1
220 305 1
220 319 1
220 326 1
220 333 1
220 362 1
220 376 1
220 383 1
220 390 1
221 193 1
221 207 1
221 214 1
221 221 1
221 249 1
221 263 1
221 270 1
221 277 1
221 306 1
221 320 1
221 327 1
221 334 1
221 363 1
221 377 1
221 384 1
221 391 1
222 194 1
222 208 1
222 215 1
222 222 1
222 250 1
222 264 1
222 271 1
222 278 1
222 307 1
222 321 1
222 328 1
222 335 1
222 364 1
222 378 1
222 385 1
222 392 1
223 195 1
223 209 1
223 216 1
223 223 1
223 251 1
223 265 1
223 272 1
223 279 1
223 308 1
223 322 1
223 329 1
223 336 1
223 358 1
223 372 1
223 379 1
223 386 1
224 196 1
224 210 1
224 217 1
224 224 1
224 252 1
224 266 1
224 273 1
224 280 1
224 302 1
224 316 1
224 323 1
224 330 1
224 359 1
224 373 1
224 380 1
224 387 1
