%%MatrixMarket matrix coordinate integer general
160 320 2560
1 1 1
1 23 1
1 32 1
1 37 1
1 161 1
1 183 1
1 192 1
1 197 1
1 201 1
1 223 1
1 232 1
1 237 1
1 241 1
1 263 1
1 272 1
1 277 1
2 2 1
2 24 1
2 33 1
2 38 1
2 162 1
2 184 1
2 193 1
2 198 1
2 202 1
2 224 1
2 233 1
2 238 1
2 242 1
2 264 1
2 273 1
2 278 1
3 3 1
3 25 1
3 34 1
3 39 1
3 163 1
3 185 1
3 194 1
3 199 1
3 203 1
3 225 1
3 234 1
3 239 1
3 243 1
3 265 1
3 274 1
3 279 1
4 4 1
4 21 1
4 35 1
4 40 1
4 164 1
4 181 1
4 195 1
4 200 1
4 204 1
4 221 1
4 235 1
4 240 1
4 244 1
4 261 1
4 275 1
4 280 1
5 5 1
5 22 1
5 31 1
5 36 1
5 165 1
5 182 1
5 191 1
5 196 1
5 205 1
5 222 1
5 231 1
5 236 1
5 245 1
5 262 1
5 271 1
5 276 1
6 6 1
6 23 1
6 28 1
6 37 1
6 166 1
6 183 1
6 188 1
6 197 1
6 206 1
6 223 1
6 228 1
6 237 1
6 246 1
6 263 1
6 268 1
6 277 1
7 7 1
7 24 1
7 29 1
7 38 1
7 167 1
7 184 1
7 189 1
7 198 1
7 207 1
7 224 1
7 229 1
7 238 1
7 247 1
7 264 1
7 269 1
7 278 1
8 8 1
8 25 1
8 30 1
8 39 1
8 168 1
8 185 1
8 190 1
8 199 1
8 208 1
8 225 1
8 230 1
8 239 1
8 248 1
8 265 1
8 270 1
8 279 1
9 9 1
9 21 1
9 26 1
9 40 1
9 169 1
9 181 1
9 186 1
9 200 1
9 209 1
9 221 1
9 226 1
9 240 1
9 249 1
9 261 1
9 266 1
9 280 1
10 10 1
10 22 1
10 27 1
10 36 1
10 170 1
10 182 1
10 187 1
10 196 1
10 210 1
10 222 1
10 227 1
10 236 1
10 250 1
10 262 1
10 267 1
10 276 1
11 15 1
11 23 1
11 28 1
11 32 1
11 175 1
11 183 1
11 188 1
11 192 1
11 215 1
11 223 1
11 228 1
11 232 1
11 255 1
11 263 1
11 268 1
11 272 1
12 11 1
12 24 1
12 29 1
12 33 1
12 171 1
12 184 1
12 189 1
12 193 1
12 211 1
12 224 1
12 229 1
12 233 1
12 251 1
12 264 1
12 269 1
12 273 1
13 12 1
13 25 1
13 30 1
13 34 1
13 172 1
13 185 1
13 190 1
13 194 1
13 212 1
13 225 1
13 230 1
13 234 1
13 252 1
13 265 1
13 270 1
13 274 1
14 13 1
14 21 1
14 26 1
14 35 1
14 173 1
14 181 1
14 186 1
14 195 1
14 213 1
14 221 1
14 226 1
14 235 1
14 253 1
14 261 1
14 266 1
14 275 1
15 14 1
15 22 1
15 27 1
15 31 1
15 174 1
15 182 1
15 187 1
15 191 1
15 214 1
15 222 1
15 227 1
15 231 1
15 254 1
15 262 1
15 267 1
15 271 1
16 19 1
16 28 1
16 32 1
16 37 1
16 179 1
16 188 1
16 192 1
16 197 1
16 219 1
16 228 1
16 232 1
16 237 1
16 259 1
16 268 1
16 272 1
16 277 1
17 20 1
17 29 1
17 33 1
17 38 1
17 180 1
17 189 1
17 193 1
17 198 1
17 220 1
17 229 1
17 233 1
17 238 1
17 260 1
17 269 1
17 273 1
17 278 1
18 16 1
18 30 1
18 34 1
18 39 1
18 176 1
18 190 1
18 194 1
18 199 1
18 216 1
18 230 1
18 234 1
18 239 1
18 256 1
18 270 1
18 274 1
18 279 1
19 17 1
19 26 1
19 35 1
19 40 1
19 177 1
19 186 1
19 195 1
19 200 1
19 217 1
19 226 1
19 235 1
19 240 1
19 257 1
19 266 1
19 275 1
19 280 1
20 18 1
20 27 1
20 31 1
20 36 1
20 178 1
20 187 1
20 191 1
20 196 1
20 218 1
20 227 1
20 231 1
20 236 1
20 258 1
20 267 1
20 271 1
20 276 1
21 41 1
21 63 1
21 72 1
21 77 1
21 161 1
21 183 1
21 192 1
21 197 1
21 201 1
21 223 1
21 232 1
21 237 1
21 281 1
21 303 1
21 312 1
21 317 1
22 42 1
22 64 1
22 73 1
22 78 1
22 162 1
22 184 1
22 193 1
22 198 1
22 202 1
22 224 1
22 233 1
22 238 1
22 282 1
22 304 1
22 313 1
22 318 1
23 43 1
23 65 1
23 74 1
23 79 1
23 163 1
23 185 1
23 194 1
23 199 1
23 203 1
23 225 1
23 234 1
23 239 1
23 283 1
23 305 1
23 314 1
23 319 1
24 44 1
24 61 1
24 75 1
24 80 1
24 164 1
24 181 1
24 195 1
24 200 1
24 204 1
24 221 1
24 235 1
24 240 1
24 284 1
24 301 1
24 315 1
24 320 1
25 45 1
25 62 1
25 71 1
25 76 1
25 165 1
25 182 1
25 191 1
25 196 1
25 205 1
25 222 1
25 231 1
25 236 1
25 285 1
25 302 1
25 311 1
25 316 1
26 46 1
26 63 1
26 68 1
26 77 1
26 166 1
26 183 1
26 188 1
26 197 1
26 206 1
26 223 1
26 228 1
26 237 1
26 286 1
26 303 1
26 308 1
26 317 1
27 47 1
27 64 1
27 69 1
27 78 1
27 167 1
27 184 1
27 189 1
27 198 1
27 207 1
27 224 1
27 229 1
27 238 1
27 287 1
27 304 1
27 309 1
27 318 1
28 48 1
28 65 1
28 70 1
28 79 1
28 168 1
28 185 1
28 190 1
28 199 1
28 208 1
28 225 1
28 230 1
28 239 1
28 288 1
28 305 1
28 310 1
28 319 1
29 49 1
29 61 1
29 66 1
29 80 1
29 169 1
29 181 1
29 186 1
29 200 1
29 209 1
29 221 1
29 226 1
29 240 1
29 289 1
29 301 1
29 306 1
29 320 1
30 50 1
30 62 1
30 67 1
30 76 1
30 170 1
30 182 1
30 187 1
30 196 1
30 210 1
30 222 1
30 227 1
30 236 1
30 290 1
30 302 1
30 307 1
30 316 1
31 55 1
31 63 1
31 68 1
31 72 1
31 175 1
31 183 1
31 188 1
31 192 1
31 215 1
31 223 1
31 228 1
31 232 1
31 295 1
31 303 1
31 308 1
31 312 1
32 51 1
32 64 1
32 69 1
32 73 1
32 171 1
32 184 1
32 189 1
32 193 1
32 211 1
32 224 1
32 229 1
32 233 1
32 291 1
32 304 1
32 309 1
32 313 1
33 52 1
33 65 1
33 70 1
33 74 1
33 172 1
33 185 1
33 190 1
33 194 1
33 212 1
33 225 1
33 230 1
33 234 1
33 292 1
33 305 1
33 310 1
33 314 1
34 53 1
34 61 1
34 66 1
34 75 1
34 173 1
34 181 1
34 186 1
34 195 1
34 213 1
34 221 1
34 226 1
34 235 1
34 293 1
34 301 1
34 306 1
34 315 1
35 54 1
35 62 1
35 67 1
35 71 1
35 174 1
35 182 1
35 187 1
35 191 1
35 214 1
35 222 1
35 227 1
35 231 1
35 294 1
35 302 1
35 307 1
35 311 1
36 59 1
36 68 1
36 72 1
36 77 1
36 179 1
36 188 1
36 192 1
36 197 1
36 219 1
36 228 1
36 232 1
36 237 1
36 299 1
36 308 1
36 312 1
36 317 1
37 60 1
37 69 1
37 73 1
37 78 1
37 180 1
37 189 1
37 193 1
37 198 1
37 220 1
37 229 1
37 233 1
37 238 1
37 300 1
37 309 1
37 313 1
37 318 1
38 56 1
38 70 1
38 74 1
38 79 1
38 176 1
38 190 1
38 194 1
38 199 1
38 216 1
38 230 1
38 234 1
38 239 1
38 296 1
38 310 1
38 314 1
38 319 1
39 57 1
39 66 1
39 75 1
39 80 1
39 177 1
39 186 1
39 195 1
39 200 1
39 217 1
39 226 1
39 235 1
39 240 1
39 297 1
39 306 1
39 315 1
39 320 1
40 58 1
40 67 1
40 71 1
40 76 1
40 178 1
40 187 1
40 191 1
40 196 1
40 218 1
40 227 1
40 231 1
40 236 1
40 298 1
40 307 1
40 311 1
40 316 1
41 81 1
41 103 1
41 112 1
41 117 1
41 161 1
41 183 1
41 192 1
41 197 1
41 241 1
41 263 1
41 272 1
41 277 1
41 281 1
41 303 1
41 312 1
41 317 1
42 82 1
42 104 1
42 113 1
42 118 1
42 162 1
42 184 1
42 193 1
42 198 1
42 242 1
42 264 1
42 273 1
42 278 1
42 282 1
42 304 1
42 313 1
42 318 1
43 83 1
43 105 1
43 114 1
43 119 1
43 163 1
43 185 1
43 194 1
43 199 1
43 243 1
43 265 1
43 274 1
43 279 1
43 283 1
43 305 1
43 314 1
43 319 1
44 84 1
44 101 1
44 115 1
44 120 1
44 164 1
44 181 1
44 195 1
44 200 1
44 244 1
44 261 1
44 275 1
44 280 1
44 284 1
44 301 1
44 315 1
44 320 1
45 85 1
45 102 1
45 111 1
45 116 1
45 165 1
45 182 1
45 191 1
45 196 1
45 245 1
45 262 1
45 271 1
45 276 1
45 285 1
45 302 1
45 311 1
45 316 1
46 86 1
46 103 1
46 108 1
46 117 1
46 166 1
46 183 1
46 188 1
46 197 1
46 246 1
46 263 1
46 268 1
46 277 1
46 286 1
46 303 1
46 308 1
46 317 1
47 87 1
47 104 1
47 109 1
47 118 1
47 167 1
47 184 1
47 189 1
47 198 1
47 247 1
47 264 1
47 269 1
47 278 1
47 287 1
47 304 1
47 309 1
47 318 1
48 88 1
48 105 1
48 110 1
48 119 1
48 168 1
48 185 1
48 190 1
48 199 1
48 248 1
48 265 1
48 270 1
48 279 1
48 288 1
48 305 1
48 310 1
48 319 1
49 89 1
49 101 1
49 106 1
49 120 1
49 169 1
49 181 1
49 186 1
49 200 1
49 249 1
49 261 1
49 266 1
49 280 1
49 289 1
49 301 1
49 306 1
49 320 1
50 90 1
50 102 1
50 107 1
50 116 1
50 170 1
50 182 1
50 187 1
50 196 1
50 250 1
50 262 1
50 267 1
50 276 1
50 290 1
50 302 1
50 307 1
50 316 1
51 95 1
51 103 1
51 108 1
51 112 1
51 175 1
51 183 1
51 188 1
51 192 1
51 255 1
51 263 1
51 268 1
51 272 1
51 295 1
51 303 1
51 308 1
51 312 1
52 91 1
52 104 1
52 109 1
52 113 1
52 171 1
52 184 1
52 189 1
52 193 1
52 251 1
52 264 1
52 269 1
52 273 1
52 291 1
52 304 1
52 309 1
52 313 1
53 92 1
53 105 1
53 110 1
53 114 1
53 172 1
53 185 1
53 190 1
53 194 1
53 252 1
53 265 1
53 270 1
53 274 1
53 292 1
53 305 1
53 310 1
53 314 1
54 93 1
54 101 1
54 106 1
54 115 1
54 173 1
54 181 1
54 186 1
54 195 1
54 253 1
54 261 1
54 266 1
54 275 1
54 293 1
54 301 1
54 306 1
54 315 1
55 94 1
55 102 1
55 107 1
55 111 1
55 174 1
55 182 1
55 187 1
55 191 1
55 254 1
55 262 1
55 267 1
55 271 1
55 294 1
55 302 1
55 307 1
55 311 1
56 99 1
56 108 1
56 112 1
56 117 1
56 179 1
56 188 1
56 192 1
56 197 1
56 259 1
56 268 1
56 272 1
56 277 1
56 299 1
56 308 1
56 312 1
56 317 1
57 100 1
57 109 1
57 113 1
57 118 1
57 180 1
57 189 1
57 193 1
57 198 1
57 260 1
57 269 1
57 273 1
57 278 1
57 300 1
57 309 1
57 313 1
57 318 1
58 96 1
58 110 1
58 114 1
58 119 1
58 176 1
58 190 1
58 194 1
58 199 1
58 256 1
58 270 1
58 274 1
58 279 1
58 296 1
58 310 1
58 314 1
58 319 1
59 97 1
59 106 1
59 115 1
59 120 1
59 177 1
59 186 1
59 195 1
59 200 1
59 257 1
59 266 1
59 275 1
59 280 1
59 297 1
59 306 1
59 315 1
59 320 1
60 98 1
60 107 1
60 111 1
60 116 1
60 178 1
60 187 1
60 191 1
60 196 1
60 258 1
60 267 1
60 271 1
60 276 1
60 298 1
60 307 1
60 311 1
60 316 1
61 121 1
61 143 1
61 152 1
61 157 1
61 201 1
61 223 1
61 232 1
61 237 1
61 241 1
61 263 1
61 272 1
61 277 1
61 281 1
61 303 1
61 312 1
61 317 1
62 122 1
62 144 1
62 153 1
62 158 1
62 202 1
62 224 1
62 233 1
62 238 1
62 242 1
62 264 1
62 273 1
62 278 1
62 282 1
62 304 1
62 313 1
62 318 1
63 123 1
63 145 1
63 154 1
63 159 1
63 203 1
63 225 1
63 234 1
63 239 1
63 243 1
63 265 1
63 274 1
63 279 1
63 283 1
63 305 1
63 314 1
63 319 1
64 124 1
64 141 1
64 155 1
64 160 1
64 204 1
64 221 1
64 235 1
64 240 1
64 244 1
64 261 1
64 275 1
64 280 1
64 284 1
64 301 1
64 315 1
64 320 1
65 125 1
65 142 1
65 151 1
65 156 1
65 205 1
65 222 1
65 231 1
65 236 1
65 245 1
65 262 1
65 271 1
65 276 1
65 285 1
65 302 1
65 311 1
65 316 1
66 126 1
66 143 1
66 148 1
66 157 1
66 206 1
66 223 1
66 228 1
66 237 1
66 246 1
66 263 1
66 268 1
66 277 1
66 286 1
66 303 1
66 308 1
66 317 1
67 127 1
67 144 1
67 149 1
67 158 1
67 207 1
67 224 1
67 229 1
67 238 1
67 247 1
67 264 1
67 269 1
67 278 1
67 287 1
67 304 1
67 309 1
67 318 1
68 128 1
68 145 1
68 150 1
68 159 1
68 208 1
68 225 1
68 230 1
68 239 1
68 248 1
68 265 1
68 270 1
68 279 1
68 288 1
68 305 1
68 310 1
68 319 1
69 129 1
69 141 1
69 146 1
69 160 1
69 209 1
69 221 1
69 226 1
69 240 1
69 249 1
69 261 1
69 266 1
69 280 1
69 289 1
69 301 1
69 306 1
69 320 1
70 130 1
70 142 1
70 147 1
70 156 1
70 210 1
70 222 1
70 227 1
70 236 1
70 250 1
70 262 1
70 267 1
70 276 1
70 290 1
70 302 1
70 307 1
70 316 1
71 135 1
71 143 1
71 148 1
71 152 1
71 215 1
71 223 1
71 228 1
71 232 1
71 255 1
71 263 1
71 268 1
71 272 1
71 295 1
71 303 1
71 308 1
71 312 1
72 131 1
72 144 1
72 149 1
72 153 1
72 211 1
72 224 1
72 229 1
72 233 1
72 251 1
72 264 1
72 269 1
72 273 1
72 291 1
72 304 1
72 309 1
72 313 1
73 132 1
73 145 1
73 150 1
73 154 1
73 212 1
73 225 1
73 230 1
73 234 1
73 252 1
73 265 1
73 270 1
73 274 1
73 292 1
73 305 1
73 310 1
73 314 1
74 133 1
74 141 1
74 146 1
74 155 1
74 213 1
74 221 1
74 226 1
74 235 1
74 253 1
74 261 1
74 266 1
74 275 1
74 293 1
74 301 1
74 306 1
74 315 1
75 134 1
75 142 1
75 147 1
75 151 1
75 214 1
75 222 1
75 227 1
75 231 1
75 254 1
75 262 1
75 267 1
75 271 1
75 294 1
75 302 1
75 307 1
75 311 1
76 139 1
76 148 1
76 152 1
76 157 1
76 219 1
76 228 1
76 232 1
76 237 1
76 259 1
76 268 1
76 272 1
76 277 1
76 299 1
76 308 1
76 312 1
76 317 1
77 140 1
77 149 1
77 153 1
77 158 1
77 220 1
77 229 1
77 233 1
77 238 1
77 260 1
77 269 1
77 273 1
77 278 1
77 300 1
77 309 1
77 313 1
77 318 1
78 136 1
78 150 1
78 154 1
78 159 1
78 216 1
78 230 1
78 234 1
78 239 1
78 256 1
78 270 1
78 274 1
78 279 1
78 296 1
78 310 1
78 314 1
78 319 1
79 137 1
79 146 1
79 155 1
79 160 1
79 217 1
79 226 1
79 235 1
79 240 1
79 257 1
79 266 1
79 275 1
79 280 1
79 297 1
79 306 1
79 315 1
79 320 1
80 138 1
80 147 1
80 151 1
80 156 1
80 218 1
80 227 1
80 231 1
80 236 1
80 258 1
80 267 1
80 271 1
80 276 1
80 298 1
80 307 1
80 311 1
80 316 1
81 1 1
81 21 1
81 26 1
81 31 1
81 163 1
81 183 1
81 188 1
81 193 1
81 243 1
81 263 1
81 268 1
81 273 1
81 284 1
81 304 1
81 309 1
81 314 1
82 2 1
82 22 1
82 27 1
82 32 1
82 164 1
82 184 1
82 189 1
82 194 1
82 244 1
82 264 1
82 269 1
82 274 1
82 285 1
82 305 1
82 310 1
82 315 1
83 3 1
83 23 1
83 28 1
83 33 1
83 165 1
83 185 1
83 190 1
83 195 1
83 245 1
83 265 1
83 270 1
83 275 1
83 281 1
83 301 1
83 306 1
83 311 1
84 4 1
84 24 1
84 29 1
84 34 1
84 161 1
84 181 1
84 186 1
84 191 1
84 241 1
84 261 1
84 266 1
84 271 1
84 282 1
84 302 1
84 307 1
84 312 1
85 5 1
85 25 1
85 30 1
85 35 1
85 162 1
85 182 1
85 187 1
85 192 1
85 242 1
85 262 1
85 267 1
85 272 1
85 283 1
85 303 1
85 308 1
85 313 1
86 6 1
86 21 1
86 26 1
86 36 1
86 168 1
86 183 1
86 188 1
86 198 1
86 248 1
86 263 1
86 268 1
86 278 1
86 289 1
86 304 1
86 309 1
86 319 1
87 7 1
87 22 1
87 27 1
87 37 1
87 169 1
87 184 1
87 189 1
87 199 1
87 249 1
87 264 1
87 269 1
87 279 1
87 290 1
87 305 1
87 310 1
87 320 1
88 8 1
88 23 1
88 28 1
88 38 1
88 170 1
88 185 1
88 190 1
88 200 1
88 250 1
88 265 1
88 270 1
88 280 1
88 286 1
88 301 1
88 306 1
88 316 1
89 9 1
89 24 1
89 29 1
89 39 1
89 166 1
89 181 1
89 186 1
89 196 1
89 246 1
89 261 1
89 266 1
89 276 1
89 287 1
89 302 1
89 307 1
89 317 1
90 10 1
90 25 1
90 30 1
90 40 1
90 167 1
90 182 1
90 187 1
90 197 1
90 247 1
90 262 1
90 267 1
90 277 1
90 288 1
90 303 1
90 308 1
90 318 1
91 11 1
91 21 1
91 31 1
91 36 1
91 173 1
91 183 1
91 193 1
91 198 1
91 253 1
91 263 1
91 273 1
91 278 1
91 294 1
91 304 1
91 314 1
91 319 1
92 12 1
92 22 1
92 32 1
92 37 1
92 174 1
92 184 1
92 194 1
92 199 1
92 254 1
92 264 1
92 274 1
92 279 1
92 295 1
92 305 1
92 315 1
92 320 1
93 13 1
93 23 1
93 33 1
93 38 1
93 175 1
93 185 1
93 195 1
93 200 1
93 255 1
93 265 1
93 275 1
93 280 1
93 291 1
93 301 1
93 311 1
93 316 1
94 14 1
94 24 1
94 34 1
94 39 1
94 171 1
94 181 1
94 191 1
94 196 1
94 251 1
94 261 1
94 271 1
94 276 1
94 292 1
94 302 1
94 312 1
94 317 1
95 15 1
95 25 1
95 35 1
95 40 1
95 172 1
95 182 1
95 192 1
95 197 1
95 252 1
95 262 1
95 272 1
95 277 1
95 293 1
95 303 1
95 313 1
95 318 1
96 16 1
96 26 1
96 31 1
96 36 1
96 178 1
96 188 1
96 193 1
96 198 1
96 258 1
96 268 1
96 273 1
96 278 1
96 299 1
96 309 1
96 314 1
96 319 1
97 17 1
97 27 1
97 32 1
97 37 1
97 179 1
97 189 1
97 194 1
97 199 1
97 259 1
97 269 1
97 274 1
97 279 1
97 300 1
97 310 1
97 315 1
97 320 1
98 18 1
98 28 1
98 33 1
98 38 1
98 180 1
98 190 1
98 195 1
98 200 1
98 260 1
98 270 1
98 275 1
98 280 1
98 296 1
98 306 1
98 311 1
98 316 1
99 19 1
99 29 1
99 34 1
99 39 1
99 176 1
99 186 1
99 191 1
99 196 1
99 256 1
99 266 1
99 271 1
99 276 1
99 297 1
99 307 1
99 312 1
99 317 1
100 20 1
100 30 1
100 35 1
100 40 1
100 177 1
100 187 1
100 192 1
100 197 1
100 257 1
100 267 1
100 272 1
100 277 1
100 298 1
100 308 1
100 313 1
100 318 1
101 41 1
101 61 1
101 66 1
101 71 1
101 163 1
101 183 1
101 188 1
101 193 1
101 203 1
101 223 1
101 228 1
101 233 1
101 284 1
101 304 1
101 309 1
101 314 1
102 42 1
102 62 1
102 67 1
102 72 1
102 164 1
102 184 1
102 189 1
102 194 1
102 204 1
102 224 1
102 229 1
102 234 1
102 285 1
102 305 1
102 310 1
102 315 1
103 43 1
103 63 1
103 68 1
103 73 1
103 165 1
103 185 1
103 190 1
103 195 1
103 205 1
103 225 1
103 230 1
103 235 1
103 281 1
103 301 1
103 306 1
103 311 1
104 44 1
104 64 1
104 69 1
104 74 1
104 161 1
104 181 1
104 186 1
104 191 1
104 201 1
104 221 1
104 226 1
104 231 1
104 282 1
104 302 1
104 307 1
104 312 1
105 45 1
105 65 1
105 70 1
105 75 1
105 162 1
105 182 1
105 187 1
105 192 1
105 202 1
105 222 1
105 227 1
105 232 1
105 283 1
105 303 1
105 308 1
105 313 1
106 46 1
106 61 1
106 66 1
106 76 1
106 168 1
106 183 1
106 188 1
106 198 1
106 208 1
106 223 1
106 228 1
106 238 1
106 289 1
106 304 1
106 309 1
106 319 1
107 47 1
107 62 1
107 67 1
107 77 1
107 169 1
107 184 1
107 189 1
107 199 1
107 209 1
107 224 1
107 229 1
107 239 1
107 290 1
107 305 1
107 310 1
107 320 1
108 48 1
108 63 1
108 68 1
108 78 1
108 170 1
108 185 1
108 190 1
108 200 1
108 210 1
108 225 1
108 230 1
108 240 1
108 286 1
108 301 1
108 306 1
108 316 1
109 49 1
109 64 1
109 69 1
109 79 1
109 166 1
109 181 1
109 186 1
109 196 1
109 206 1
109 221 1
109 226 1
109 236 1
109 287 1
109 302 1
109 307 1
109 317 1
110 50 1
110 65 1
110 70 1
110 80 1
110 167 1
110 182 1
110 187 1
110 197 1
110 207 1
110 222 1
110 227 1
110 237 1
110 288 1
110 303 1
110 308 1
110 318 1
111 51 1
111 61 1
111 71 1
111 76 1
111 173 1
111 183 1
111 193 1
111 198 1
111 213 1
111 223 1
111 233 1
111 238 1
111 294 1
111 304 1
111 314 1
111 319 1
112 52 1
112 62 1
112 72 1
112 77 1
112 174 1
112 184 1
112 194 1
112 199 1
112 214 1
112 224 1
112 234 1
112 239 1
112 295 1
112 305 1
112 315 1
112 320 1
113 53 1
113 63 1
113 73 1
113 78 1
113 175 1
113 185 1
113 195 1
113 200 1
113 215 1
113 225 1
113 235 1
113 240 1
113 291 1
113 301 1
113 311 1
113 316 1
114 54 1
114 64 1
114 74 1
114 79 1
114 171 1
114 181 1
114 191 1
114 196 1
114 211 1
114 221 1
114 231 1
114 236 1
114 292 1
114 302 1
114 312 1
114 317 1
115 55 1
115 65 1
115 75 1
115 80 1
115 172 1
115 182 1
115 192 1
115 197 1
115 212 1
115 222 1
115 232 1
115 237 1
115 293 1
115 303 1
115 313 1
115 318 1
116 56 1
116 66 1
116 71 1
116 76 1
116 178 1
116 188 1
116 193 1
116 198 1
116 218 1
116 228 1
116 233 1
116 238 1
116 299 1
116 309 1
116 314 1
116 319 1
117 57 1
117 67 1
117 72 1
117 77 1
117 179 1
117 189 1
117 194 1
117 199 1
117 219 1
117 229 1
117 234 1
117 239 1
117 300 1
117 310 1
117 315 1
117 320 1
118 58 1
118 68 1
118 73 1
118 78 1
118 180 1
118 190 1
118 195 1
118 200 1
118 220 1
118 230 1
118 235 1
118 240 1
118 296 1
118 306 1
118 311 1
118 316 1
119 59 1
119 69 1
119 74 1
119 79 1
119 176 1
119 186 1
119 191 1
119 196 1
119 216 1
119 226 1
119 231 1
119 236 1
119 297 1
119 307 1
119 312 1
119 317 1
120 60 1
120 70 1
120 75 1
120 80 1
120 177 1
120 187 1
120 192 1
120 197 1
120 217 1
120 227 1
120 232 1
120 237 1
120 298 1
120 308 1
120 313 1
120 318 1
121 82 1
121 102 1
121 107 1
121 112 1
121 163 1
121 183 1
121 188 1
121 193 1
121 203 1
121 223 1
121 228 1
121 233 1
121 243 1
121 263 1
121 268 1
121 273 1
122 83 1
122 103 1
122 108 1
122 113 1
122 164 1
122 184 1
122 189 1
122 194 1
122 204 1
122 224 1
122 229 1
122 234 1
122 244 1
122 264 1
122 269 1
122 274 1
123 84 1
123 104 1
123 109 1
123 114 1
123 165 1
123 185 1
123 190 1
123 195 1
123 205 1
123 225 1
123 230 1
123 235 1
123 245 1
123 265 1
123 270 1
123 275 1
124 85 1
124 105 1
124 110 1
124 115 1
124 161 1
124 181 1
124 186 1
124 191 1
124 201 1
124 221 1
124 226 1
124 231 1
124 241 1
124 261 1
124 266 1
124 271 1
125 81 1
125 101 1
125 106 1
125 111 1
125 162 1
125 182 1
125 187 1
125 192 1
125 202 1
125 222 1
125 227 1
125 232 1
125 242 1
125 262 1
125 267 1
125 272 1
126 87 1
126 102 1
126 107 1
126 117 1
126 168 1
126 183 1
126 188 1
126 198 1
126 208 1
126 223 1
126 228 1
126 238 1
126 248 1
126 263 1
126 268 1
126 278 1
127 88 1
127 103 1
127 108 1
127 118 1
127 169 1
127 184 1
127 189 1
127 199 1
127 209 1
127 224 1
127 229 1
127 239 1
127 249 1
127 264 1
127 269 1
127 279 1
128 89 1
128 104 1
128 109 1
128 119 1
128 170 1
128 185 1
128 190 1
128 200 1
128 210 1
128 225 1
128 230 1
128 240 1
128 250 1
128 265 1
128 270 1
128 280 1
129 90 1
129 105 1
129 110 1
129 120 1
129 166 1
129 181 1
129 186 1
129 196 1
129 206 1
129 221 1
129 226 1
129 236 1
129 246 1
129 261 1
129 266 1
129 276 1
130 86 1
130 101 1
130 106 1
130 116 1
130 167 1
130 182 1
130 187 1
130 197 1
130 207 1
130 222 1
130 227 1
130 237 1
130 247 1
130 262 1
130 267 1
130 277 1
131 92 1
131 102 1
131 112 1
131 117 1
131 173 1
131 183 1
131 193 1
131 198 1
131 213 1
131 223 1
131 233 1
131 238 1
131 253 1
131 263 1
131 273 1
131 278 1
132 93 1
132 103 1
132 113 1
132 118 1
132 174 1
132 184 1
132 194 1
132 199 1
132 214 1
132 224 1
132 234 1
132 239 1
132 254 1
132 264 1
132 274 1
132 279 1
133 94 1
133 104 1
133 114 1
133 119 1
133 175 1
133 185 1
133 195 1
133 200 1
133 215 1
133 225 1
133 235 1
133 240 1
133 255 1
133 265 1
133 275 1
133 280 1
134 95 1
134 105 1
134 115 1
134 120 1
134 171 1
134 181 1
134 191 1
134 196 1
134 211 1
134 221 1
134 231 1
134 236 1
134 251 1
134 261 1
134 271 1
134 276 1
135 91 1
135 101 1
135 111 1
135 116 1
135 172 1
135 182 1
135 192 1
135 197 1
135 212 1
135 222 1
135 232 1
135 237 1
135 252 1
135 262 1
135 272 1
135 277 1
136 97 1
136 107 1
136 112 1
136 117 1
136 178 1
136 188 1
136 193 1
136 198 1
136 218 1
136 228 1
136 233 1
136 238 1
136 258 1
136 268 1
136 273 1
136 278 1
137 98 1
137 108 1
137 113 1
137 118 1
137 179 1
137 189 1
137 194 1
137 199 1
137 219 1
137 229 1
137 234 1
137 239 1
137 259 1
137 269 1
137 274 1
137 279 1
138 99 1
138 109 1
138 114 1
138 119 1
138 180 1
138 190 1
138 195 1
138 200 1
138 220 1
138 230 1
138 235 1
138 240 1
138 260 1
138 270 1
138 275 1
138 280 1
139 100 1
139 110 1
139 115 1
139 120 1
139 176 1
139 186 1
139 191 1
139 196 1
139 216 1
139 226 1
139 231 1
139 236 1
139 256 1
139 266 1
139 271 1
139 276 1
140 96 1
140 106 1
140 111 1
140 116 1
140 177 1
140 187 1
140 192 1
140 197 1
140 217 1
140 227 1
140 232 1
140 237 1
140 257 1
140 267 1
140 272 1
140 277 1
141 122 1
141 142 1
141 147 1
141 152 1
141 203 1
141 223 1
141 228 1
141 233 1
141 243 1
141 263 1
141 268 1
141 273 1
141 284 1
141 304 1
141 309 1
141 314 1
142 123 1
142 143 1
142 148 1
142 153 1
142 204 1
142 224 1
142 229 1
142 234 1
142 244 1
142 264 1
142 269 1
142 274 1
142 285 1
142 305 1
142 310 1
142 315 1
143 124 1
143 144 1
143 149 1
143 154 1
143 205 1
143 225 1
143 230 1
143 235 1
143 245 1
143 265 1
143 270 1
143 275 1
143 281 1
143 301 1
143 306 1
143 311 1
144 125 1
144 145 1
144 150 1
144 155 1
144 201 1
144 221 1
144 226 1
144 231 1
144 241 1
144 261 1
144 266 1
144 271 1
144 282 1
144 302 1
144 307 1
144 312 1
145 121 1
145 141 1
145 146 1
145 151 1
145 202 1
145 222 1
145 227 1
145 232 1
145 242 1
145 262 1
145 267 1
145 272 1
145 283 1
145 303 1
145 308 1
145 313 1
146 127 1
146 142 1
146 147 1
146 157 1
146 208 1
146 223 1
146 228 1
146 238 1
146 248 1
146 263 1
146 268 1
146 278 1
146 289 1
146 304 1
146 309 1
146 319 1
147 128 1
147 143 1
147 148 1
147 158 1
147 209 1
147 224 1
147 229 1
147 239 1
147 249 1
147 264 1
147 269 1
147 279 1
147 290 1
147 305 1
147 310 1
147 320 1
148 129 1
148 144 1
148 149 1
148 159 1
148 210 1
148 225 1
148 230 1
148 240 1
148 250 1
148 265 1
148 270 1
148 280 1
148 286 1
148 301 1
148 306 1
148 316 1
149 130 1
149 145 1
149 150 1
149 160 1
149 206 1
149 221 1
149 226 1
149 236 1
149 246 1
149 261 1
149 266 1
149 276 1
149 287 1
149 302 1
149 307 1
149 317 1
150 126 1
150 141 1
150 146 1
150 156 1
150 207 1
150 222 1
150 227 1
150 237 1
150 247 1
150 262 1
150 267 1
150 277 1
150 288 1
150 303 1
150 308 1
150 318 1
151 132 1
151 142 1
151 152 1
151 157 1
151 213 1
151 223 1
151 233 1
151 238 1
151 253 1
151 263 1
151 273 1
151 278 1
151 294 1
151 304 1
151 314 1
151 319 1
152 133 1
152 143 1
152 153 1
152 158 1
152 214 1
152 224 1
152 234 1
152 239 1
152 254 1
152 264 1
152 274 1
152 279 1
152 295 1
152 305 1
152 315 1
152 320 1
153 134 1
153 144 1
153 154 1
153 159 1
153 215 1
153 225 1
153 235 1
153 240 1
153 255 1
153 265 1
153 275 1
153 280 1
153 291 1
153 301 1
153 311 1
153 316 1
154 135 1
154 145 1
154 155 1
154 160 1
154 211 1
154 221 1
154 231 1
154 236 1
154 251 1
154 261 1
154 271 1
154 276 1
154 292 1
154 302 1
154 312 1
154 317 1
155 131 1
155 141 1
155 151 1
155 156 1
155 212 1
155 222 1
155 232 1
155 237 1
155 252 1
155 262 1
155 272 1
155 277 1
155 293 1
155 303 1
155 313 1
155 318 1
156 137 1
156 147 1
156 152 1
156 157 1
156 218 1
156 228 1
156 233 1
156 238 1
156 258 1
156 268 1
156 273 1
156 278 1
156 299 1
156 309 1
156 314 1
156 319 1
157 138 1
157 148 1
157 153 1
157 158 1
157 219 1
157 229 1
157 234 1
157 239 1
157 259 1
157 269 1
157 274 1
157 279 1
157 300 1
157 310 1
157 315 1
157 320 1
158 139 1
158 149 1
158 154 1
158 159 1
158 220 1
158 230 1
158 235 1
158 240 1
158 260 1
158 270 1
158 275 1
158 280 1
158 296 1
158 306 1
158 311 1
158 316 1
159 140 1
159 150 1
159 155 1
159 160 1
159 216 1
159 226 1
159 231 1
159 236 1
159 256 1
159 266 1
159 271 1
159 276 1
159 297 1
159 307 1
159 312 1
159 317 1
160 136 1
160 146 1
160 151 1
160 156 1
160 217 1
160 227 1
160 232 1
160 237 1
160 257 1
160 267 1
160 272 1
160 277 1
160 298 1
160 308 1
160 313 1
160 318 1
