%%MatrixMarket matrix coordinate integer general
256 512 4096
1 1 1
1 33 1
1 41 1
1 49 1
1 257 1
1 289 1
1 297 1
1 305 1
1 321 1
1 353 1
1 361 1
1 369 1
1 385 1
1 417 1
1 425 1
1 433 1
2 2 1
2 34 1
2 42 1
2 50 1
2 258 1
2 290 1
2 298 1
2 306 1
2 322 1
2 354 1
2 362 1
2 370 1
2 386 1
2 418 1
2 426 1
2 434 1
3 3 1
3 35 1
3 43 1
3 51 1
3 259 1
3 291 1
3 299 1
3 307 1
3 323 1
3 355 1
3 363 1
3 371 1
3 387 1
3 419 1
3 427 1
3 435 1
4 4 1
4 36 1
4 44 1
4 52 1
4 260 1
4 292 1
4 300 1
4 308 1
4 324 1
4 356 1
4 364 1
4 372 1
4 388 1
4 420 1
4 428 1
4 436 1
5 5 1
5 37 1
5 45 1
5 53 1
5 261 1
5 293 1
5 301 1
5 309 1
5 325 1
5 357 1
5 365 1
5 373 1
5 389 1
5 421 1
5 429 1
5 437 1
6 6 1
6 38 1
6 46 1
6 54 1
6 262 1
6 294 1
6 302 1
6 310 1
6 326 1
6 358 1
6 366 1
6 374 1
6 390 1
6 422 1
6 430 1
6 438 1
7 7 1
7 39 1
7 47 1
7 55 1
7 263 1
7 295 1
7 303 1
7 311 1
7 327 1
7 359 1
7 367 1
7 375 1
7 391 1
7 423 1
7 431 1
7 439 1
8 8 1
8 40 1
8 48 1
8 56 1
8 264 1
8 296 1
8 304 1
8 312 1
8 328 1
8 360 1
8 368 1
8 376 1
8 392 1
8 424 1
8 432 1
8 440 1
9 9 1
9 33 1
9 41 1
9 57 1
9 265 1
9 289 1
9 297 1
9 313 1
9 329 1
9 353 1
9 361 1
9 377 1
9 393 1
9 417 1
9 425 1
9 441 1
10 10 1
10 34 1
10 42 1
10 58 1
10 266 1
10 290 1
10 298 1
10 314 1
10 330 1
10 354 1
10 362 1
10 378 1
10 394 1
10 418 1
10 426 1
10 442 1
11 11 1
11 35 1
11 43 1
11 59 1
11 267 1
11 291 1
11 299 1
11 315 1
11 331 1
11 355 1
11 363 1
11 379 1
11 395 1
11 419 1
11 427 1
11 443 1
12 12 1
12 36 1
12 44 1
12 60 1
12 268 1
12 292 1
12 300 1
12 316 1
12 332 1
12 356 1
12 364 1
12 380 1
12 396 1
12 420 1
12 428 1
12 444 1
13 13 1
13 37 1
13 45 1
13 61 1
13 269 1
13 293 1
13 301 1
13 317 1
13 333 1
13 357 1
13 365 1
13 381 1
13 397 1
13 421 1
13 429 1
13 445 1
14 14 1
14 38 1
14 46 1
14 62 1
14 270 1
14 294 1
14 302 1
14 318 1
14 334 1
14 358 1
14 366 1
14 382 1
14 398 1
14 422 1
14 430 1
14 446 1
15 15 1
15 39 1
15 47 1
15 63 1
15 271 1
15 295 1
15 303 1
15 319 1
15 335 1
15 359 1
15 367 1
15 383 1
15 399 1
15 423 1
15 431 1
15 447 1
16 16 1
16 40 1
16 48 1
16 64 1
16 272 1
16 296 1
16 304 1
16 320 1
16 336 1
16 360 1
16 368 1
16 384 1
16 400 1
16 424 1
16 432 1
16 448 1
17 17 1
17 33 1
17 49 1
17 57 1
17 273 1
17 289 1
17 305 1
17 313 1
17 337 1
17 353 1
17 369 1
17 377 1
17 401 1
17 417 1
17 433 1
17 441 1
18 18 1
18 34 1
18 50 1
18 58 1
18 274 1
18 290 1
18 306 1
18 314 1
18 338 1
18 354 1
18 370 1
18 378 1
18 402 1
18 418 1
18 434 1
18 442 1
19 19 1
19 35 1
19 51 1
19 59 1
19 275 1
19 291 1
19 307 1
19 315 1
19 339 1
19 355 1
19 371 1
19 379 1
19 403 1
19 419 1
19 435 1
19 443 1
20 20 1
20 36 1
20 52 1
20 60 1
20 276 1
20 292 1
20 308 1
20 316 1
20 340 1
20 356 1
20 372 1
20 380 1
20 404 1
20 420 1
20 436 1
20 444 1
21 21 1
21 37 1
21 53 1
21 61 1
21 277 1
21 293 1
21 309 1
21 317 1
21 341 1
21 357 1
21 373 1
21 381 1
21 405 1
21 421 1
21 437 1
21 445 1
22 22 1
22 38 1
22 54 1
22 62 1
22 278 1
22 294 1
22 310 1
22 318 1
22 342 1
22 358 1
22 374 1
22 382 1
22 406 1
22 422 1
22 438 1
22 446 1
23 23 1
23 39 1
23 55 1
23 63 1
23 279 1
23 295 1
23 311 1
23 319 1
23 343 1
23 359 1
23 375 1
23 383 1
23 407 1
23 423 1
23 439 1
23 447 1
24 24 1
24 40 1
24 56 1
24 64 1
24 280 1
24 296 1
24 312 1
24 320 1
24 344 1
24 360 1
24 376 1
24 384 1
24 408 1
24 424 1
24 440 1
24 448 1
25 25 1
25 41 1
25 49 1
25 57 1
25 281 1
25 297 1
25 305 1
25 313 1
25 345 1
25 361 1
25 369 1
25 377 1
25 409 1
25 425 1
25 433 1
25 441 1
26 26 1
26 42 1
26 50 1
26 58 1
26 282 1
26 298 1
26 306 1
26 314 1
26 346 1
26 362 1
26 370 1
26 378 1
26 410 1
26 426 1
26 434 1
26 442 1
27 27 1
27 43 1
27 51 1
27 59 1
27 283 1
27 299 1
27 307 1
27 315 1
27 347 1
27 363 1
27 371 1
27 379 1
27 411 1
27 427 1
27 435 1
27 443 1
28 28 1
28 44 1
28 52 1
28 60 1
28 284 1
28 300 1
28 308 1
28 316 1
28 348 1
28 364 1
28 372 1
28 380 1
28 412 1
28 428 1
28 436 1
28 444 1
29 29 1
29 45 1
29 53 1
29 61 1
29 285 1
29 301 1
29 309 1
29 317 1
29 349 1
29 365 1
29 373 1
29 381 1
29 413 1
29 429 1
29 437 1
29 445 1
30 30 1
30 46 1
30 54 1
30 62 1
30 286 1
30 302 1
30 310 1
30 318 1
30 350 1
30 366 1
30 374 1
30 382 1
30 414 1
30 430 1
30 438 1
30 446 1
31 31 1
31 47 1
31 55 1
31 63 1
31 287 1
31 303 1
31 311 1
31 319 1
31 351 1
31 367 1
31 375 1
31 383 1
31 415 1
31 431 1
31 439 1
31 447 1
32 32 1
32 48 1
32 56 1
32 64 1
32 288 1
32 304 1
32 312 1
32 320 1
32 352 1
32 368 1
32 376 1
32 384 1
32 416 1
32 432 1
32 440 1
32 448 1
33 65 1
33 97 1
33 105 1
33 113 1
33 257 1
33 289 1
33 297 1
33 305 1
33 321 1
33 353 1
33 361 1
33 369 1
33 449 1
33 481 1
33 489 1
33 497 1
34 66 1
34 98 1
34 106 1
34 114 1
34 258 1
34 290 1
34 298 1
34 306 1
34 322 1
34 354 1
34 362 1
34 370 1
34 450 1
34 482 1
34 490 1
34 498 1
35 67 1
35 99 1
35 107 1
35 115 1
35 259 1
35 291 1
35 299 1
35 307 1
35 323 1
35 355 1
35 363 1
35 371 1
35 451 1
35 483 1
35 491 1
35 499 1
36 68 1
36 100 1
36 108 1
36 116 1
36 260 1
36 292 1
36 300 1
36 308 1
36 324 1
36 356 1
36 364 1
36 372 1
36 452 1
36 484 1
36 492 1
36 500 1
37 69 1
37 101 1
37 109 1
37 117 1
37 261 1
37 293 1
37 301 1
37 309 1
37 325 1
37 357 1
37 365 1
37 373 1
37 453 1
37 485 1
37 493 1
37 501 1
38 70 1
38 102 1
38 110 1
38 118 1
38 262 1
38 294 1
38 302 1
38 310 1
38 326 1
38 358 1
38 366 1
38 374 1
38 454 1
38 486 1
38 494 1
38 502 1
39 71 1
39 103 1
39 111 1
39 119 1
39 263 1
39 295 1
39 303 1
39 311 1
39 327 1
39 359 1
39 367 1
39 375 1
39 455 1
39 487 1
39 495 1
39 503 1
40 72 1
40 104 1
40 112 1
40 120 1
40 264 1
40 296 1
40 304 1
40 312 1
40 328 1
40 360 1
40 368 1
40 376 1
40 456 1
40 488 1
40 496 1
40 504 1
41 73 1
41 97 1
41 105 1
41 121 1
41 265 1
41 289 1
41 297 1
41 313 1
41 329 1
41 353 1
41 361 1
41 377 1
41 457 1
41 481 1
41 489 1
41 505 1
42 74 1
42 98 1
42 106 1
42 122 1
42 266 1
42 290 1
42 298 1
42 314 1
42 330 1
42 354 1
42 362 1
42 378 1
42 458 1
42 482 1
42 490 1
42 506 1
43 75 1
43 99 1
43 107 1
43 123 1
43 267 1
43 291 1
43 299 1
43 315 1
43 331 1
43 355 1
43 363 1
43 379 1
43 459 1
43 483 1
43 491 1
43 507 1
44 76 1
44 100 1
44 108 1
44 124 1
44 268 1
44 292 1
44 300 1
44 316 1
44 332 1
44 356 1
44 364 1
44 380 1
44 460 1
44 484 1
44 492 1
44 508 1
45 77 1
45 101 1
45 109 1
45 125 1
45 269 1
45 293 1
45 301 1
45 317 1
45 333 1
45 357 1
45 365 1
45 381 1
45 461 1
45 485 1
45 493 1
45 509 1
46 78 1
46 102 1
46 110 1
46 126 1
46 270 1
46 294 1
46 302 1
46 318 1
46 334 1
46 358 1
46 366 1
46 382 1
46 462 1
46 486 1
46 494 1
46 510 1
47 79 1
47 103 1
47 111 1
47 127 1
47 271 1
47 295 1
47 303 1
47 319 1
47 335 1
47 359 1
47 367 1
47 383 1
47 463 1
47 487 1
47 495 1
47 511 1
48 80 1
48 104 1
48 112 1
48 128 1
48 272 1
48 296 1
48 304 1
48 320 1
48 336 1
48 360 1
48 368 1
48 384 1
48 464 1
48 488 1
48 496 1
48 512 1
49 81 1
49 97 1
49 113 1
49 121 1
49 273 1
49 289 1
49 305 1
49 313 1
49 337 1
49 353 1
49 369 1
49 377 1
49 465 1
49 481 1
49 497 1
49 505 1
50 82 1
50 98 1
50 114 1
50 122 1
50 274 1
50 290 1
50 306 1
50 314 1
50 338 1
50 354 1
50 370 1
50 378 1
50 466 1
50 482 1
50 498 1
50 506 1
51 83 1
51 99 1
51 115 1
51 123 1
51 275 1
51 291 1
51 307 1
51 315 1
51 339 1
51 355 1
51 371 1
51 379 1
51 467 1
51 483 1
51 499 1
51 507 1
52 84 1
52 100 1
52 116 1
52 124 1
52 276 1
52 292 1
52 308 1
52 316 1
52 340 1
52 356 1
52 372 1
52 380 1
52 468 1
52 484 1
52 500 1
52 508 1
53 85 1
53 101 1
53 117 1
53 125 1
53 277 1
53 293 1
53 309 1
53 317 1
53 341 1
53 357 1
53 373 1
53 381 1
53 469 1
53 485 1
53 501 1
53 509 1
54 86 1
54 102 1
54 118 1
54 126 1
54 278 1
54 294 1
54 310 1
54 318 1
54 342 1
54 358 1
54 374 1
54 382 1
54 470 1
54 486 1
54 502 1
54 510 1
55 87 1
55 103 1
55 119 1
55 127 1
55 279 1
55 295 1
55 311 1
55 319 1
55 343 1
55 359 1
55 375 1
55 383 1
55 471 1
55 487 1
55 503 1
55 511 1
56 88 1
56 104 1
56 120 1
56 128 1
56 280 1
56 296 1
56 312 1
56 320 1
56 344 1
56 360 1
56 376 1
56 384 1
56 472 1
56 488 1
56 504 1
56 512 1
57 89 1
57 105 1
57 113 1
57 121 1
57 281 1
57 297 1
57 305 1
57 313 1
57 345 1
57 361 1
57 369 1
57 377 1
57 473 1
57 489 1
57 497 1
57 505 1
58 90 1
58 106 1
58 114 1
58 122 1
58 282 1
58 298 1
58 306 1
58 314 1
58 346 1
58 362 1
58 370 1
58 378 1
58 474 1
58 490 1
58 498 1
58 506 1
59 91 1
59 107 1
59 115 1
59 123 1
59 283 1
59 299 1
59 307 1
59 315 1
59 347 1
59 363 1
59 371 1
59 379 1
59 475 1
59 491 1
59 499 1
59 507 1
60 92 1
60 108 1
60 116 1
60 124 1
60 284 1
60 300 1
60 308 1
60 316 1
60 348 1
60 364 1
60 372 1
60 380 1
60 476 1
60 492 1
60 500 1
60 508 1
61 93 1
61 109 1
61 117 1
61 125 1
61 285 1
61 301 1
61 309 1
61 317 1
61 349 1
61 365 1
61 373 1
61 381 1
61 477 1
61 493 1
61 501 1
61 509 1
62 94 1
62 110 1
62 118 1
62 126 1
62 286 1
62 302 1
62 310 1
62 318 1
62 350 1
62 366 1
62 374 1
62 382 1
62 478 1
62 494 1
62 502 1
62 510 1
63 95 1
63 111 1
63 119 1
63 127 1
63 287 1
63 303 1
63 311 1
63 319 1
63 351 1
63 367 1
63 375 1
63 383 1
63 479 1
63 495 1
63 503 1
63 511 1
64 96 1
64 112 1
64 120 1
64 128 1
64 288 1
64 304 1
64 312 1
64 320 1
64 352 1
64 368 1
64 376 1
64 384 1
64 480 1
64 496 1
64 504 1
64 512 1
65 129 1
65 161 1
65 169 1
65 177 1
65 257 1
65 289 1
65 297 1
65 305 1
65 385 1
65 417 1
65 425 1
65 433 1
65 449 1
65 481 1
65 489 1
65 497 1
66 130 1
66 162 1
66 170 1
66 178 1
66 258 1
66 290 1
66 298 1
66 306 1
66 386 1
66 418 1
66 426 1
66 434 1
66 450 1
66 482 1
66 490 1
66 498 1
67 131 1
67 163 1
67 171 1
67 179 1
67 259 1
67 291 1
67 299 1
67 307 1
67 387 1
67 419 1
67 427 1
67 435 1
67 451 1
67 483 1
67 491 1
67 499 1
68 132 1
68 164 1
68 172 1
68 180 1
68 260 1
68 292 1
68 300 1
68 308 1
68 388 1
68 420 1
68 428 1
68 436 1
68 452 1
68 484 1
68 492 1
68 500 1
69 133 1
69 165 1
69 173 1
69 181 1
69 261 1
69 293 1
69 301 1
69 309 1
69 389 1
69 421 1
69 429 1
69 437 1
69 453 1
69 485 1
69 493 1
69 501 1
70 134 1
70 166 1
70 174 1
70 182 1
70 262 1
70 294 1
70 302 1
70 310 1
70 390 1
70 422 1
70 430 1
70 438 1
70 454 1
70 486 1
70 494 1
70 502 1
71 135 1
71 167 1
71 175 1
71 183 1
71 263 1
71 295 1
71 303 1
71 311 1
71 391 1
71 423 1
71 431 1
71 439 1
71 455 1
71 487 1
71 495 1
71 503 1
72 136 1
72 168 1
72 176 1
72 184 1
72 264 1
72 296 1
72 304 1
72 312 1
72 392 1
72 424 1
72 432 1
72 440 1
72 456 1
72 488 1
72 496 1
72 504 1
73 137 1
73 161 1
73 169 1
73 185 1
73 265 1
73 289 1
73 297 1
73 313 1
73 393 1
73 417 1
73 425 1
73 441 1
73 457 1
73 481 1
73 489 1
73 505 1
74 138 1
74 162 1
74 170 1
74 186 1
74 266 1
74 290 1
74 298 1
74 314 1
74 394 1
74 418 1
74 426 1
74 442 1
74 458 1
74 482 1
74 490 1
74 506 1
75 139 1
75 163 1
75 171 1
75 187 1
75 267 1
75 291 1
75 299 1
75 315 1
75 395 1
75 419 1
75 427 1
75 443 1
75 459 1
75 483 1
75 491 1
75 507 1
76 140 1
76 164 1
76 172 1
76 188 1
76 268 1
76 292 1
76 300 1
76 316 1
76 396 1
76 420 1
76 428 1
76 444 1
76 460 1
76 484 1
76 492 1
76 508 1
77 141 1
77 165 1
77 173 1
77 189 1
77 269 1
77 293 1
77 301 1
77 317 1
77 397 1
77 421 1
77 429 1
77 445 1
77 461 1
77 485 1
77 493 1
77 509 1
78 142 1
78 166 1
78 174 1
78 190 1
78 270 1
78 294 1
78 302 1
78 318 1
78 398 1
78 422 1
78 430 1
78 446 1
78 462 1
78 486 1
78 494 1
78 510 1
79 143 1
79 167 1
79 175 1
79 191 1
79 271 1
79 295 1
79 303 1
79 319 1
79 399 1
79 423 1
79 431 1
79 447 1
79 463 1
79 487 1
79 495 1
79 511 1
80 144 1
80 168 1
80 176 1
80 192 1
80 272 1
80 296 1
80 304 1
80 320 1
80 400 1
80 424 1
80 432 1
80 448 1
80 464 1
80 488 1
80 496 1
80 512 1
81 145 1
81 161 1
81 177 1
81 185 1
81 273 1
81 289 1
81 305 1
81 313 1
81 401 1
81 417 1
81 433 1
81 441 1
81 465 1
81 481 1
81 497 1
81 505 1
82 146 1
82 162 1
82 178 1
82 186 1
82 274 1
82 290 1
82 306 1
82 314 1
82 402 1
82 418 1
82 434 1
82 442 1
82 466 1
82 482 1
82 498 1
82 506 1
83 147 1
83 163 1
83 179 1
83 187 1
83 275 1
83 291 1
83 307 1
83 315 1
83 403 1
83 419 1
83 435 1
83 443 1
83 467 1
83 483 1
83 499 1
83 507 1
84 148 1
84 164 1
84 180 1
84 188 1
84 276 1
84 292 1
84 308 1
84 316 1
84 404 1
84 420 1
84 436 1
84 444 1
84 468 1
84 484 1
84 500 1
84 508 1
85 149 1
85 165 1
85 181 1
85 189 1
85 277 1
85 293 1
85 309 1
85 317 1
85 405 1
85 421 1
85 437 1
85 445 1
85 469 1
85 485 1
85 501 1
85 509 1
86 150 1
86 166 1
86 182 1
86 190 1
86 278 1
86 294 1
86 310 1
86 318 1
86 406 1
86 422 1
86 438 1
86 446 1
86 470 1
86 486 1
86 502 1
86 510 1
87 151 1
87 167 1
87 183 1
87 191 1
87 279 1
87 295 1
87 311 1
87 319 1
87 407 1
87 423 1
87 439 1
87 447 1
87 471 1
87 487 1
87 503 1
87 511 1
88 152 1
88 168 1
88 184 1
88 192 1
88 280 1
88 296 1
88 312 1
88 320 1
88 408 1
88 424 1
88 440 1
88 448 1
88 472 1
88 488 1
88 504 1
88 512 1
89 153 1
89 169 1
89 177 1
89 185 1
89 281 1
89 297 1
89 305 1
89 313 1
89 409 1
89 425 1
89 433 1
89 441 1
89 473 1
89 489 1
89 497 1
89 505 1
90 154 1
90 170 1
90 178 1
90 186 1
90 282 1
90 298 1
90 306 1
90 314 1
90 410 1
90 426 1
90 434 1
90 442 1
90 474 1
90 490 1
90 498 1
90 506 1
91 155 1
91 171 1
91 179 1
91 187 1
91 283 1
91 299 1
91 307 1
91 315 1
91 411 1
91 427 1
91 435 1
91 443 1
91 475 1
91 491 1
91 499 1
91 507 1
92 156 1
92 172 1
92 180 1
92 188 1
92 284 1
92 300 1
92 308 1
92 316 1
92 412 1
92 428 1
92 436 1
92 444 1
92 476 1
92 492 1
92 500 1
92 508 1
93 157 1
93 173 1
93 181 1
93 189 1
93 285 1
93 301 1
93 309 1
93 317 1
93 413 1
93 429 1
93 437 1
93 445 1
93 477 1
93 493 1
93 501 1
93 509 1
94 158 1
94 174 1
94 182 1
94 190 1
94 286 1
94 302 1
94 310 1
94 318 1
94 414 1
94 430 1
94 438 1
94 446 1
94 478 1
94 494 1
94 502 1
94 510 1
95 159 1
95 175 1
95 183 1
95 191 1
95 287 1
95 303 1
95 311 1
95 319 1
95 415 1
95 431 1
95 439 1
95 447 1
95 479 1
95 495 1
95 503 1
95 511 1
96 160 1
96 176 1
96 184 1
96 192 1
96 288 1
96 304 1
96 312 1
96 320 1
96 416 1
96 432 1
96 440 1
96 448 1
96 480 1
96 496 1
96 504 1
96 512 1
97 193 1
97 225 1
97 233 1
97 241 1
97 321 1
97 353 1
97 361 1
97 369 1
97 385 1
97 417 1
97 425 1
97 433 1
97 449 1
97 481 1
97 489 1
97 497 1
98 194 1
98 226 1
98 234 1
98 242 1
98 322 1
98 354 1
98 362 1
98 370 1
98 386 1
98 418 1
98 426 1
98 434 1
98 450 1
98 482 1
98 490 1
98 498 1
99 195 1
99 227 1
99 235 1
99 243 1
99 323 1
99 355 1
99 363 1
99 371 1
99 387 1
99 419 1
99 427 1
99 435 1
99 451 1
99 483 1
99 491 1
99 499 1
100 196 1
100 228 1
100 236 1
100 244 1
100 324 1
100 356 1
100 364 1
100 372 1
100 388 1
100 420 1
100 428 1
100 436 1
100 452 1
100 484 1
100 492 1
100 500 1
101 197 1
101 229 1
101 237 1
101 245 1
101 325 1
101 357 1
101 365 1
101 373 1
101 389 1
101 421 1
101 429 1
101 437 1
101 453 1
101 485 1
101 493 1
101 501 1
102 198 1
102 230 1
102 238 1
102 246 1
102 326 1
102 358 1
102 366 1
102 374 1
102 390 1
102 422 1
102 430 1
102 438 1
102 454 1
102 486 1
102 494 1
102 502 1
103 199 1
103 231 1
103 239 1
103 247 1
103 327 1
103 359 1
103 367 1
103 375 1
103 391 1
103 423 1
103 431 1
103 439 1
103 455 1
103 487 1
103 495 1
103 503 1
104 200 1
104 232 1
104 240 1
104 248 1
104 328 1
104 360 1
104 368 1
104 376 1
104 392 1
104 424 1
104 432 1
104 440 1
104 456 1
104 488 1
104 496 1
104 504 1
105 201 1
105 225 1
105 233 1
105 249 1
105 329 1
105 353 1
105 361 1
105 377 1
105 393 1
105 417 1
105 425 1
105 441 1
105 457 1
105 481 1
105 489 1
105 505 1
106 202 1
106 226 1
106 234 1
106 250 1
106 330 1
106 354 1
106 362 1
106 378 1
106 394 1
106 418 1
106 426 1
106 442 1
106 458 1
106 482 1
106 490 1
106 506 1
107 203 1
107 227 1
107 235 1
107 251 1
107 331 1
107 355 1
107 363 1
107 379 1
107 395 1
107 419 1
107 427 1
107 443 1
107 459 1
107 483 1
107 491 1
107 507 1
108 204 1
108 228 1
108 236 1
108 252 1
108 332 1
108 356 1
108 364 1
108 380 1
108 396 1
108 420 1
108 428 1
108 444 1
108 460 1
108 484 1
108 492 1
108 508 1
109 205 1
109 229 1
109 237 1
109 253 1
109 333 1
109 357 1
109 365 1
109 381 1
109 397 1
109 421 1
109 429 1
109 445 1
109 461 1
109 485 1
109 493 1
109 509 1
110 206 1
110 230 1
110 238 1
110 254 1
110 334 1
110 358 1
110 366 1
110 382 1
110 398 1
110 422 1
110 430 1
110 446 1
110 462 1
110 486 1
110 494 1
110 510 1
111 207 1
111 231 1
111 239 1
111 255 1
111 335 1
111 359 1
111 367 1
111 383 1
111 399 1
111 423 1
111 431 1
111 447 1
111 463 1
111 487 1
111 495 1
111 511 1
112 208 1
112 232 1
112 240 1
112 256 1
112 336 1
112 360 1
112 368 1
112 384 1
112 400 1
112 424 1
112 432 1
112 448 1
112 464 1
112 488 1
112 496 1
112 512 1
113 209 1
113 225 1
113 241 1
113 249 1
113 337 1
113 353 1
113 369 1
113 377 1
113 401 1
113 417 1
113 433 1
113 441 1
113 465 1
113 481 1
113 497 1
113 505 1
114 210 1
114 226 1
114 242 1
114 250 1
114 338 1
114 354 1
114 370 1
114 378 1
114 402 1
114 418 1
114 434 1
114 442 1
114 466 1
114 482 1
114 498 1
114 506 1
115 211 1
115 227 1
115 243 1
115 251 1
115 339 1
115 355 1
115 371 1
115 379 1
115 403 1
115 419 1
115 435 1
115 443 1
115 467 1
115 483 1
115 499 1
115 507 1
116 212 1
116 228 1
116 244 1
116 252 1
116 340 1
116 356 1
116 372 1
116 380 1
116 404 1
116 420 1
116 436 1
116 444 1
116 468 1
116 484 1
116 500 1
116 508 1
117 213 1
117 229 1
117 245 1
117 253 1
117 341 1
117 357 1
117 373 1
117 381 1
117 405 1
117 421 1
117 437 1
117 445 1
117 469 1
117 485 1
117 501 1
117 509 1
118 214 1
118 230 1
118 246 1
118 254 1
118 342 1
118 358 1
118 374 1
118 382 1
118 406 1
118 422 1
118 438 1
118 446 1
118 470 1
118 486 1
118 502 1
118 510 1
119 215 1
119 231 1
119 247 1
119 255 1
119 343 1
119 359 1
119 375 1
119 383 1
119 407 1
119 423 1
119 439 1
119 447 1
119 471 1
119 487 1
119 503 1
119 511 1
120 216 1
120 232 1
120 248 1
120 256 1
120 344 1
120 360 1
120 376 1
120 384 1
120 408 1
120 424 1
120 440 1
120 448 1
120 472 1
120 488 1
120 504 1
120 512 1
121 217 1
121 233 1
121 241 1
121 249 1
121 345 1
121 361 1
121 369 1
121 377 1
121 409 1
121 425 1
121 433 1
121 441 1
121 473 1
121 489 1
121 497 1
121 505 1
122 218 1
122 234 1
122 242 1
122 250 1
122 346 1
122 362 1
122 370 1
122 378 1
122 410 1
122 426 1
122 434 1
122 442 1
122 474 1
122 490 1
122 498 1
122 506 1
123 219 1
123 235 1
123 243 1
123 251 1
123 347 1
123 363 1
123 371 1
123 379 1
123 411 1
123 427 1
123 435 1
123 443 1
123 475 1
123 491 1
123 499 1
123 507 1
124 220 1
124 236 1
124 244 1
124 252 1
124 348 1
124 364 1
124 372 1
124 380 1
124 412 1
124 428 1
124 436 1
124 444 1
124 476 1
124 492 1
124 500 1
124 508 1
125 221 1
125 237 1
125 245 1
125 253 1
125 349 1
125 365 1
125 373 1
125 381 1
125 413 1
125 429 1
125 437 1
125 445 1
125 477 1
125 493 1
125 501 1
125 509 1
126 222 1
126 238 1
126 246 1
126 254 1
126 350 1
126 366 1
126 374 1
126 382 1
126 414 1
126 430 1
126 438 1
126 446 1
126 478 1
126 494 1
126 502 1
126 510 1
127 223 1
127 239 1
127 247 1
127 255 1
127 351 1
127 367 1
127 375 1
127 383 1
127 415 1
127 431 1
127 439 1
127 447 1
127 479 1
127 495 1
127 503 1
127 511 1
128 224 1
128 240 1
128 248 1
128 256 1
128 352 1
128 368 1
128 376 1
128 384 1
128 416 1
128 432 1
128 440 1
128 448 1
128 480 1
128 496 1
128 504 1
128 512 1
129 1 1
129 27 1
129 48 1
129 55 1
129 195 1
129 217 1
129 234 1
129 244 1
129 325 1
129 346 1
129 361 1
129 374 1
129 390 1
129 416 1
129 427 1
129 437 1
130 2 1
130 29 1
130 47 1
130 56 1
130 200 1
130 222 1
130 236 1
130 242 1
130 327 1
130 348 1
130 366 1
130 369 1
130 388 1
130 415 1
130 429 1
130 435 1
131 3 1
131 25 1
131 42 1
131 52 1
131 193 1
131 219 1
131 240 1
131 247 1
131 322 1
131 349 1
131 367 1
131 376 1
131 392 1
131 414 1
131 428 1
131 434 1
132 4 1
132 31 1
132 45 1
132 51 1
132 199 1
132 220 1
132 238 1
132 241 1
132 328 1
132 350 1
132 364 1
132 370 1
132 386 1
132 413 1
132 431 1
132 440 1
133 5 1
133 26 1
133 41 1
133 54 1
133 198 1
133 224 1
133 235 1
133 245 1
133 324 1
133 351 1
133 365 1
133 371 1
133 391 1
133 412 1
133 430 1
133 433 1
134 6 1
134 32 1
134 43 1
134 53 1
134 197 1
134 218 1
134 233 1
134 246 1
134 323 1
134 345 1
134 362 1
134 372 1
134 385 1
134 411 1
134 432 1
134 439 1
135 7 1
135 28 1
135 46 1
135 49 1
135 196 1
135 223 1
135 237 1
135 243 1
135 326 1
135 352 1
135 363 1
135 373 1
135 389 1
135 410 1
135 425 1
135 438 1
136 8 1
136 30 1
136 44 1
136 50 1
136 194 1
136 221 1
136 239 1
136 248 1
136 321 1
136 347 1
136 368 1
136 375 1
136 387 1
136 409 1
136 426 1
136 436 1
137 9 1
137 27 1
137 48 1
137 61 1
137 203 1
137 217 1
137 234 1
137 254 1
137 333 1
137 346 1
137 361 1
137 380 1
137 398 1
137 416 1
137 427 1
137 447 1
138 10 1
138 29 1
138 47 1
138 59 1
138 208 1
138 222 1
138 236 1
138 249 1
138 335 1
138 348 1
138 366 1
138 378 1
138 396 1
138 415 1
138 429 1
138 448 1
139 11 1
139 25 1
139 42 1
139 62 1
139 201 1
139 219 1
139 240 1
139 253 1
139 330 1
139 349 1
139 367 1
139 379 1
139 400 1
139 414 1
139 428 1
139 441 1
140 12 1
140 31 1
140 45 1
140 64 1
140 207 1
140 220 1
140 238 1
140 250 1
140 336 1
140 350 1
140 364 1
140 377 1
140 394 1
140 413 1
140 431 1
140 443 1
141 13 1
141 26 1
141 41 1
141 60 1
141 206 1
141 224 1
141 235 1
141 255 1
141 332 1
141 351 1
141 365 1
141 384 1
141 399 1
141 412 1
141 430 1
141 442 1
142 14 1
142 32 1
142 43 1
142 63 1
142 205 1
142 218 1
142 233 1
142 252 1
142 331 1
142 345 1
142 362 1
142 382 1
142 393 1
142 411 1
142 432 1
142 445 1
143 15 1
143 28 1
143 46 1
143 58 1
143 204 1
143 223 1
143 237 1
143 256 1
143 334 1
143 352 1
143 363 1
143 383 1
143 397 1
143 410 1
143 425 1
143 444 1
144 16 1
144 30 1
144 44 1
144 57 1
144 202 1
144 221 1
144 239 1
144 251 1
144 329 1
144 347 1
144 368 1
144 381 1
144 395 1
144 409 1
144 426 1
144 446 1
145 18 1
145 27 1
145 55 1
145 61 1
145 216 1
145 217 1
145 244 1
145 254 1
145 343 1
145 346 1
145 374 1
145 380 1
145 404 1
145 416 1
145 437 1
145 447 1
146 17 1
146 29 1
146 56 1
146 59 1
146 211 1
146 222 1
146 242 1
146 249 1
146 341 1
146 348 1
146 369 1
146 378 1
146 406 1
146 415 1
146 435 1
146 448 1
147 24 1
147 25 1
147 52 1
147 62 1
147 210 1
147 219 1
147 247 1
147 253 1
147 337 1
147 349 1
147 376 1
147 379 1
147 403 1
147 414 1
147 434 1
147 441 1
148 22 1
148 31 1
148 51 1
148 64 1
148 213 1
148 220 1
148 241 1
148 250 1
148 339 1
148 350 1
148 370 1
148 377 1
148 401 1
148 413 1
148 440 1
148 443 1
149 23 1
149 26 1
149 54 1
149 60 1
149 212 1
149 224 1
149 245 1
149 255 1
149 342 1
149 351 1
149 371 1
149 384 1
149 405 1
149 412 1
149 433 1
149 442 1
150 20 1
150 32 1
150 53 1
150 63 1
150 215 1
150 218 1
150 246 1
150 252 1
150 344 1
150 345 1
150 372 1
150 382 1
150 402 1
150 411 1
150 439 1
150 445 1
151 21 1
151 28 1
151 49 1
151 58 1
151 214 1
151 223 1
151 243 1
151 256 1
151 340 1
151 352 1
151 373 1
151 383 1
151 407 1
151 410 1
151 438 1
151 444 1
152 19 1
152 30 1
152 50 1
152 57 1
152 209 1
152 221 1
152 248 1
152 251 1
152 338 1
152 347 1
152 375 1
152 381 1
152 408 1
152 409 1
152 436 1
152 446 1
153 35 1
153 48 1
153 55 1
153 61 1
153 225 1
153 234 1
153 244 1
153 254 1
153 354 1
153 361 1
153 374 1
153 380 1
153 424 1
153 427 1
153 437 1
153 447 1
154 37 1
154 47 1
154 56 1
154 59 1
154 230 1
154 236 1
154 242 1
154 249 1
154 356 1
154 366 1
154 369 1
154 378 1
154 423 1
154 429 1
154 435 1
154 448 1
155 33 1
155 42 1
155 52 1
155 62 1
155 227 1
155 240 1
155 247 1
155 253 1
155 357 1
155 367 1
155 376 1
155 379 1
155 422 1
155 428 1
155 434 1
155 441 1
156 39 1
156 45 1
156 51 1
156 64 1
156 228 1
156 238 1
156 241 1
156 250 1
156 358 1
156 364 1
156 370 1
156 377 1
156 421 1
156 431 1
156 440 1
156 443 1
157 34 1
157 41 1
157 54 1
157 60 1
157 232 1
157 235 1
157 245 1
157 255 1
157 359 1
157 365 1
157 371 1
157 384 1
157 420 1
157 430 1
157 433 1
157 442 1
158 40 1
158 43 1
158 53 1
158 63 1
158 226 1
158 233 1
158 246 1
158 252 1
158 353 1
158 362 1
158 372 1
158 382 1
158 419 1
158 432 1
158 439 1
158 445 1
159 36 1
159 46 1
159 49 1
159 58 1
159 231 1
159 237 1
159 243 1
159 256 1
159 360 1
159 363 1
159 373 1
159 383 1
159 418 1
159 425 1
159 438 1
159 444 1
160 38 1
160 44 1
160 50 1
160 57 1
160 229 1
160 239 1
160 248 1
160 251 1
160 355 1
160 368 1
160 375 1
160 381 1
160 417 1
160 426 1
160 436 1
160 446 1
161 66 1
161 93 1
161 111 1
161 120 1
161 195 1
161 217 1
161 234 1
161 244 1
161 325 1
161 346 1
161 361 1
161 374 1
161 455 1
161 476 1
161 494 1
161 497 1
162 65 1
162 91 1
162 112 1
162 119 1
162 200 1
162 222 1
162 236 1
162 242 1
162 327 1
162 348 1
162 366 1
162 369 1
162 453 1
162 474 1
162 489 1
162 502 1
163 69 1
163 90 1
163 105 1
163 118 1
163 193 1
163 219 1
163 240 1
163 247 1
163 322 1
163 349 1
163 367 1
163 376 1
163 452 1
163 479 1
163 493 1
163 499 1
164 70 1
164 96 1
164 107 1
164 117 1
164 199 1
164 220 1
164 238 1
164 241 1
164 328 1
164 350 1
164 364 1
164 370 1
164 451 1
164 473 1
164 490 1
164 500 1
165 67 1
165 89 1
165 106 1
165 116 1
165 198 1
165 224 1
165 235 1
165 245 1
165 324 1
165 351 1
165 365 1
165 371 1
165 450 1
165 477 1
165 495 1
165 504 1
166 68 1
166 95 1
166 109 1
166 115 1
166 197 1
166 218 1
166 233 1
166 246 1
166 323 1
166 345 1
166 362 1
166 372 1
166 456 1
166 478 1
166 492 1
166 498 1
167 72 1
167 94 1
167 108 1
167 114 1
167 196 1
167 223 1
167 237 1
167 243 1
167 326 1
167 352 1
167 363 1
167 373 1
167 449 1
167 475 1
167 496 1
167 503 1
168 71 1
168 92 1
168 110 1
168 113 1
168 194 1
168 221 1
168 239 1
168 248 1
168 321 1
168 347 1
168 368 1
168 375 1
168 454 1
168 480 1
168 491 1
168 501 1
169 74 1
169 93 1
169 111 1
169 123 1
169 203 1
169 217 1
169 234 1
169 254 1
169 333 1
169 346 1
169 361 1
169 380 1
169 463 1
169 476 1
169 494 1
169 506 1
170 73 1
170 91 1
170 112 1
170 125 1
170 208 1
170 222 1
170 236 1
170 249 1
170 335 1
170 348 1
170 366 1
170 378 1
170 461 1
170 474 1
170 489 1
170 508 1
171 77 1
171 90 1
171 105 1
171 124 1
171 201 1
171 219 1
171 240 1
171 253 1
171 330 1
171 349 1
171 367 1
171 379 1
171 460 1
171 479 1
171 493 1
171 512 1
172 78 1
172 96 1
172 107 1
172 127 1
172 207 1
172 220 1
172 238 1
172 250 1
172 336 1
172 350 1
172 364 1
172 377 1
172 459 1
172 473 1
172 490 1
172 510 1
173 75 1
173 89 1
173 106 1
173 126 1
173 206 1
173 224 1
173 235 1
173 255 1
173 332 1
173 351 1
173 365 1
173 384 1
173 458 1
173 477 1
173 495 1
173 507 1
174 76 1
174 95 1
174 109 1
174 128 1
174 205 1
174 218 1
174 233 1
174 252 1
174 331 1
174 345 1
174 362 1
174 382 1
174 464 1
174 478 1
174 492 1
174 505 1
175 80 1
175 94 1
175 108 1
175 121 1
175 204 1
175 223 1
175 237 1
175 256 1
175 334 1
175 352 1
175 363 1
175 383 1
175 457 1
175 475 1
175 496 1
175 509 1
176 79 1
176 92 1
176 110 1
176 122 1
176 202 1
176 221 1
176 239 1
176 251 1
176 329 1
176 347 1
176 368 1
176 381 1
176 462 1
176 480 1
176 491 1
176 511 1
177 81 1
177 93 1
177 120 1
177 123 1
177 216 1
177 217 1
177 244 1
177 254 1
177 343 1
177 346 1
177 374 1
177 380 1
177 469 1
177 476 1
177 497 1
177 506 1
178 82 1
178 91 1
178 119 1
178 125 1
178 211 1
178 222 1
178 242 1
178 249 1
178 341 1
178 348 1
178 369 1
178 378 1
178 471 1
178 474 1
178 502 1
178 508 1
179 87 1
179 90 1
179 118 1
179 124 1
179 210 1
179 219 1
179 247 1
179 253 1
179 337 1
179 349 1
179 376 1
179 379 1
179 470 1
179 479 1
179 499 1
179 512 1
180 84 1
180 96 1
180 117 1
180 127 1
180 213 1
180 220 1
180 241 1
180 250 1
180 339 1
180 350 1
180 370 1
180 377 1
180 472 1
180 473 1
180 500 1
180 510 1
181 88 1
181 89 1
181 116 1
181 126 1
181 212 1
181 224 1
181 245 1
181 255 1
181 342 1
181 351 1
181 371 1
181 384 1
181 465 1
181 477 1
181 504 1
181 507 1
182 86 1
182 95 1
182 115 1
182 128 1
182 215 1
182 218 1
182 246 1
182 252 1
182 344 1
182 345 1
182 372 1
182 382 1
182 467 1
182 478 1
182 498 1
182 505 1
183 83 1
183 94 1
183 114 1
183 121 1
183 214 1
183 223 1
183 243 1
183 256 1
183 340 1
183 352 1
183 373 1
183 383 1
183 466 1
183 475 1
183 503 1
183 509 1
184 85 1
184 92 1
184 113 1
184 122 1
184 209 1
184 221 1
184 248 1
184 251 1
184 338 1
184 347 1
184 375 1
184 381 1
184 468 1
184 480 1
184 501 1
184 511 1
185 101 1
185 111 1
185 120 1
185 123 1
185 225 1
185 234 1
185 244 1
185 254 1
185 354 1
185 361 1
185 374 1
185 380 1
185 484 1
185 494 1
185 497 1
185 506 1
186 99 1
186 112 1
186 119 1
186 125 1
186 230 1
186 236 1
186 242 1
186 249 1
186 356 1
186 366 1
186 369 1
186 378 1
186 482 1
186 489 1
186 502 1
186 508 1
187 98 1
187 105 1
187 118 1
187 124 1
187 227 1
187 240 1
187 247 1
187 253 1
187 357 1
187 367 1
187 376 1
187 379 1
187 487 1
187 493 1
187 499 1
187 512 1
188 104 1
188 107 1
188 117 1
188 127 1
188 228 1
188 238 1
188 241 1
188 250 1
188 358 1
188 364 1
188 370 1
188 377 1
188 481 1
188 490 1
188 500 1
188 510 1
189 97 1
189 106 1
189 116 1
189 126 1
189 232 1
189 235 1
189 245 1
189 255 1
189 359 1
189 365 1
189 371 1
189 384 1
189 485 1
189 495 1
189 504 1
189 507 1
190 103 1
190 109 1
190 115 1
190 128 1
190 226 1
190 233 1
190 246 1
190 252 1
190 353 1
190 362 1
190 372 1
190 382 1
190 486 1
190 492 1
190 498 1
190 505 1
191 102 1
191 108 1
191 114 1
191 121 1
191 231 1
191 237 1
191 243 1
191 256 1
191 360 1
191 363 1
191 373 1
191 383 1
191 483 1
191 496 1
191 503 1
191 509 1
192 100 1
192 110 1
192 113 1
192 122 1
192 229 1
192 239 1
192 248 1
192 251 1
192 355 1
192 368 1
192 375 1
192 381 1
192 488 1
192 491 1
192 501 1
192 511 1
193 131 1
193 153 1
193 170 1
193 180 1
193 195 1
193 217 1
193 234 1
193 244 1
193 390 1
193 416 1
193 427 1
193 437 1
193 455 1
193 476 1
193 494 1
193 497 1
194 136 1
194 158 1
194 172 1
194 178 1
194 200 1
194 222 1
194 236 1
194 242 1
194 388 1
194 415 1
194 429 1
194 435 1
194 453 1
194 474 1
194 489 1
194 502 1
195 129 1
195 155 1
195 176 1
195 183 1
195 193 1
195 219 1
195 240 1
195 247 1
195 392 1
195 414 1
195 428 1
195 434 1
195 452 1
195 479 1
195 493 1
195 499 1
196 135 1
196 156 1
196 174 1
196 177 1
196 199 1
196 220 1
196 238 1
196 241 1
196 386 1
196 413 1
196 431 1
196 440 1
196 451 1
196 473 1
196 490 1
196 500 1
197 134 1
197 160 1
197 171 1
197 181 1
197 198 1
197 224 1
197 235 1
197 245 1
197 391 1
197 412 1
197 430 1
197 433 1
197 450 1
197 477 1
197 495 1
197 504 1
198 133 1
198 154 1
198 169 1
198 182 1
198 197 1
198 218 1
198 233 1
198 246 1
198 385 1
198 411 1
198 432 1
198 439 1
198 456 1
198 478 1
198 492 1
198 498 1
199 132 1
199 159 1
199 173 1
199 179 1
199 196 1
199 223 1
199 237 1
199 243 1
199 389 1
199 410 1
199 425 1
199 438 1
199 449 1
199 475 1
199 496 1
199 503 1
200 130 1
200 157 1
200 175 1
200 184 1
200 194 1
200 221 1
200 239 1
200 248 1
200 387 1
200 409 1
200 426 1
200 436 1
200 454 1
200 480 1
200 491 1
200 501 1
201 139 1
201 153 1
201 170 1
201 190 1
201 203 1
201 217 1
201 234 1
201 254 1
201 398 1
201 416 1
201 427 1
201 447 1
201 463 1
201 476 1
201 494 1
201 506 1
202 144 1
202 158 1
202 172 1
202 185 1
202 208 1
202 222 1
202 236 1
202 249 1
202 396 1
202 415 1
202 429 1
202 448 1
202 461 1
202 474 1
202 489 1
202 508 1
203 137 1
203 155 1
203 176 1
203 189 1
203 201 1
203 219 1
203 240 1
203 253 1
203 400 1
203 414 1
203 428 1
203 441 1
203 460 1
203 479 1
203 493 1
203 512 1
204 143 1
204 156 1
204 174 1
204 186 1
204 207 1
204 220 1
204 238 1
204 250 1
204 394 1
204 413 1
204 431 1
204 443 1
204 459 1
204 473 1
204 490 1
204 510 1
205 142 1
205 160 1
205 171 1
205 191 1
205 206 1
205 224 1
205 235 1
205 255 1
205 399 1
205 412 1
205 430 1
205 442 1
205 458 1
205 477 1
205 495 1
205 507 1
206 141 1
206 154 1
206 169 1
206 188 1
206 205 1
206 218 1
206 233 1
206 252 1
206 393 1
206 411 1
206 432 1
206 445 1
206 464 1
206 478 1
206 492 1
206 505 1
207 140 1
207 159 1
207 173 1
207 192 1
207 204 1
207 223 1
207 237 1
207 256 1
207 397 1
207 410 1
207 425 1
207 444 1
207 457 1
207 475 1
207 496 1
207 509 1
208 138 1
208 157 1
208 175 1
208 187 1
208 202 1
208 221 1
208 239 1
208 251 1
208 395 1
208 409 1
208 426 1
208 446 1
208 462 1
208 480 1
208 491 1
208 511 1
209 152 1
209 153 1
209 180 1
209 190 1
209 216 1
209 217 1
209 244 1
209 254 1
209 404 1
209 416 1
209 437 1
209 447 1
209 469 1
209 476 1
209 497 1
209 506 1
210 147 1
210 158 1
210 178 1
210 185 1
210 211 1
210 222 1
210 242 1
210 249 1
210 406 1
210 415 1
210 435 1
210 448 1
210 471 1
210 474 1
210 502 1
210 508 1
211 146 1
211 155 1
211 183 1
211 189 1
211 210 1
211 219 1
211 247 1
211 253 1
211 403 1
211 414 1
211 434 1
211 441 1
211 470 1
211 479 1
211 499 1
211 512 1
212 149 1
212 156 1
212 177 1
212 186 1
212 213 1
212 220 1
212 241 1
212 250 1
212 401 1
212 413 1
212 440 1
212 443 1
212 472 1
212 473 1
212 500 1
212 510 1
213 148 1
213 160 1
213 181 1
213 191 1
213 212 1
213 224 1
213 245 1
213 255 1
213 405 1
213 412 1
213 433 1
213 442 1
213 465 1
213 477 1
213 504 1
213 507 1
214 151 1
214 154 1
214 182 1
214 188 1
214 215 1
214 218 1
214 246 1
214 252 1
214 402 1
214 411 1
214 439 1
214 445 1
214 467 1
214 478 1
214 498 1
214 505 1
215 150 1
215 159 1
215 179 1
215 192 1
215 214 1
215 223 1
215 243 1
215 256 1
215 407 1
215 410 1
215 438 1
215 444 1
215 466 1
215 475 1
215 503 1
215 509 1
216 145 1
216 157 1
216 184 1
216 187 1
216 209 1
216 221 1
216 248 1
216 251 1
216 408 1
216 409 1
216 436 1
216 446 1
216 468 1
216 480 1
216 501 1
216 511 1
217 161 1
217 170 1
217 180 1
217 190 1
217 225 1
217 234 1
217 244 1
217 254 1
217 424 1
217 427 1
217 437 1
217 447 1
217 484 1
217 494 1
217 497 1
217 506 1
218 166 1
218 172 1
218 178 1
218 185 1
218 230 1
218 236 1
218 242 1
218 249 1
218 423 1
218 429 1
218 435 1
218 448 1
218 482 1
218 489 1
218 502 1
218 508 1
219 163 1
219 176 1
219 183 1
219 189 1
219 227 1
219 240 1
219 247 1
219 253 1
219 422 1
219 428 1
219 434 1
219 441 1
219 487 1
219 493 1
219 499 1
219 512 1
220 164 1
220 174 1
220 177 1
220 186 1
220 228 1
220 238 1
220 241 1
220 250 1
220 421 1
220 431 1
220 440 1
220 443 1
220 481 1
220 490 1
220 500 1
220 510 1
221 168 1
221 171 1
221 181 1
221 191 1
221 232 1
221 235 1
221 245 1
221 255 1
221 420 1
221 430 1
221 433 1
221 442 1
221 485 1
221 495 1
221 504 1
221 507 1
222 162 1
222 169 1
222 182 1
222 188 1
222 226 1
222 233 1
222 246 1
222 252 1
222 419 1
222 432 1
222 439 1
222 445 1
222 486 1
222 492 1
222 498 1
222 505 1
223 167 1
223 173 1
223 179 1
223 192 1
223 231 1
223 237 1
223 243 1
223 256 1
223 418 1
223 425 1
223 438 1
223 444 1
223 483 1
223 496 1
223 503 1
223 509 1
224 165 1
224 175 1
224 184 1
224 187 1
224 229 1
224 239 1
224 248 1
224 251 1
224 417 1
224 426 1
224 436 1
224 446 1
224 488 1
224 491 1
224 501 1
224 511 1
225 260 1
225 287 1
225 301 1
225 307 1
225 325 1
225 346 1
225 361 1
225 374 1
225 390 1
225 416 1
225 427 1
225 437 1
225 455 1
225 476 1
225 494 1
225 497 1
226 262 1
226 288 1
226 299 1
226 309 1
226 327 1
226 348 1
226 366 1
226 369 1
226 388 1
226 415 1
226 429 1
226 435 1
226 453 1
226 474 1
226 489 1
226 502 1
227 263 1
227 284 1
227 302 1
227 305 1
227 322 1
227 349 1
227 367 1
227 376 1
227 392 1
227 414 1
227 428 1
227 434 1
227 452 1
227 479 1
227 493 1
227 499 1
228 257 1
228 283 1
228 304 1
228 311 1
228 328 1
228 350 1
228 364 1
228 370 1
228 386 1
228 413 1
228 431 1
228 440 1
228 451 1
228 473 1
228 490 1
228 500 1
229 264 1
229 286 1
229 300 1
229 306 1
229 324 1
229 351 1
229 365 1
229 371 1
229 391 1
229 412 1
229 430 1
229 433 1
229 450 1
229 477 1
229 495 1
229 504 1
230 258 1
230 285 1
230 303 1
230 312 1
230 323 1
230 345 1
230 362 1
230 372 1
230 385 1
230 411 1
230 432 1
230 439 1
230 456 1
230 478 1
230 492 1
230 498 1
231 259 1
231 281 1
231 298 1
231 308 1
231 326 1
231 352 1
231 363 1
231 373 1
231 389 1
231 410 1
231 425 1
231 438 1
231 449 1
231 475 1
231 496 1
231 503 1
232 261 1
232 282 1
232 297 1
232 310 1
232 321 1
232 347 1
232 368 1
232 375 1
232 387 1
232 409 1
232 426 1
232 436 1
232 454 1
232 480 1
232 491 1
232 501 1
233 268 1
233 287 1
233 301 1
233 320 1
233 333 1
233 346 1
233 361 1
233 380 1
233 398 1
233 416 1
233 427 1
233 447 1
233 463 1
233 476 1
233 494 1
233 506 1
234 270 1
234 288 1
234 299 1
234 319 1
234 335 1
234 348 1
234 366 1
234 378 1
234 396 1
234 415 1
234 429 1
234 448 1
234 461 1
234 474 1
234 489 1
234 508 1
235 271 1
235 284 1
235 302 1
235 314 1
235 330 1
235 349 1
235 367 1
235 379 1
235 400 1
235 414 1
235 428 1
235 441 1
235 460 1
235 479 1
235 493 1
235 512 1
236 265 1
236 283 1
236 304 1
236 317 1
236 336 1
236 350 1
236 364 1
236 377 1
236 394 1
236 413 1
236 431 1
236 443 1
236 459 1
236 473 1
236 490 1
236 510 1
237 272 1
237 286 1
237 300 1
237 313 1
237 332 1
237 351 1
237 365 1
237 384 1
237 399 1
237 412 1
237 430 1
237 442 1
237 458 1
237 477 1
237 495 1
237 507 1
238 266 1
238 285 1
238 303 1
238 315 1
238 331 1
238 345 1
238 362 1
238 382 1
238 393 1
238 411 1
238 432 1
238 445 1
238 464 1
238 478 1
238 492 1
238 505 1
239 267 1
239 281 1
239 298 1
239 318 1
239 334 1
239 352 1
239 363 1
239 383 1
239 397 1
239 410 1
239 425 1
239 444 1
239 457 1
239 475 1
239 496 1
239 509 1
240 269 1
240 282 1
240 297 1
240 316 1
240 329 1
240 347 1
240 368 1
240 381 1
240 395 1
240 409 1
240 426 1
240 446 1
240 462 1
240 480 1
240 491 1
240 511 1
241 278 1
241 287 1
241 307 1
241 320 1
241 343 1
241 346 1
241 374 1
241 380 1
241 404 1
241 416 1
241 437 1
241 447 1
241 469 1
241 476 1
241 497 1
241 506 1
242 276 1
242 288 1
242 309 1
242 319 1
242 341 1
242 348 1
242 369 1
242 378 1
242 406 1
242 415 1
242 435 1
242 448 1
242 471 1
242 474 1
242 502 1
242 508 1
243 277 1
243 284 1
243 305 1
243 314 1
243 337 1
243 349 1
243 376 1
243 379 1
243 403 1
243 414 1
243 434 1
243 441 1
243 470 1
243 479 1
243 499 1
243 512 1
244 274 1
244 283 1
244 311 1
244 317 1
244 339 1
244 350 1
244 370 1
244 377 1
244 401 1
244 413 1
244 440 1
244 443 1
244 472 1
244 473 1
244 500 1
244 510 1
245 275 1
245 286 1
245 306 1
245 313 1
245 342 1
245 351 1
245 371 1
245 384 1
245 405 1
245 412 1
245 433 1
245 442 1
245 465 1
245 477 1
245 504 1
245 507 1
246 273 1
246 285 1
246 312 1
246 315 1
246 344 1
246 345 1
246 372 1
246 382 1
246 402 1
246 411 1
246 439 1
246 445 1
246 467 1
246 478 1
246 498 1
246 505 1
247 280 1
247 281 1
247 308 1
247 318 1
247 340 1
247 352 1
247 373 1
247 383 1
247 407 1
247 410 1
247 438 1
247 444 1
247 466 1
247 475 1
247 503 1
247 509 1
248 279 1
248 282 1
248 310 1
248 316 1
248 338 1
248 347 1
248 375 1
248 381 1
248 408 1
248 409 1
248 436 1
248 446 1
248 468 1
248 480 1
248 501 1
248 511 1
249 295 1
249 301 1
249 307 1
249 320 1
249 354 1
249 361 1
249 374 1
249 380 1
249 424 1
249 427 1
249 437 1
249 447 1
249 484 1
249 494 1
249 497 1
249 506 1
250 296 1
250 299 1
250 309 1
250 319 1
250 356 1
250 366 1
250 369 1
250 378 1
250 423 1
250 429 1
250 435 1
250 448 1
250 482 1
250 489 1
250 502 1
250 508 1
251 292 1
251 302 1
251 305 1
251 314 1
251 357 1
251 367 1
251 376 1
251 379 1
251 422 1
251 428 1
251 434 1
251 441 1
251 487 1
251 493 1
251 499 1
251 512 1
252 291 1
252 304 1
252 311 1
252 317 1
252 358 1
252 364 1
252 370 1
252 377 1
252 421 1
252 431 1
252 440 1
252 443 1
252 481 1
252 490 1
252 500 1
252 510 1
253 294 1
253 300 1
253 306 1
253 313 1
253 359 1
253 365 1
253 371 1
253 384 1
253 420 1
253 430 1
253 433 1
253 442 1
253 485 1
253 495 1
253 504 1
253 507 1
254 293 1
254 303 1
254 312 1
254 315 1
254 353 1
254 362 1
254 372 1
254 382 1
254 419 1
254 432 1
254 439 1
254 445 1
254 486 1
254 492 1
254 498 1
254 505 1
255 289 1
255 298 1
255 308 1
255 318 1
255 360 1
255 363 1
255 373 1
255 383 1
255 418 1
255 425 1
255 438 1
255 444 1
255 483 1
255 496 1
255 503 1
255 509 1
256 290 1
256 297 1
256 310 1
256 316 1
256 355 1
256 368 1
256 375 1
256 381 1
256 417 1
256 426 1
256 436 1
256 446 1
256 488 1
256 491 1
256 501 1
256 511 1
