%%MatrixMarket matrix coordinate integer general
224 448 3584
1 1 1
1 29 1
1 36 1
1 43 1
1 225 1
1 253 1
1 260 1
1 267 1
1 281 1
1 309 1
1 316 1
1 323 1
1 337 1
1 365 1
1 372 1
1 379 1
2 2 1
2 30 1
2 37 1
2 44 1
2 226 1
2 254 1
2 261 1
2 268 1
2 282 1
2 310 1
2 317 1
2 324 1
2 338 1
2 366 1
2 373 1
2 380 1
3 3 1
3 31 1
3 38 1
3 45 1
3 227 1
3 255 1
3 262 1
3 269 1
3 283 1
3 311 1
3 318 1
3 325 1
3 339 1
3 367 1
3 374 1
3 381 1
4 4 1
4 32 1
4 39 1
4 46 1
4 228 1
4 256 1
4 263 1
4 270 1
4 284 1
4 312 1
4 319 1
4 326 1
4 340 1
4 368 1
4 375 1
4 382 1
5 5 1
5 33 1
5 40 1
5 47 1
5 229 1
5 257 1
5 264 1
5 271 1
5 285 1
5 313 1
5 320 1
5 327 1
5 341 1
5 369 1
5 376 1
5 383 1
6 6 1
6 34 1
6 41 1
6 48 1
6 230 1
6 258 1
6 265 1
6 272 1
6 286 1
6 314 1
6 321 1
6 328 1
6 342 1
6 370 1
6 377 1
6 384 1
7 7 1
7 35 1
7 42 1
7 49 1
7 231 1
7 259 1
7 266 1
7 273 1
7 287 1
7 315 1
7 322 1
7 329 1
7 343 1
7 371 1
7 378 1
7 385 1
8 8 1
8 29 1
8 36 1
8 50 1
8 232 1
8 253 1
8 260 1
8 274 1
8 288 1
8 309 1
8 316 1
8 330 1
8 344 1
8 365 1
8 372 1
8 386 1
9 9 1
9 30 1
9 37 1
9 51 1
9 233 1
9 254 1
9 261 1
9 275 1
9 289 1
9 310 1
9 317 1
9 331 1
9 345 1
9 366 1
9 373 1
9 387 1
10 10 1
10 31 1
10 38 1
10 52 1
10 234 1
10 255 1
10 262 1
10 276 1
10 290 1
10 311 1
10 318 1
10 332 1
10 346 1
10 367 1
10 374 1
10 388 1
11 11 1
11 32 1
11 39 1
11 53 1
11 235 1
11 256 1
11 263 1
11 277 1
11 291 1
11 312 1
11 319 1
11 333 1
11 347 1
11 368 1
11 375 1
11 389 1
12 12 1
12 33 1
12 40 1
12 54 1
12 236 1
12 257 1
12 264 1
12 278 1
12 292 1
12 313 1
12 320 1
12 334 1
12 348 1
12 369 1
12 376 1
12 390 1
13 13 1
13 34 1
13 41 1
13 55 1
13 237 1
13 258 1
13 265 1
13 279 1
13 293 1
13 314 1
13 321 1
13 335 1
13 349 1
13 370 1
13 377 1
13 391 1
14 14 1
14 35 1
14 42 1
14 56 1
14 238 1
14 259 1
14 266 1
14 280 1
14 294 1
14 315 1
14 322 1
14 336 1
14 350 1
14 371 1
14 378 1
14 392 1
15 15 1
15 29 1
15 43 1
15 50 1
15 239 1
15 253 1
15 267 1
15 274 1
15 295 1
15 309 1
15 323 1
15 330 1
15 351 1
15 365 1
15 379 1
15 386 1
16 16 1
16 30 1
16 44 1
16 51 1
16 240 1
16 254 1
16 268 1
16 275 1
16 296 1
16 310 1
16 324 1
16 331 1
16 352 1
16 366 1
16 380 1
16 387 1
17 17 1
17 31 1
17 45 1
17 52 1
17 241 1
17 255 1
17 269 1
17 276 1
17 297 1
17 311 1
17 325 1
17 332 1
17 353 1
17 367 1
17 381 1
17 388 1
18 18 1
18 32 1
18 46 1
18 53 1
18 242 1
18 256 1
18 270 1
18 277 1
18 298 1
18 312 1
18 326 1
18 333 1
18 354 1
18 368 1
18 382 1
18 389 1
19 19 1
19 33 1
19 47 1
19 54 1
19 243 1
19 257 1
19 271 1
19 278 1
19 299 1
19 313 1
19 327 1
19 334 1
19 355 1
19 369 1
19 383 1
19 390 1
20 20 1
20 34 1
20 48 1
20 55 1
20 244 1
20 258 1
20 272 1
20 279 1
20 300 1
20 314 1
20 328 1
20 335 1
20 356 1
20 370 1
20 384 1
20 391 1
21 21 1
21 35 1
21 49 1
21 56 1
21 245 1
21 259 1
21 273 1
21 280 1
21 301 1
21 315 1
21 329 1
21 336 1
21 357 1
21 371 1
21 385 1
21 392 1
22 22 1
22 36 1
22 43 1
22 50 1
22 246 1
22 260 1
22 267 1
22 274 1
22 302 1
22 316 1
22 323 1
22 330 1
22 358 1
22 372 1
22 379 1
22 386 1
23 23 1
23 37 1
23 44 1
23 51 1
23 247 1
23 261 1
23 268 1
23 275 1
23 303 1
23 317 1
23 324 1
23 331 1
23 359 1
23 373 1
23 380 1
23 387 1
24 24 1
24 38 1
24 45 1
24 52 1
24 248 1
24 262 1
24 269 1
24 276 1
24 304 1
24 318 1
24 325 1
24 332 1
24 360 1
24 374 1
24 381 1
24 388 1
25 25 1
25 39 1
25 46 1
25 53 1
25 249 1
25 263 1
25 270 1
25 277 1
25 305 1
25 319 1
25 326 1
25 333 1
25 361 1
25 375 1
25 382 1
25 389 1
26 26 1
26 40 1
26 47 1
26 54 1
26 250 1
26 264 1
26 271 1
26 278 1
26 306 1
26 320 1
26 327 1
26 334 1
26 362 1
26 376 1
26 383 1
26 390 1
27 27 1
27 41 1
27 48 1
27 55 1
27 251 1
27 265 1
27 272 1
27 279 1
27 307 1
27 321 1
27 328 1
27 335 1
27 363 1
27 377 1
27 384 1
27 391 1
28 28 1
28 42 1
28 49 1
28 56 1
28 252 1
28 266 1
28 273 1
28 280 1
28 308 1
28 322 1
28 329 1
28 336 1
28 364 1
28 378 1
28 385 1
28 392 1
29 57 1
29 85 1
29 92 1
29 99 1
29 225 1
29 253 1
29 260 1
29 267 1
29 281 1
29 309 1
29 316 1
29 323 1
29 393 1
29 421 1
29 428 1
29 435 1
30 58 1
30 86 1
30 93 1
30 100 1
30 226 1
30 254 1
30 261 1
30 268 1
30 282 1
30 310 1
30 317 1
30 324 1
30 394 1
30 422 1
30 429 1
30 436 1
31 59 1
31 87 1
31 94 1
31 101 1
31 227 1
31 255 1
31 262 1
31 269 1
31 283 1
31 311 1
31 318 1
31 325 1
31 395 1
31 423 1
31 430 1
31 437 1
32 60 1
32 88 1
32 95 1
32 102 1
32 228 1
32 256 1
32 263 1
32 270 1
32 284 1
32 312 1
32 319 1
32 326 1
32 396 1
32 424 1
32 431 1
32 438 1
33 61 1
33 89 1
33 96 1
33 103 1
33 229 1
33 257 1
33 264 1
33 271 1
33 285 1
33 313 1
33 320 1
33 327 1
33 397 1
33 425 1
33 432 1
33 439 1
34 62 1
34 90 1
34 97 1
34 104 1
34 230 1
34 258 1
34 265 1
34 272 1
34 286 1
34 314 1
34 321 1
34 328 1
34 398 1
34 426 1
34 433 1
34 440 1
35 63 1
35 91 1
35 98 1
35 105 1
35 231 1
35 259 1
35 266 1
35 273 1
35 287 1
35 315 1
35 322 1
35 329 1
35 399 1
35 427 1
35 434 1
35 441 1
36 64 1
36 85 1
36 92 1
36 106 1
36 232 1
36 253 1
36 260 1
36 274 1
36 288 1
36 309 1
36 316 1
36 330 1
36 400 1
36 421 1
36 428 1
36 442 1
37 65 1
37 86 1
37 93 1
37 107 1
37 233 1
37 254 1
37 261 1
37 275 1
37 289 1
37 310 1
37 317 1
37 331 1
37 401 1
37 422 1
37 429 1
37 443 1
38 66 1
38 87 1
38 94 1
38 108 1
38 234 1
38 255 1
38 262 1
38 276 1
38 290 1
38 311 1
38 318 1
38 332 1
38 402 1
38 423 1
38 430 1
38 444 1
39 67 1
39 88 1
39 95 1
39 109 1
39 235 1
39 256 1
39 263 1
39 277 1
39 291 1
39 312 1
39 319 1
39 333 1
39 403 1
39 424 1
39 431 1
39 445 1
40 68 1
40 89 1
40 96 1
40 110 1
40 236 1
40 257 1
40 264 1
40 278 1
40 292 1
40 313 1
40 320 1
40 334 1
40 404 1
40 425 1
40 432 1
40 446 1
41 69 1
41 90 1
41 97 1
41 111 1
41 237 1
41 258 1
41 265 1
41 279 1
41 293 1
41 314 1
41 321 1
41 335 1
41 405 1
41 426 1
41 433 1
41 447 1
42 70 1
42 91 1
42 98 1
42 112 1
42 238 1
42 259 1
42 266 1
42 280 1
42 294 1
42 315 1
42 322 1
42 336 1
42 406 1
42 427 1
42 434 1
42 448 1
43 71 1
43 85 1
43 99 1
43 106 1
43 239 1
43 253 1
43 267 1
43 274 1
43 295 1
43 309 1
43 323 1
43 330 1
43 407 1
43 421 1
43 435 1
43 442 1
44 72 1
44 86 1
44 100 1
44 107 1
44 240 1
44 254 1
44 268 1
44 275 1
44 296 1
44 310 1
44 324 1
44 331 1
44 408 1
44 422 1
44 436 1
44 443 1
45 73 1
45 87 1
45 101 1
45 108 1
45 241 1
45 255 1
45 269 1
45 276 1
45 297 1
45 311 1
45 325 1
45 332 1
45 409 1
45 423 1
45 437 1
45 444 1
46 74 1
46 88 1
46 102 1
46 109 1
46 242 1
46 256 1
46 270 1
46 277 1
46 298 1
46 312 1
46 326 1
46 333 1
46 410 1
46 424 1
46 438 1
46 445 1
47 75 1
47 89 1
47 103 1
47 110 1
47 243 1
47 257 1
47 271 1
47 278 1
47 299 1
47 313 1
47 327 1
47 334 1
47 411 1
47 425 1
47 439 1
47 446 1
48 76 1
48 90 1
48 104 1
48 111 1
48 244 1
48 258 1
48 272 1
48 279 1
48 300 1
48 314 1
48 328 1
48 335 1
48 412 1
48 426 1
48 440 1
48 447 1
49 77 1
49 91 1
49 105 1
49 112 1
49 245 1
49 259 1
49 273 1
49 280 1
49 301 1
49 315 1
49 329 1
49 336 1
49 413 1
49 427 1
49 441 1
49 448 1
50 78 1
50 92 1
50 99 1
50 106 1
50 246 1
50 260 1
50 267 1
50 274 1
50 302 1
50 316 1
50 323 1
50 330 1
50 414 1
50 428 1
50 435 1
50 442 1
51 79 1
51 93 1
51 100 1
51 107 1
51 247 1
51 261 1
51 268 1
51 275 1
51 303 1
51 317 1
51 324 1
51 331 1
51 415 1
51 429 1
51 436 1
51 443 1
52 80 1
52 94 1
52 101 1
52 108 1
52 248 1
52 262 1
52 269 1
52 276 1
52 304 1
52 318 1
52 325 1
52 332 1
52 416 1
52 430 1
52 437 1
52 444 1
53 81 1
53 95 1
53 102 1
53 109 1
53 249 1
53 263 1
53 270 1
53 277 1
53 305 1
53 319 1
53 326 1
53 333 1
53 417 1
53 431 1
53 438 1
53 445 1
54 82 1
54 96 1
54 103 1
54 110 1
54 250 1
54 264 1
54 271 1
54 278 1
54 306 1
54 320 1
54 327 1
54 334 1
54 418 1
54 432 1
54 439 1
54 446 1
55 83 1
55 97 1
55 104 1
55 111 1
55 251 1
55 265 1
55 272 1
55 279 1
55 307 1
55 321 1
55 328 1
55 335 1
55 419 1
55 433 1
55 440 1
55 447 1
56 84 1
56 98 1
56 105 1
56 112 1
56 252 1
56 266 1
56 273 1
56 280 1
56 308 1
56 322 1
56 329 1
56 336 1
56 420 1
56 434 1
56 441 1
56 448 1
57 113 1
57 141 1
57 148 1
57 155 1
57 225 1
57 253 1
57 260 1
57 267 1
57 337 1
57 365 1
57 372 1
57 379 1
57 393 1
57 421 1
57 428 1
57 435 1
58 114 1
58 142 1
58 149 1
58 156 1
58 226 1
58 254 1
58 261 1
58 268 1
58 338 1
58 366 1
58 373 1
58 380 1
58 394 1
58 422 1
58 429 1
58 436 1
59 115 1
59 143 1
59 150 1
59 157 1
59 227 1
59 255 1
59 262 1
59 269 1
59 339 1
59 367 1
59 374 1
59 381 1
59 395 1
59 423 1
59 430 1
59 437 1
60 116 1
60 144 1
60 151 1
60 158 1
60 228 1
60 256 1
60 263 1
60 270 1
60 340 1
60 368 1
60 375 1
60 382 1
60 396 1
60 424 1
60 431 1
60 438 1
61 117 1
61 145 1
61 152 1
61 159 1
61 229 1
61 257 1
61 264 1
61 271 1
61 341 1
61 369 1
61 376 1
61 383 1
61 397 1
61 425 1
61 432 1
61 439 1
62 118 1
62 146 1
62 153 1
62 160 1
62 230 1
62 258 1
62 265 1
62 272 1
62 342 1
62 370 1
62 377 1
62 384 1
62 398 1
62 426 1
62 433 1
62 440 1
63 119 1
63 147 1
63 154 1
63 161 1
63 231 1
63 259 1
63 266 1
63 273 1
63 343 1
63 371 1
63 378 1
63 385 1
63 399 1
63 427 1
63 434 1
63 441 1
64 120 1
64 141 1
64 148 1
64 162 1
64 232 1
64 253 1
64 260 1
64 274 1
64 344 1
64 365 1
64 372 1
64 386 1
64 400 1
64 421 1
64 428 1
64 442 1
65 121 1
65 142 1
65 149 1
65 163 1
65 233 1
65 254 1
65 261 1
65 275 1
65 345 1
65 366 1
65 373 1
65 387 1
65 401 1
65 422 1
65 429 1
65 443 1
66 122 1
66 143 1
66 150 1
66 164 1
66 234 1
66 255 1
66 262 1
66 276 1
66 346 1
66 367 1
66 374 1
66 388 1
66 402 1
66 423 1
66 430 1
66 444 1
67 123 1
67 144 1
67 151 1
67 165 1
67 235 1
67 256 1
67 263 1
67 277 1
67 347 1
67 368 1
67 375 1
67 389 1
67 403 1
67 424 1
67 431 1
67 445 1
68 124 1
68 145 1
68 152 1
68 166 1
68 236 1
68 257 1
68 264 1
68 278 1
68 348 1
68 369 1
68 376 1
68 390 1
68 404 1
68 425 1
68 432 1
68 446 1
69 125 1
69 146 1
69 153 1
69 167 1
69 237 1
69 258 1
69 265 1
69 279 1
69 349 1
69 370 1
69 377 1
69 391 1
69 405 1
69 426 1
69 433 1
69 447 1
70 126 1
70 147 1
70 154 1
70 168 1
70 238 1
70 259 1
70 266 1
70 280 1
70 350 1
70 371 1
70 378 1
70 392 1
70 406 1
70 427 1
70 434 1
70 448 1
71 127 1
71 141 1
71 155 1
71 162 1
71 239 1
71 253 1
71 267 1
71 274 1
71 351 1
71 365 1
71 379 1
71 386 1
71 407 1
71 421 1
71 435 1
71 442 1
72 128 1
72 142 1
72 156 1
72 163 1
72 240 1
72 254 1
72 268 1
72 275 1
72 352 1
72 366 1
72 380 1
72 387 1
72 408 1
72 422 1
72 436 1
72 443 1
73 129 1
73 143 1
73 157 1
73 164 1
73 241 1
73 255 1
73 269 1
73 276 1
73 353 1
73 367 1
73 381 1
73 388 1
73 409 1
73 423 1
73 437 1
73 444 1
74 130 1
74 144 1
74 158 1
74 165 1
74 242 1
74 256 1
74 270 1
74 277 1
74 354 1
74 368 1
74 382 1
74 389 1
74 410 1
74 424 1
74 438 1
74 445 1
75 131 1
75 145 1
75 159 1
75 166 1
75 243 1
75 257 1
75 271 1
75 278 1
75 355 1
75 369 1
75 383 1
75 390 1
75 411 1
75 425 1
75 439 1
75 446 1
76 132 1
76 146 1
76 160 1
76 167 1
76 244 1
76 258 1
76 272 1
76 279 1
76 356 1
76 370 1
76 384 1
76 391 1
76 412 1
76 426 1
76 440 1
76 447 1
77 133 1
77 147 1
77 161 1
77 168 1
77 245 1
77 259 1
77 273 1
77 280 1
77 357 1
77 371 1
77 385 1
77 392 1
77 413 1
77 427 1
77 441 1
77 448 1
78 134 1
78 148 1
78 155 1
78 162 1
78 246 1
78 260 1
78 267 1
78 274 1
78 358 1
78 372 1
78 379 1
78 386 1
78 414 1
78 428 1
78 435 1
78 442 1
79 135 1
79 149 1
79 156 1
79 163 1
79 247 1
79 261 1
79 268 1
79 275 1
79 359 1
79 373 1
79 380 1
79 387 1
79 415 1
79 429 1
79 436 1
79 443 1
80 136 1
80 150 1
80 157 1
80 164 1
80 248 1
80 262 1
80 269 1
80 276 1
80 360 1
80 374 1
80 381 1
80 388 1
80 416 1
80 430 1
80 437 1
80 444 1
81 137 1
81 151 1
81 158 1
81 165 1
81 249 1
81 263 1
81 270 1
81 277 1
81 361 1
81 375 1
81 382 1
81 389 1
81 417 1
81 431 1
81 438 1
81 445 1
82 138 1
82 152 1
82 159 1
82 166 1
82 250 1
82 264 1
82 271 1
82 278 1
82 362 1
82 376 1
82 383 1
82 390 1
82 418 1
82 432 1
82 439 1
82 446 1
83 139 1
83 153 1
83 160 1
83 167 1
83 251 1
83 265 1
83 272 1
83 279 1
83 363 1
83 377 1
83 384 1
83 391 1
83 419 1
83 433 1
83 440 1
83 447 1
84 140 1
84 154 1
84 161 1
84 168 1
84 252 1
84 266 1
84 273 1
84 280 1
84 364 1
84 378 1
84 385 1
84 392 1
84 420 1
84 434 1
84 441 1
84 448 1
85 169 1
85 197 1
85 204 1
85 211 1
85 281 1
85 309 1
85 316 1
85 323 1
85 337 1
85 365 1
85 372 1
85 379 1
85 393 1
85 421 1
85 428 1
85 435 1
86 170 1
86 198 1
86 205 1
86 212 1
86 282 1
86 310 1
86 317 1
86 324 1
86 338 1
86 366 1
86 373 1
86 380 1
86 394 1
86 422 1
86 429 1
86 436 1
87 171 1
87 199 1
87 206 1
87 213 1
87 283 1
87 311 1
87 318 1
87 325 1
87 339 1
87 367 1
87 374 1
87 381 1
87 395 1
87 423 1
87 430 1
87 437 1
88 172 1
88 200 1
88 207 1
88 214 1
88 284 1
88 312 1
88 319 1
88 326 1
88 340 1
88 368 1
88 375 1
88 382 1
88 396 1
88 424 1
88 431 1
88 438 1
89 173 1
89 201 1
89 208 1
89 215 1
89 285 1
89 313 1
89 320 1
89 327 1
89 341 1
89 369 1
89 376 1
89 383 1
89 397 1
89 425 1
89 432 1
89 439 1
90 174 1
90 202 1
90 209 1
90 216 1
90 286 1
90 314 1
90 321 1
90 328 1
90 342 1
90 370 1
90 377 1
90 384 1
90 398 1
90 426 1
90 433 1
90 440 1
91 175 1
91 203 1
91 210 1
91 217 1
91 287 1
91 315 1
91 322 1
91 329 1
91 343 1
91 371 1
91 378 1
91 385 1
91 399 1
91 427 1
91 434 1
91 441 1
92 176 1
92 197 1
92 204 1
92 218 1
92 288 1
92 309 1
92 316 1
92 330 1
92 344 1
92 365 1
92 372 1
92 386 1
92 400 1
92 421 1
92 428 1
92 442 1
93 177 1
93 198 1
93 205 1
93 219 1
93 289 1
93 310 1
93 317 1
93 331 1
93 345 1
93 366 1
93 373 1
93 387 1
93 401 1
93 422 1
93 429 1
93 443 1
94 178 1
94 199 1
94 206 1
94 220 1
94 290 1
94 311 1
94 318 1
94 332 1
94 346 1
94 367 1
94 374 1
94 388 1
94 402 1
94 423 1
94 430 1
94 444 1
95 179 1
95 200 1
95 207 1
95 221 1
95 291 1
95 312 1
95 319 1
95 333 1
95 347 1
95 368 1
95 375 1
95 389 1
95 403 1
95 424 1
95 431 1
95 445 1
96 180 1
96 201 1
96 208 1
96 222 1
96 292 1
96 313 1
96 320 1
96 334 1
96 348 1
96 369 1
96 376 1
96 390 1
96 404 1
96 425 1
96 432 1
96 446 1
97 181 1
97 202 1
97 209 1
97 223 1
97 293 1
97 314 1
97 321 1
97 335 1
97 349 1
97 370 1
97 377 1
97 391 1
97 405 1
97 426 1
97 433 1
97 447 1
98 182 1
98 203 1
98 210 1
98 224 1
98 294 1
98 315 1
98 322 1
98 336 1
98 350 1
98 371 1
98 378 1
98 392 1
98 406 1
98 427 1
98 434 1
98 448 1
99 183 1
99 197 1
99 211 1
99 218 1
99 295 1
99 309 1
99 323 1
99 330 1
99 351 1
99 365 1
99 379 1
99 386 1
99 407 1
99 421 1
99 435 1
99 442 1
100 184 1
100 198 1
100 212 1
100 219 1
100 296 1
100 310 1
100 324 1
100 331 1
100 352 1
100 366 1
100 380 1
100 387 1
100 408 1
100 422 1
100 436 1
100 443 1
101 185 1
101 199 1
101 213 1
101 220 1
101 297 1
101 311 1
101 325 1
101 332 1
101 353 1
101 367 1
101 381 1
101 388 1
101 409 1
101 423 1
101 437 1
101 444 1
102 186 1
102 200 1
102 214 1
102 221 1
102 298 1
102 312 1
102 326 1
102 333 1
102 354 1
102 368 1
102 382 1
102 389 1
102 410 1
102 424 1
102 438 1
102 445 1
103 187 1
103 201 1
103 215 1
103 222 1
103 299 1
103 313 1
103 327 1
103 334 1
103 355 1
103 369 1
103 383 1
103 390 1
103 411 1
103 425 1
103 439 1
103 446 1
104 188 1
104 202 1
104 216 1
104 223 1
104 300 1
104 314 1
104 328 1
104 335 1
104 356 1
104 370 1
104 384 1
104 391 1
104 412 1
104 426 1
104 440 1
104 447 1
105 189 1
105 203 1
105 217 1
105 224 1
105 301 1
105 315 1
105 329 1
105 336 1
105 357 1
105 371 1
105 385 1
105 392 1
105 413 1
105 427 1
105 441 1
105 448 1
106 190 1
106 204 1
106 211 1
106 218 1
106 302 1
106 316 1
106 323 1
106 330 1
106 358 1
106 372 1
106 379 1
106 386 1
106 414 1
106 428 1
106 435 1
106 442 1
107 191 1
107 205 1
107 212 1
107 219 1
107 303 1
107 317 1
107 324 1
107 331 1
107 359 1
107 373 1
107 380 1
107 387 1
107 415 1
107 429 1
107 436 1
107 443 1
108 192 1
108 206 1
108 213 1
108 220 1
108 304 1
108 318 1
108 325 1
108 332 1
108 360 1
108 374 1
108 381 1
108 388 1
108 416 1
108 430 1
108 437 1
108 444 1
109 193 1
109 207 1
109 214 1
109 221 1
109 305 1
109 319 1
109 326 1
109 333 1
109 361 1
109 375 1
109 382 1
109 389 1
109 417 1
109 431 1
109 438 1
109 445 1
110 194 1
110 208 1
110 215 1
110 222 1
110 306 1
110 320 1
110 327 1
110 334 1
110 362 1
110 376 1
110 383 1
110 390 1
110 418 1
110 432 1
110 439 1
110 446 1
111 195 1
111 209 1
111 216 1
111 223 1
111 307 1
111 321 1
111 328 1
111 335 1
111 363 1
111 377 1
111 384 1
111 391 1
111 419 1
111 433 1
111 440 1
111 447 1
112 196 1
112 210 1
112 217 1
112 224 1
112 308 1
112 322 1
112 329 1
112 336 1
112 364 1
112 378 1
112 385 1
112 392 1
112 420 1
112 434 1
112 441 1
112 448 1
113 1 1
113 27 1
113 40 1
113 45 1
113 228 1
113 247 1
113 260 1
113 272 1
113 285 1
113 304 1
113 317 1
113 329 1
113 342 1
113 361 1
113 374 1
113 379 1
114 2 1
114 28 1
114 41 1
114 46 1
114 229 1
114 248 1
114 261 1
114 273 1
114 286 1
114 305 1
114 318 1
114 323 1
114 343 1
114 362 1
114 375 1
114 380 1
115 3 1
115 22 1
115 42 1
115 47 1
115 230 1
115 249 1
115 262 1
115 267 1
115 287 1
115 306 1
115 319 1
115 324 1
115 337 1
115 363 1
115 376 1
115 381 1
116 4 1
116 23 1
116 36 1
116 48 1
116 231 1
116 250 1
116 263 1
116 268 1
116 281 1
116 307 1
116 320 1
116 325 1
116 338 1
116 364 1
116 377 1
116 382 1
117 5 1
117 24 1
117 37 1
117 49 1
117 225 1
117 251 1
117 264 1
117 269 1
117 282 1
117 308 1
117 321 1
117 326 1
117 339 1
117 358 1
117 378 1
117 383 1
118 6 1
118 25 1
118 38 1
118 43 1
118 226 1
118 252 1
118 265 1
118 270 1
118 283 1
118 302 1
118 322 1
118 327 1
118 340 1
118 359 1
118 372 1
118 384 1
119 7 1
119 26 1
119 39 1
119 44 1
119 227 1
119 246 1
119 266 1
119 271 1
119 284 1
119 303 1
119 316 1
119 328 1
119 341 1
119 360 1
119 373 1
119 385 1
120 8 1
120 27 1
120 40 1
120 51 1
120 235 1
120 247 1
120 260 1
120 278 1
120 292 1
120 304 1
120 317 1
120 335 1
120 349 1
120 361 1
120 374 1
120 392 1
121 9 1
121 28 1
121 41 1
121 52 1
121 236 1
121 248 1
121 261 1
121 279 1
121 293 1
121 305 1
121 318 1
121 336 1
121 350 1
121 362 1
121 375 1
121 386 1
122 10 1
122 22 1
122 42 1
122 53 1
122 237 1
122 249 1
122 262 1
122 280 1
122 294 1
122 306 1
122 319 1
122 330 1
122 344 1
122 363 1
122 376 1
122 387 1
123 11 1
123 23 1
123 36 1
123 54 1
123 238 1
123 250 1
123 263 1
123 274 1
123 288 1
123 307 1
123 320 1
123 331 1
123 345 1
123 364 1
123 377 1
123 388 1
124 12 1
124 24 1
124 37 1
124 55 1
124 232 1
124 251 1
124 264 1
124 275 1
124 289 1
124 308 1
124 321 1
124 332 1
124 346 1
124 358 1
124 378 1
124 389 1
125 13 1
125 25 1
125 38 1
125 56 1
125 233 1
125 252 1
125 265 1
125 276 1
125 290 1
125 302 1
125 322 1
125 333 1
125 347 1
125 359 1
125 372 1
125 390 1
126 14 1
126 26 1
126 39 1
126 50 1
126 234 1
126 246 1
126 266 1
126 277 1
126 291 1
126 303 1
126 316 1
126 334 1
126 348 1
126 360 1
126 373 1
126 391 1
127 21 1
127 27 1
127 45 1
127 51 1
127 241 1
127 247 1
127 272 1
127 278 1
127 298 1
127 304 1
127 329 1
127 335 1
127 355 1
127 361 1
127 379 1
127 392 1
128 15 1
128 28 1
128 46 1
128 52 1
128 242 1
128 248 1
128 273 1
128 279 1
128 299 1
128 305 1
128 323 1
128 336 1
128 356 1
128 362 1
128 380 1
128 386 1
129 16 1
129 22 1
129 47 1
129 53 1
129 243 1
129 249 1
129 267 1
129 280 1
129 300 1
129 306 1
129 324 1
129 330 1
129 357 1
129 363 1
129 381 1
129 387 1
130 17 1
130 23 1
130 48 1
130 54 1
130 244 1
130 250 1
130 268 1
130 274 1
130 301 1
130 307 1
130 325 1
130 331 1
130 351 1
130 364 1
130 382 1
130 388 1
131 18 1
131 24 1
131 49 1
131 55 1
131 245 1
131 251 1
131 269 1
131 275 1
131 295 1
131 308 1
131 326 1
131 332 1
131 352 1
131 358 1
131 383 1
131 389 1
132 19 1
132 25 1
132 43 1
132 56 1
132 239 1
132 252 1
132 270 1
132 276 1
132 296 1
132 302 1
132 327 1
132 333 1
132 353 1
132 359 1
132 384 1
132 390 1
133 20 1
133 26 1
133 44 1
133 50 1
133 240 1
133 246 1
133 271 1
133 277 1
133 297 1
133 303 1
133 328 1
133 334 1
133 354 1
133 360 1
133 385 1
133 391 1
134 34 1
134 40 1
134 45 1
134 51 1
134 254 1
134 260 1
134 272 1
134 278 1
134 311 1
134 317 1
134 329 1
134 335 1
134 368 1
134 374 1
134 379 1
134 392 1
135 35 1
135 41 1
135 46 1
135 52 1
135 255 1
135 261 1
135 273 1
135 279 1
135 312 1
135 318 1
135 323 1
135 336 1
135 369 1
135 375 1
135 380 1
135 386 1
136 29 1
136 42 1
136 47 1
136 53 1
136 256 1
136 262 1
136 267 1
136 280 1
136 313 1
136 319 1
136 324 1
136 330 1
136 370 1
136 376 1
136 381 1
136 387 1
137 30 1
137 36 1
137 48 1
137 54 1
137 257 1
137 263 1
137 268 1
137 274 1
137 314 1
137 320 1
137 325 1
137 331 1
137 371 1
137 377 1
137 382 1
137 388 1
138 31 1
138 37 1
138 49 1
138 55 1
138 258 1
138 264 1
138 269 1
138 275 1
138 315 1
138 321 1
138 326 1
138 332 1
138 365 1
138 378 1
138 383 1
138 389 1
139 32 1
139 38 1
139 43 1
139 56 1
139 259 1
139 265 1
139 270 1
139 276 1
139 309 1
139 322 1
139 327 1
139 333 1
139 366 1
139 372 1
139 384 1
139 390 1
140 33 1
140 39 1
140 44 1
140 50 1
140 253 1
140 266 1
140 271 1
140 277 1
140 310 1
140 316 1
140 328 1
140 334 1
140 367 1
140 373 1
140 385 1
140 391 1
141 57 1
141 83 1
141 96 1
141 101 1
141 228 1
141 247 1
141 260 1
141 272 1
141 342 1
141 361 1
141 374 1
141 379 1
141 399 1
141 418 1
141 431 1
141 436 1
142 58 1
142 84 1
142 97 1
142 102 1
142 229 1
142 248 1
142 261 1
142 273 1
142 343 1
142 362 1
142 375 1
142 380 1
142 393 1
142 419 1
142 432 1
142 437 1
143 59 1
143 78 1
143 98 1
143 103 1
143 230 1
143 249 1
143 262 1
143 267 1
143 337 1
143 363 1
143 376 1
143 381 1
143 394 1
143 420 1
143 433 1
143 438 1
144 60 1
144 79 1
144 92 1
144 104 1
144 231 1
144 250 1
144 263 1
144 268 1
144 338 1
144 364 1
144 377 1
144 382 1
144 395 1
144 414 1
144 434 1
144 439 1
145 61 1
145 80 1
145 93 1
145 105 1
145 225 1
145 251 1
145 264 1
145 269 1
145 339 1
145 358 1
145 378 1
145 383 1
145 396 1
145 415 1
145 428 1
145 440 1
146 62 1
146 81 1
146 94 1
146 99 1
146 226 1
146 252 1
146 265 1
146 270 1
146 340 1
146 359 1
146 372 1
146 384 1
146 397 1
146 416 1
146 429 1
146 441 1
147 63 1
147 82 1
147 95 1
147 100 1
147 227 1
147 246 1
147 266 1
147 271 1
147 341 1
147 360 1
147 373 1
147 385 1
147 398 1
147 417 1
147 430 1
147 435 1
148 64 1
148 83 1
148 96 1
148 107 1
148 235 1
148 247 1
148 260 1
148 278 1
148 349 1
148 361 1
148 374 1
148 392 1
148 406 1
148 418 1
148 431 1
148 442 1
149 65 1
149 84 1
149 97 1
149 108 1
149 236 1
149 248 1
149 261 1
149 279 1
149 350 1
149 362 1
149 375 1
149 386 1
149 400 1
149 419 1
149 432 1
149 443 1
150 66 1
150 78 1
150 98 1
150 109 1
150 237 1
150 249 1
150 262 1
150 280 1
150 344 1
150 363 1
150 376 1
150 387 1
150 401 1
150 420 1
150 433 1
150 444 1
151 67 1
151 79 1
151 92 1
151 110 1
151 238 1
151 250 1
151 263 1
151 274 1
151 345 1
151 364 1
151 377 1
151 388 1
151 402 1
151 414 1
151 434 1
151 445 1
152 68 1
152 80 1
152 93 1
152 111 1
152 232 1
152 251 1
152 264 1
152 275 1
152 346 1
152 358 1
152 378 1
152 389 1
152 403 1
152 415 1
152 428 1
152 446 1
153 69 1
153 81 1
153 94 1
153 112 1
153 233 1
153 252 1
153 265 1
153 276 1
153 347 1
153 359 1
153 372 1
153 390 1
153 404 1
153 416 1
153 429 1
153 447 1
154 70 1
154 82 1
154 95 1
154 106 1
154 234 1
154 246 1
154 266 1
154 277 1
154 348 1
154 360 1
154 373 1
154 391 1
154 405 1
154 417 1
154 430 1
154 448 1
155 77 1
155 83 1
155 101 1
155 107 1
155 241 1
155 247 1
155 272 1
155 278 1
155 355 1
155 361 1
155 379 1
155 392 1
155 412 1
155 418 1
155 436 1
155 442 1
156 71 1
156 84 1
156 102 1
156 108 1
156 242 1
156 248 1
156 273 1
156 279 1
156 356 1
156 362 1
156 380 1
156 386 1
156 413 1
156 419 1
156 437 1
156 443 1
157 72 1
157 78 1
157 103 1
157 109 1
157 243 1
157 249 1
157 267 1
157 280 1
157 357 1
157 363 1
157 381 1
157 387 1
157 407 1
157 420 1
157 438 1
157 444 1
158 73 1
158 79 1
158 104 1
158 110 1
158 244 1
158 250 1
158 268 1
158 274 1
158 351 1
158 364 1
158 382 1
158 388 1
158 408 1
158 414 1
158 439 1
158 445 1
159 74 1
159 80 1
159 105 1
159 111 1
159 245 1
159 251 1
159 269 1
159 275 1
159 352 1
159 358 1
159 383 1
159 389 1
159 409 1
159 415 1
159 440 1
159 446 1
160 75 1
160 81 1
160 99 1
160 112 1
160 239 1
160 252 1
160 270 1
160 276 1
160 353 1
160 359 1
160 384 1
160 390 1
160 410 1
160 416 1
160 441 1
160 447 1
161 76 1
161 82 1
161 100 1
161 106 1
161 240 1
161 246 1
161 271 1
161 277 1
161 354 1
161 360 1
161 385 1
161 391 1
161 411 1
161 417 1
161 435 1
161 448 1
162 90 1
162 96 1
162 101 1
162 107 1
162 254 1
162 260 1
162 272 1
162 278 1
162 368 1
162 374 1
162 379 1
162 392 1
162 425 1
162 431 1
162 436 1
162 442 1
163 91 1
163 97 1
163 102 1
163 108 1
163 255 1
163 261 1
163 273 1
163 279 1
163 369 1
163 375 1
163 380 1
163 386 1
163 426 1
163 432 1
163 437 1
163 443 1
164 85 1
164 98 1
164 103 1
164 109 1
164 256 1
164 262 1
164 267 1
164 280 1
164 370 1
164 376 1
164 381 1
164 387 1
164 427 1
164 433 1
164 438 1
164 444 1
165 86 1
165 92 1
165 104 1
165 110 1
165 257 1
165 263 1
165 268 1
165 274 1
165 371 1
165 377 1
165 382 1
165 388 1
165 421 1
165 434 1
165 439 1
165 445 1
166 87 1
166 93 1
166 105 1
166 111 1
166 258 1
166 264 1
166 269 1
166 275 1
166 365 1
166 378 1
166 383 1
166 389 1
166 422 1
166 428 1
166 440 1
166 446 1
167 88 1
167 94 1
167 99 1
167 112 1
167 259 1
167 265 1
167 270 1
167 276 1
167 366 1
167 372 1
167 384 1
167 390 1
167 423 1
167 429 1
167 441 1
167 447 1
168 89 1
168 95 1
168 100 1
168 106 1
168 253 1
168 266 1
168 271 1
168 277 1
168 367 1
168 373 1
168 385 1
168 391 1
168 424 1
168 430 1
168 435 1
168 448 1
169 114 1
169 140 1
169 153 1
169 158 1
169 285 1
169 304 1
169 317 1
169 329 1
169 342 1
169 361 1
169 374 1
169 379 1
169 399 1
169 418 1
169 431 1
169 436 1
170 115 1
170 134 1
170 154 1
170 159 1
170 286 1
170 305 1
170 318 1
170 323 1
170 343 1
170 362 1
170 375 1
170 380 1
170 393 1
170 419 1
170 432 1
170 437 1
171 116 1
171 135 1
171 148 1
171 160 1
171 287 1
171 306 1
171 319 1
171 324 1
171 337 1
171 363 1
171 376 1
171 381 1
171 394 1
171 420 1
171 433 1
171 438 1
172 117 1
172 136 1
172 149 1
172 161 1
172 281 1
172 307 1
172 320 1
172 325 1
172 338 1
172 364 1
172 377 1
172 382 1
172 395 1
172 414 1
172 434 1
172 439 1
173 118 1
173 137 1
173 150 1
173 155 1
173 282 1
173 308 1
173 321 1
173 326 1
173 339 1
173 358 1
173 378 1
173 383 1
173 396 1
173 415 1
173 428 1
173 440 1
174 119 1
174 138 1
174 151 1
174 156 1
174 283 1
174 302 1
174 322 1
174 327 1
174 340 1
174 359 1
174 372 1
174 384 1
174 397 1
174 416 1
174 429 1
174 441 1
175 113 1
175 139 1
175 152 1
175 157 1
175 284 1
175 303 1
175 316 1
175 328 1
175 341 1
175 360 1
175 373 1
175 385 1
175 398 1
175 417 1
175 430 1
175 435 1
176 121 1
176 140 1
176 153 1
176 164 1
176 292 1
176 304 1
176 317 1
176 335 1
176 349 1
176 361 1
176 374 1
176 392 1
176 406 1
176 418 1
176 431 1
176 442 1
177 122 1
177 134 1
177 154 1
177 165 1
177 293 1
177 305 1
177 318 1
177 336 1
177 350 1
177 362 1
177 375 1
177 386 1
177 400 1
177 419 1
177 432 1
177 443 1
178 123 1
178 135 1
178 148 1
178 166 1
178 294 1
178 306 1
178 319 1
178 330 1
178 344 1
178 363 1
178 376 1
178 387 1
178 401 1
178 420 1
178 433 1
178 444 1
179 124 1
179 136 1
179 149 1
179 167 1
179 288 1
179 307 1
179 320 1
179 331 1
179 345 1
179 364 1
179 377 1
179 388 1
179 402 1
179 414 1
179 434 1
179 445 1
180 125 1
180 137 1
180 150 1
180 168 1
180 289 1
180 308 1
180 321 1
180 332 1
180 346 1
180 358 1
180 378 1
180 389 1
180 403 1
180 415 1
180 428 1
180 446 1
181 126 1
181 138 1
181 151 1
181 162 1
181 290 1
181 302 1
181 322 1
181 333 1
181 347 1
181 359 1
181 372 1
181 390 1
181 404 1
181 416 1
181 429 1
181 447 1
182 120 1
182 139 1
182 152 1
182 163 1
182 291 1
182 303 1
182 316 1
182 334 1
182 348 1
182 360 1
182 373 1
182 391 1
182 405 1
182 417 1
182 430 1
182 448 1
183 127 1
183 140 1
183 158 1
183 164 1
183 298 1
183 304 1
183 329 1
183 335 1
183 355 1
183 361 1
183 379 1
183 392 1
183 412 1
183 418 1
183 436 1
183 442 1
184 128 1
184 134 1
184 159 1
184 165 1
184 299 1
184 305 1
184 323 1
184 336 1
184 356 1
184 362 1
184 380 1
184 386 1
184 413 1
184 419 1
184 437 1
184 443 1
185 129 1
185 135 1
185 160 1
185 166 1
185 300 1
185 306 1
185 324 1
185 330 1
185 357 1
185 363 1
185 381 1
185 387 1
185 407 1
185 420 1
185 438 1
185 444 1
186 130 1
186 136 1
186 161 1
186 167 1
186 301 1
186 307 1
186 325 1
186 331 1
186 351 1
186 364 1
186 382 1
186 388 1
186 408 1
186 414 1
186 439 1
186 445 1
187 131 1
187 137 1
187 155 1
187 168 1
187 295 1
187 308 1
187 326 1
187 332 1
187 352 1
187 358 1
187 383 1
187 389 1
187 409 1
187 415 1
187 440 1
187 446 1
188 132 1
188 138 1
188 156 1
188 162 1
188 296 1
188 302 1
188 327 1
188 333 1
188 353 1
188 359 1
188 384 1
188 390 1
188 410 1
188 416 1
188 441 1
188 447 1
189 133 1
189 139 1
189 157 1
189 163 1
189 297 1
189 303 1
189 328 1
189 334 1
189 354 1
189 360 1
189 385 1
189 391 1
189 411 1
189 417 1
189 435 1
189 448 1
190 147 1
190 153 1
190 158 1
190 164 1
190 311 1
190 317 1
190 329 1
190 335 1
190 368 1
190 374 1
190 379 1
190 392 1
190 425 1
190 431 1
190 436 1
190 442 1
191 141 1
191 154 1
191 159 1
191 165 1
191 312 1
191 318 1
191 323 1
191 336 1
191 369 1
191 375 1
191 380 1
191 386 1
191 426 1
191 432 1
191 437 1
191 443 1
192 142 1
192 148 1
192 160 1
192 166 1
192 313 1
192 319 1
192 324 1
192 330 1
192 370 1
192 376 1
192 381 1
192 387 1
192 427 1
192 433 1
192 438 1
192 444 1
193 143 1
193 149 1
193 161 1
193 167 1
193 314 1
193 320 1
193 325 1
193 331 1
193 371 1
193 377 1
193 382 1
193 388 1
193 421 1
193 434 1
193 439 1
193 445 1
194 144 1
194 150 1
194 155 1
194 168 1
194 315 1
194 321 1
194 326 1
194 332 1
194 365 1
194 378 1
194 383 1
194 389 1
194 422 1
194 428 1
194 440 1
194 446 1
195 145 1
195 151 1
195 156 1
195 162 1
195 309 1
195 322 1
195 327 1
195 333 1
195 366 1
195 372 1
195 384 1
195 390 1
195 423 1
195 429 1
195 441 1
195 447 1
196 146 1
196 152 1
196 157 1
196 163 1
196 310 1
196 316 1
196 328 1
196 334 1
196 367 1
196 373 1
196 385 1
196 391 1
196 424 1
196 430 1
196 435 1
196 448 1
197 172 1
197 191 1
197 204 1
197 216 1
197 228 1
197 247 1
197 260 1
197 272 1
197 285 1
197 304 1
197 317 1
197 329 1
197 399 1
197 418 1
197 431 1
197 436 1
198 173 1
198 192 1
198 205 1
198 217 1
198 229 1
198 248 1
198 261 1
198 273 1
198 286 1
198 305 1
198 318 1
198 323 1
198 393 1
198 419 1
198 432 1
198 437 1
199 174 1
199 193 1
199 206 1
199 211 1
199 230 1
199 249 1
199 262 1
199 267 1
199 287 1
199 306 1
199 319 1
199 324 1
199 394 1
199 420 1
199 433 1
199 438 1
200 175 1
200 194 1
200 207 1
200 212 1
200 231 1
200 250 1
200 263 1
200 268 1
200 281 1
200 307 1
200 320 1
200 325 1
200 395 1
200 414 1
200 434 1
200 439 1
201 169 1
201 195 1
201 208 1
201 213 1
201 225 1
201 251 1
201 264 1
201 269 1
201 282 1
201 308 1
201 321 1
201 326 1
201 396 1
201 415 1
201 428 1
201 440 1
202 170 1
202 196 1
202 209 1
202 214 1
202 226 1
202 252 1
202 265 1
202 270 1
202 283 1
202 302 1
202 322 1
202 327 1
202 397 1
202 416 1
202 429 1
202 441 1
203 171 1
203 190 1
203 210 1
203 215 1
203 227 1
203 246 1
203 266 1
203 271 1
203 284 1
203 303 1
203 316 1
203 328 1
203 398 1
203 417 1
203 430 1
203 435 1
204 179 1
204 191 1
204 204 1
204 222 1
204 235 1
204 247 1
204 260 1
204 278 1
204 292 1
204 304 1
204 317 1
204 335 1
204 406 1
204 418 1
204 431 1
204 442 1
205 180 1
205 192 1
205 205 1
205 223 1
205 236 1
205 248 1
205 261 1
205 279 1
205 293 1
205 305 1
205 318 1
205 336 1
205 400 1
205 419 1
205 432 1
205 443 1
206 181 1
206 193 1
206 206 1
206 224 1
206 237 1
206 249 1
206 262 1
206 280 1
206 294 1
206 306 1
206 319 1
206 330 1
206 401 1
206 420 1
206 433 1
206 444 1
207 182 1
207 194 1
207 207 1
207 218 1
207 238 1
207 250 1
207 263 1
207 274 1
207 288 1
207 307 1
207 320 1
207 331 1
207 402 1
207 414 1
207 434 1
207 445 1
208 176 1
208 195 1
208 208 1
208 219 1
208 232 1
208 251 1
208 264 1
208 275 1
208 289 1
208 308 1
208 321 1
208 332 1
208 403 1
208 415 1
208 428 1
208 446 1
209 177 1
209 196 1
209 209 1
209 220 1
209 233 1
209 252 1
209 265 1
209 276 1
209 290 1
209 302 1
209 322 1
209 333 1
209 404 1
209 416 1
209 429 1
209 447 1
210 178 1
210 190 1
210 210 1
210 221 1
210 234 1
210 246 1
210 266 1
210 277 1
210 291 1
210 303 1
210 316 1
210 334 1
210 405 1
210 417 1
210 430 1
210 448 1
211 185 1
211 191 1
211 216 1
211 222 1
211 241 1
211 247 1
211 272 1
211 278 1
211 298 1
211 304 1
211 329 1
211 335 1
211 412 1
211 418 1
211 436 1
211 442 1
212 186 1
212 192 1
212 217 1
212 223 1
212 242 1
212 248 1
212 273 1
212 279 1
212 299 1
212 305 1
212 323 1
212 336 1
212 413 1
212 419 1
212 437 1
212 443 1
213 187 1
213 193 1
213 211 1
213 224 1
213 243 1
213 249 1
213 267 1
213 280 1
213 300 1
213 306 1
213 324 1
213 330 1
213 407 1
213 420 1
213 438 1
213 444 1
214 188 1
214 194 1
214 212 1
214 218 1
214 244 1
214 250 1
214 268 1
214 274 1
214 301 1
214 307 1
214 325 1
214 331 1
214 408 1
214 414 1
214 439 1
214 445 1
215 189 1
215 195 1
215 213 1
215 219 1
215 245 1
215 251 1
215 269 1
215 275 1
215 295 1
215 308 1
215 326 1
215 332 1
215 409 1
215 415 1
215 440 1
215 446 1
216 183 1
216 196 1
216 214 1
216 220 1
216 239 1
216 252 1
216 270 1
216 276 1
216 296 1
216 302 1
216 327 1
216 333 1
216 410 1
216 416 1
216 441 1
216 447 1
217 184 1
217 190 1
217 215 1
217 221 1
217 240 1
217 246 1
217 271 1
217 277 1
217 297 1
217 303 1
217 328 1
217 334 1
217 411 1
217 417 1
217 435 1
217 448 1
218 198 1
218 204 1
218 216 1
218 222 1
218 254 1
218 260 1
218 272 1
218 278 1
218 311 1
218 317 1
218 329 1
218 335 1
218 425 1
218 431 1
218 436 1
218 442 1
219 199 1
219 205 1
219 217 1
219 223 1
219 255 1
219 261 1
219 273 1
219 279 1
219 312 1
219 318 1
219 323 1
219 336 1
219 426 1
219 432 1
219 437 1
219 443 1
220 200 1
220 206 1
220 211 1
220 224 1
220 256 1
220 262 1
220 267 1
220 280 1
220 313 1
220 319 1
220 324 1
220 330 1
220 427 1
220 433 1
220 438 1
220 444 1
221 201 1
221 207 1
221 212 1
221 218 1
221 257 1
221 263 1
221 268 1
221 274 1
221 314 1
221 320 1
221 325 1
221 331 1
221 421 1
221 434 1
221 439 1
221 445 1
222 202 1
222 208 1
222 213 1
222 219 1
222 258 1
222 264 1
222 269 1
222 275 1
222 315 1
222 321 1
222 326 1
222 332 1
222 422 1
222 428 1
222 440 1
222 446 1
223 203 1
223 209 1
223 214 1
223 220 1
223 259 1
223 265 1
223 270 1
223 276 1
223 309 1
223 322 1
223 327 1
223 333 1
223 423 1
223 429 1
223 441 1
223 447 1
224 197 1
224 210 1
224 215 1
224 221 1
224 253 1
224 266 1
224 271 1
224 277 1
224 310 1
224 316 1
224 328 1
224 334 1
224 424 1
224 430 1
224 435 1
224 448 1
