%%MatrixMarket matrix coordinate integer general
288 576 2592
1 1 1
1 49 1
1 65 1
1 97 1
1 145 1
1 161 1
1 289 1
1 337 1
1 353 1
2 2 1
2 50 1
2 66 1
2 98 1
2 146 1
2 162 1
2 290 1
2 338 1
2 354 1
3 3 1
3 51 1
3 67 1
3 99 1
3 147 1
3 163 1
3 291 1
3 339 1
3 355 1
4 4 1
4 52 1
4 68 1
4 100 1
4 148 1
4 164 1
4 292 1
4 340 1
4 356 1
5 5 1
5 53 1
5 69 1
5 101 1
5 149 1
5 165 1
5 293 1
5 341 1
5 357 1
6 6 1
6 54 1
6 70 1
6 102 1
6 150 1
6 166 1
6 294 1
6 342 1
6 358 1
7 7 1
7 55 1
7 71 1
7 103 1
7 151 1
7 167 1
7 295 1
7 343 1
7 359 1
8 8 1
8 56 1
8 72 1
8 104 1
8 152 1
8 168 1
8 296 1
8 344 1
8 360 1
9 9 1
9 57 1
9 73 1
9 105 1
9 153 1
9 169 1
9 297 1
9 345 1
9 361 1
10 10 1
10 58 1
10 74 1
10 106 1
10 154 1
10 170 1
10 298 1
10 346 1
10 362 1
11 11 1
11 59 1
11 75 1
11 107 1
11 155 1
11 171 1
11 299 1
11 347 1
11 363 1
12 12 1
12 60 1
12 76 1
12 108 1
12 156 1
12 172 1
12 300 1
12 348 1
12 364 1
13 13 1
13 61 1
13 77 1
13 109 1
13 157 1
13 173 1
13 301 1
13 349 1
13 365 1
14 14 1
14 62 1
14 78 1
14 110 1
14 158 1
14 174 1
14 302 1
14 350 1
14 366 1
15 15 1
15 63 1
15 79 1
15 111 1
15 159 1
15 175 1
15 303 1
15 351 1
15 367 1
16 16 1
16 64 1
16 80 1
16 112 1
16 160 1
16 176 1
16 304 1
16 352 1
16 368 1
17 17 1
17 49 1
17 81 1
17 113 1
17 145 1
17 177 1
17 305 1
17 337 1
17 369 1
18 18 1
18 50 1
18 82 1
18 114 1
18 146 1
18 178 1
18 306 1
18 338 1
18 370 1
19 19 1
19 51 1
19 83 1
19 115 1
19 147 1
19 179 1
19 307 1
19 339 1
19 371 1
20 20 1
20 52 1
20 84 1
20 116 1
20 148 1
20 180 1
20 308 1
20 340 1
20 372 1
21 21 1
21 53 1
21 85 1
21 117 1
21 149 1
21 181 1
21 309 1
21 341 1
21 373 1
22 22 1
22 54 1
22 86 1
22 118 1
22 150 1
22 182 1
22 310 1
22 342 1
22 374 1
23 23 1
23 55 1
23 87 1
23 119 1
23 151 1
23 183 1
23 311 1
23 343 1
23 375 1
24 24 1
24 56 1
24 88 1
24 120 1
24 152 1
24 184 1
24 312 1
24 344 1
24 376 1
25 25 1
25 57 1
25 89 1
25 121 1
25 153 1
25 185 1
25 313 1
25 345 1
25 377 1
26 26 1
26 58 1
26 90 1
26 122 1
26 154 1
26 186 1
26 314 1
26 346 1
26 378 1
27 27 1
27 59 1
27 91 1
27 123 1
27 155 1
27 187 1
27 315 1
27 347 1
27 379 1
28 28 1
28 60 1
28 92 1
28 124 1
28 156 1
28 188 1
28 316 1
28 348 1
28 380 1
29 29 1
29 61 1
29 93 1
29 125 1
29 157 1
29 189 1
29 317 1
29 349 1
29 381 1
30 30 1
30 62 1
30 94 1
30 126 1
30 158 1
30 190 1
30 318 1
30 350 1
30 382 1
31 31 1
31 63 1
31 95 1
31 127 1
31 159 1
31 191 1
31 319 1
31 351 1
31 383 1
32 32 1
32 64 1
32 96 1
32 128 1
32 160 1
32 192 1
32 320 1
32 352 1
32 384 1
33 33 1
33 65 1
33 81 1
33 129 1
33 161 1
33 177 1
33 321 1
33 353 1
33 369 1
34 34 1
34 66 1
34 82 1
34 130 1
34 162 1
34 178 1
34 322 1
34 354 1
34 370 1
35 35 1
35 67 1
35 83 1
35 131 1
35 163 1
35 179 1
35 323 1
35 355 1
35 371 1
36 36 1
36 68 1
36 84 1
36 132 1
36 164 1
36 180 1
36 324 1
36 356 1
36 372 1
37 37 1
37 69 1
37 85 1
37 133 1
37 165 1
37 181 1
37 325 1
37 357 1
37 373 1
38 38 1
38 70 1
38 86 1
38 134 1
38 166 1
38 182 1
38 326 1
38 358 1
38 374 1
39 39 1
39 71 1
39 87 1
39 135 1
39 167 1
39 183 1
39 327 1
39 359 1
39 375 1
40 40 1
40 72 1
40 88 1
40 136 1
40 168 1
40 184 1
40 328 1
40 360 1
40 376 1
41 41 1
41 73 1
41 89 1
41 137 1
41 169 1
41 185 1
41 329 1
41 361 1
41 377 1
42 42 1
42 74 1
42 90 1
42 138 1
42 170 1
42 186 1
42 330 1
42 362 1
42 378 1
43 43 1
43 75 1
43 91 1
43 139 1
43 171 1
43 187 1
43 331 1
43 363 1
43 379 1
44 44 1
44 76 1
44 92 1
44 140 1
44 172 1
44 188 1
44 332 1
44 364 1
44 380 1
45 45 1
45 77 1
45 93 1
45 141 1
45 173 1
45 189 1
45 333 1
45 365 1
45 381 1
46 46 1
46 78 1
46 94 1
46 142 1
46 174 1
46 190 1
46 334 1
46 366 1
46 382 1
47 47 1
47 79 1
47 95 1
47 143 1
47 175 1
47 191 1
47 335 1
47 367 1
47 383 1
48 48 1
48 80 1
48 96 1
48 144 1
48 176 1
48 192 1
48 336 1
48 368 1
48 384 1
49 1 1
49 49 1
49 65 1
49 193 1
49 241 1
49 257 1
49 385 1
49 433 1
49 449 1
50 2 1
50 50 1
50 66 1
50 194 1
50 242 1
50 258 1
50 386 1
50 434 1
50 450 1
51 3 1
51 51 1
51 67 1
51 195 1
51 243 1
51 259 1
51 387 1
51 435 1
51 451 1
52 4 1
52 52 1
52 68 1
52 196 1
52 244 1
52 260 1
52 388 1
52 436 1
52 452 1
53 5 1
53 53 1
53 69 1
53 197 1
53 245 1
53 261 1
53 389 1
53 437 1
53 453 1
54 6 1
54 54 1
54 70 1
54 198 1
54 246 1
54 262 1
54 390 1
54 438 1
54 454 1
55 7 1
55 55 1
55 71 1
55 199 1
55 247 1
55 263 1
55 391 1
55 439 1
55 455 1
56 8 1
56 56 1
56 72 1
56 200 1
56 248 1
56 264 1
56 392 1
56 440 1
56 456 1
57 9 1
57 57 1
57 73 1
57 201 1
57 249 1
57 265 1
57 393 1
57 441 1
57 457 1
58 10 1
58 58 1
58 74 1
58 202 1
58 250 1
58 266 1
58 394 1
58 442 1
58 458 1
59 11 1
59 59 1
59 75 1
59 203 1
59 251 1
59 267 1
59 395 1
59 443 1
59 459 1
60 12 1
60 60 1
60 76 1
60 204 1
60 252 1
60 268 1
60 396 1
60 444 1
60 460 1
61 13 1
61 61 1
61 77 1
61 205 1
61 253 1
61 269 1
61 397 1
61 445 1
61 461 1
62 14 1
62 62 1
62 78 1
62 206 1
62 254 1
62 270 1
62 398 1
62 446 1
62 462 1
63 15 1
63 63 1
63 79 1
63 207 1
63 255 1
63 271 1
63 399 1
63 447 1
63 463 1
64 16 1
64 64 1
64 80 1
64 208 1
64 256 1
64 272 1
64 400 1
64 448 1
64 464 1
65 17 1
65 49 1
65 81 1
65 209 1
65 241 1
65 273 1
65 401 1
65 433 1
65 465 1
66 18 1
66 50 1
66 82 1
66 210 1
66 242 1
66 274 1
66 402 1
66 434 1
66 466 1
67 19 1
67 51 1
67 83 1
67 211 1
67 243 1
67 275 1
67 403 1
67 435 1
67 467 1
68 20 1
68 52 1
68 84 1
68 212 1
68 244 1
68 276 1
68 404 1
68 436 1
68 468 1
69 21 1
69 53 1
69 85 1
69 213 1
69 245 1
69 277 1
69 405 1
69 437 1
69 469 1
70 22 1
70 54 1
70 86 1
70 214 1
70 246 1
70 278 1
70 406 1
70 438 1
70 470 1
71 23 1
71 55 1
71 87 1
71 215 1
71 247 1
71 279 1
71 407 1
71 439 1
71 471 1
72 24 1
72 56 1
72 88 1
72 216 1
72 248 1
72 280 1
72 408 1
72 440 1
72 472 1
73 25 1
73 57 1
73 89 1
73 217 1
73 249 1
73 281 1
73 409 1
73 441 1
73 473 1
74 26 1
74 58 1
74 90 1
74 218 1
74 250 1
74 282 1
74 410 1
74 442 1
74 474 1
75 27 1
75 59 1
75 91 1
75 219 1
75 251 1
75 283 1
75 411 1
75 443 1
75 475 1
76 28 1
76 60 1
76 92 1
76 220 1
76 252 1
76 284 1
76 412 1
76 444 1
76 476 1
77 29 1
77 61 1
77 93 1
77 221 1
77 253 1
77 285 1
77 413 1
77 445 1
77 477 1
78 30 1
78 62 1
78 94 1
78 222 1
78 254 1
78 286 1
78 414 1
78 446 1
78 478 1
79 31 1
79 63 1
79 95 1
79 223 1
79 255 1
79 287 1
79 415 1
79 447 1
79 479 1
80 32 1
80 64 1
80 96 1
80 224 1
80 256 1
80 288 1
80 416 1
80 448 1
80 480 1
81 33 1
81 65 1
81 81 1
81 225 1
81 257 1
81 273 1
81 417 1
81 449 1
81 465 1
82 34 1
82 66 1
82 82 1
82 226 1
82 258 1
82 274 1
82 418 1
82 450 1
82 466 1
83 35 1
83 67 1
83 83 1
83 227 1
83 259 1
83 275 1
83 419 1
83 451 1
83 467 1
84 36 1
84 68 1
84 84 1
84 228 1
84 260 1
84 276 1
84 420 1
84 452 1
84 468 1
85 37 1
85 69 1
85 85 1
85 229 1
85 261 1
85 277 1
85 421 1
85 453 1
85 469 1
86 38 1
86 70 1
86 86 1
86 230 1
86 262 1
86 278 1
86 422 1
86 454 1
86 470 1
87 39 1
87 71 1
87 87 1
87 231 1
87 263 1
87 279 1
87 423 1
87 455 1
87 471 1
88 40 1
88 72 1
88 88 1
88 232 1
88 264 1
88 280 1
88 424 1
88 456 1
88 472 1
89 41 1
89 73 1
89 89 1
89 233 1
89 265 1
89 281 1
89 425 1
89 457 1
89 473 1
90 42 1
90 74 1
90 90 1
90 234 1
90 266 1
90 282 1
90 426 1
90 458 1
90 474 1
91 43 1
91 75 1
91 91 1
91 235 1
91 267 1
91 283 1
91 427 1
91 459 1
91 475 1
92 44 1
92 76 1
92 92 1
92 236 1
92 268 1
92 284 1
92 428 1
92 460 1
92 476 1
93 45 1
93 77 1
93 93 1
93 237 1
93 269 1
93 285 1
93 429 1
93 461 1
93 477 1
94 46 1
94 78 1
94 94 1
94 238 1
94 270 1
94 286 1
94 430 1
94 462 1
94 478 1
95 47 1
95 79 1
95 95 1
95 239 1
95 271 1
95 287 1
95 431 1
95 463 1
95 479 1
96 48 1
96 80 1
96 96 1
96 240 1
96 272 1
96 288 1
96 432 1
96 464 1
96 480 1
97 97 1
97 145 1
97 161 1
97 193 1
97 241 1
97 257 1
97 481 1
97 529 1
97 545 1
98 98 1
98 146 1
98 162 1
98 194 1
98 242 1
98 258 1
98 482 1
98 530 1
98 546 1
99 99 1
99 147 1
99 163 1
99 195 1
99 243 1
99 259 1
99 483 1
99 531 1
99 547 1
100 100 1
100 148 1
100 164 1
100 196 1
100 244 1
100 260 1
100 484 1
100 532 1
100 548 1
101 101 1
101 149 1
101 165 1
101 197 1
101 245 1
101 261 1
101 485 1
101 533 1
101 549 1
102 102 1
102 150 1
102 166 1
102 198 1
102 246 1
102 262 1
102 486 1
102 534 1
102 550 1
103 103 1
103 151 1
103 167 1
103 199 1
103 247 1
103 263 1
103 487 1
103 535 1
103 551 1
104 104 1
104 152 1
104 168 1
104 200 1
104 248 1
104 264 1
104 488 1
104 536 1
104 552 1
105 105 1
105 153 1
105 169 1
105 201 1
105 249 1
105 265 1
105 489 1
105 537 1
105 553 1
106 106 1
106 154 1
106 170 1
106 202 1
106 250 1
106 266 1
106 490 1
106 538 1
106 554 1
107 107 1
107 155 1
107 171 1
107 203 1
107 251 1
107 267 1
107 491 1
107 539 1
107 555 1
108 108 1
108 156 1
108 172 1
108 204 1
108 252 1
108 268 1
108 492 1
108 540 1
108 556 1
109 109 1
109 157 1
109 173 1
109 205 1
109 253 1
109 269 1
109 493 1
109 541 1
109 557 1
110 110 1
110 158 1
110 174 1
110 206 1
110 254 1
110 270 1
110 494 1
110 542 1
110 558 1
111 111 1
111 159 1
111 175 1
111 207 1
111 255 1
111 271 1
111 495 1
111 543 1
111 559 1
112 112 1
112 160 1
112 176 1
112 208 1
112 256 1
112 272 1
112 496 1
112 544 1
112 560 1
113 113 1
113 145 1
113 177 1
113 209 1
113 241 1
113 273 1
113 497 1
113 529 1
113 561 1
114 114 1
114 146 1
114 178 1
114 210 1
114 242 1
114 274 1
114 498 1
114 530 1
114 562 1
115 115 1
115 147 1
115 179 1
115 211 1
115 243 1
115 275 1
115 499 1
115 531 1
115 563 1
116 116 1
116 148 1
116 180 1
116 212 1
116 244 1
116 276 1
116 500 1
116 532 1
116 564 1
117 117 1
117 149 1
117 181 1
117 213 1
117 245 1
117 277 1
117 501 1
117 533 1
117 565 1
118 118 1
118 150 1
118 182 1
118 214 1
118 246 1
118 278 1
118 502 1
118 534 1
118 566 1
119 119 1
119 151 1
119 183 1
119 215 1
119 247 1
119 279 1
119 503 1
119 535 1
119 567 1
120 120 1
120 152 1
120 184 1
120 216 1
120 248 1
120 280 1
120 504 1
120 536 1
120 568 1
121 121 1
121 153 1
121 185 1
121 217 1
121 249 1
121 281 1
121 505 1
121 537 1
121 569 1
122 122 1
122 154 1
122 186 1
122 218 1
122 250 1
122 282 1
122 506 1
122 538 1
122 570 1
123 123 1
123 155 1
123 187 1
123 219 1
123 251 1
123 283 1
123 507 1
123 539 1
123 571 1
124 124 1
124 156 1
124 188 1
124 220 1
124 252 1
124 284 1
124 508 1
124 540 1
124 572 1
125 125 1
125 157 1
125 189 1
125 221 1
125 253 1
125 285 1
125 509 1
125 541 1
125 573 1
126 126 1
126 158 1
126 190 1
126 222 1
126 254 1
126 286 1
126 510 1
126 542 1
126 574 1
127 127 1
127 159 1
127 191 1
127 223 1
127 255 1
127 287 1
127 511 1
127 543 1
127 575 1
128 128 1
128 160 1
128 192 1
128 224 1
128 256 1
128 288 1
128 512 1
128 544 1
128 576 1
129 129 1
129 161 1
129 177 1
129 225 1
129 257 1
129 273 1
129 513 1
129 545 1
129 561 1
130 130 1
130 162 1
130 178 1
130 226 1
130 258 1
130 274 1
130 514 1
130 546 1
130 562 1
131 131 1
131 163 1
131 179 1
131 227 1
131 259 1
131 275 1
131 515 1
131 547 1
131 563 1
132 132 1
132 164 1
132 180 1
132 228 1
132 260 1
132 276 1
132 516 1
132 548 1
132 564 1
133 133 1
133 165 1
133 181 1
133 229 1
133 261 1
133 277 1
133 517 1
133 549 1
133 565 1
134 134 1
134 166 1
134 182 1
134 230 1
134 262 1
134 278 1
134 518 1
134 550 1
134 566 1
135 135 1
135 167 1
135 183 1
135 231 1
135 263 1
135 279 1
135 519 1
135 551 1
135 567 1
136 136 1
136 168 1
136 184 1
136 232 1
136 264 1
136 280 1
136 520 1
136 552 1
136 568 1
137 137 1
137 169 1
137 185 1
137 233 1
137 265 1
137 281 1
137 521 1
137 553 1
137 569 1
138 138 1
138 170 1
138 186 1
138 234 1
138 266 1
138 282 1
138 522 1
138 554 1
138 570 1
139 139 1
139 171 1
139 187 1
139 235 1
139 267 1
139 283 1
139 523 1
139 555 1
139 571 1
140 140 1
140 172 1
140 188 1
140 236 1
140 268 1
140 284 1
140 524 1
140 556 1
140 572 1
141 141 1
141 173 1
141 189 1
141 237 1
141 269 1
141 285 1
141 525 1
141 557 1
141 573 1
142 142 1
142 174 1
142 190 1
142 238 1
142 270 1
142 286 1
142 526 1
142 558 1
142 574 1
143 143 1
143 175 1
143 191 1
143 239 1
143 271 1
143 287 1
143 527 1
143 559 1
143 575 1
144 144 1
144 176 1
144 192 1
144 240 1
144 272 1
144 288 1
144 528 1
144 560 1
144 576 1
145 1 1
145 45 1
145 68 1
145 99 1
145 142 1
145 169 1
145 492 1
145 515 1
145 557 1
146 2 1
146 43 1
146 71 1
146 102 1
146 143 1
146 172 1
146 485 1
146 518 1
146 555 1
147 3 1
147 46 1
147 73 1
147 100 1
147 144 1
147 165 1
147 488 1
147 516 1
147 558 1
148 4 1
148 48 1
148 69 1
148 105 1
148 130 1
148 170 1
148 493 1
148 521 1
148 560 1
149 5 1
149 38 1
149 75 1
149 106 1
149 135 1
149 175 1
149 496 1
149 522 1
149 550 1
150 6 1
150 47 1
150 76 1
150 103 1
150 129 1
150 168 1
150 490 1
150 519 1
150 559 1
151 7 1
151 33 1
151 72 1
151 108 1
151 131 1
151 173 1
151 491 1
151 524 1
151 545 1
152 8 1
152 36 1
152 78 1
152 109 1
152 137 1
152 176 1
152 481 1
152 525 1
152 548 1
153 9 1
153 34 1
153 74 1
153 101 1
153 134 1
153 171 1
153 494 1
153 517 1
153 546 1
154 10 1
154 39 1
154 79 1
154 107 1
154 140 1
154 161 1
154 482 1
154 523 1
154 551 1
155 11 1
155 44 1
155 65 1
155 111 1
155 136 1
155 163 1
155 486 1
155 527 1
155 556 1
156 12 1
156 35 1
156 77 1
156 104 1
156 132 1
156 174 1
156 495 1
156 520 1
156 547 1
157 13 1
157 41 1
157 80 1
157 110 1
157 133 1
157 162 1
157 483 1
157 526 1
157 553 1
158 14 1
158 37 1
158 66 1
158 112 1
158 138 1
158 166 1
158 484 1
158 528 1
158 549 1
159 15 1
159 40 1
159 67 1
159 97 1
159 141 1
159 164 1
159 487 1
159 513 1
159 552 1
160 16 1
160 42 1
160 70 1
160 98 1
160 139 1
160 167 1
160 489 1
160 514 1
160 554 1
161 27 1
161 45 1
161 58 1
161 127 1
161 142 1
161 155 1
161 502 1
161 515 1
161 530 1
162 30 1
162 43 1
162 61 1
162 128 1
162 143 1
162 158 1
162 500 1
162 518 1
162 531 1
163 31 1
163 46 1
163 59 1
163 113 1
163 144 1
163 159 1
163 503 1
163 516 1
163 534 1
164 17 1
164 48 1
164 63 1
164 115 1
164 130 1
164 145 1
164 508 1
164 521 1
164 535 1
165 20 1
165 38 1
165 51 1
165 121 1
165 135 1
165 148 1
165 509 1
165 522 1
165 536 1
166 32 1
166 47 1
166 62 1
166 114 1
166 129 1
166 160 1
166 505 1
166 519 1
166 532 1
167 18 1
167 33 1
167 64 1
167 118 1
167 131 1
167 146 1
167 501 1
167 524 1
167 537 1
168 23 1
168 36 1
168 54 1
168 124 1
168 137 1
168 151 1
168 507 1
168 525 1
168 538 1
169 19 1
169 34 1
169 49 1
169 116 1
169 134 1
169 147 1
169 504 1
169 517 1
169 540 1
170 25 1
170 39 1
170 52 1
170 117 1
170 140 1
170 153 1
170 510 1
170 523 1
170 541 1
171 21 1
171 44 1
171 57 1
171 122 1
171 136 1
171 149 1
171 512 1
171 527 1
171 542 1
172 22 1
172 35 1
172 50 1
172 119 1
172 132 1
172 150 1
172 506 1
172 520 1
172 533 1
173 28 1
173 41 1
173 55 1
173 120 1
173 133 1
173 156 1
173 511 1
173 526 1
173 539 1
174 24 1
174 37 1
174 60 1
174 125 1
174 138 1
174 152 1
174 497 1
174 528 1
174 543 1
175 26 1
175 40 1
175 53 1
175 123 1
175 141 1
175 154 1
175 498 1
175 513 1
175 544 1
176 29 1
176 42 1
176 56 1
176 126 1
176 139 1
176 157 1
176 499 1
176 514 1
176 529 1
177 58 1
177 68 1
177 86 1
177 155 1
177 169 1
177 183 1
177 530 1
177 557 1
177 570 1
178 61 1
178 71 1
178 84 1
178 158 1
178 172 1
178 185 1
178 531 1
178 555 1
178 573 1
179 59 1
179 73 1
179 87 1
179 159 1
179 165 1
179 188 1
179 534 1
179 558 1
179 571 1
180 63 1
180 69 1
180 92 1
180 145 1
180 170 1
180 184 1
180 535 1
180 560 1
180 575 1
181 51 1
181 75 1
181 93 1
181 148 1
181 175 1
181 190 1
181 536 1
181 550 1
181 563 1
182 62 1
182 76 1
182 89 1
182 160 1
182 168 1
182 181 1
182 532 1
182 559 1
182 574 1
183 64 1
183 72 1
183 85 1
183 146 1
183 173 1
183 186 1
183 537 1
183 545 1
183 576 1
184 54 1
184 78 1
184 91 1
184 151 1
184 176 1
184 191 1
184 538 1
184 548 1
184 566 1
185 49 1
185 74 1
185 88 1
185 147 1
185 171 1
185 189 1
185 540 1
185 546 1
185 561 1
186 52 1
186 79 1
186 94 1
186 153 1
186 161 1
186 192 1
186 541 1
186 551 1
186 564 1
187 57 1
187 65 1
187 96 1
187 149 1
187 163 1
187 178 1
187 542 1
187 556 1
187 569 1
188 50 1
188 77 1
188 90 1
188 150 1
188 174 1
188 187 1
188 533 1
188 547 1
188 562 1
189 55 1
189 80 1
189 95 1
189 156 1
189 162 1
189 177 1
189 539 1
189 553 1
189 567 1
190 60 1
190 66 1
190 81 1
190 152 1
190 166 1
190 179 1
190 543 1
190 549 1
190 572 1
191 53 1
191 67 1
191 82 1
191 154 1
191 164 1
191 182 1
191 544 1
191 552 1
191 565 1
192 56 1
192 70 1
192 83 1
192 157 1
192 167 1
192 180 1
192 529 1
192 554 1
192 568 1
193 1 1
193 45 1
193 68 1
193 297 1
193 322 1
193 362 1
193 394 1
193 423 1
193 463 1
194 2 1
194 43 1
194 71 1
194 300 1
194 323 1
194 365 1
194 397 1
194 425 1
194 464 1
195 3 1
195 46 1
195 73 1
195 293 1
195 326 1
195 363 1
195 395 1
195 428 1
195 449 1
196 4 1
196 48 1
196 69 1
196 298 1
196 327 1
196 367 1
196 399 1
196 424 1
196 451 1
197 5 1
197 38 1
197 75 1
197 303 1
197 328 1
197 355 1
197 387 1
197 430 1
197 457 1
198 6 1
198 47 1
198 76 1
198 296 1
198 324 1
198 366 1
198 398 1
198 421 1
198 450 1
199 7 1
199 33 1
199 72 1
199 301 1
199 329 1
199 368 1
199 400 1
199 426 1
199 454 1
200 8 1
200 36 1
200 78 1
200 304 1
200 330 1
200 358 1
200 390 1
200 431 1
200 460 1
201 9 1
201 34 1
201 74 1
201 299 1
201 332 1
201 353 1
201 385 1
201 429 1
201 452 1
202 10 1
202 39 1
202 79 1
202 289 1
202 333 1
202 356 1
202 388 1
202 432 1
202 453 1
203 11 1
203 44 1
203 65 1
203 291 1
203 334 1
203 361 1
203 393 1
203 418 1
203 458 1
204 12 1
204 35 1
204 77 1
204 302 1
204 325 1
204 354 1
204 386 1
204 427 1
204 455 1
205 13 1
205 41 1
205 80 1
205 290 1
205 331 1
205 359 1
205 391 1
205 417 1
205 456 1
206 14 1
206 37 1
206 66 1
206 294 1
206 335 1
206 364 1
206 396 1
206 419 1
206 461 1
207 15 1
207 40 1
207 67 1
207 292 1
207 336 1
207 357 1
207 389 1
207 422 1
207 459 1
208 16 1
208 42 1
208 70 1
208 295 1
208 321 1
208 360 1
208 392 1
208 420 1
208 462 1
209 27 1
209 45 1
209 58 1
209 307 1
209 322 1
209 337 1
209 409 1
209 423 1
209 436 1
210 30 1
210 43 1
210 61 1
210 310 1
210 323 1
210 338 1
210 412 1
210 425 1
210 439 1
211 31 1
211 46 1
211 59 1
211 308 1
211 326 1
211 339 1
211 405 1
211 428 1
211 441 1
212 17 1
212 48 1
212 63 1
212 313 1
212 327 1
212 340 1
212 410 1
212 424 1
212 437 1
213 20 1
213 38 1
213 51 1
213 314 1
213 328 1
213 341 1
213 415 1
213 430 1
213 443 1
214 32 1
214 47 1
214 62 1
214 311 1
214 324 1
214 342 1
214 408 1
214 421 1
214 444 1
215 18 1
215 33 1
215 64 1
215 316 1
215 329 1
215 343 1
215 413 1
215 426 1
215 440 1
216 23 1
216 36 1
216 54 1
216 317 1
216 330 1
216 344 1
216 416 1
216 431 1
216 446 1
217 19 1
217 34 1
217 49 1
217 309 1
217 332 1
217 345 1
217 411 1
217 429 1
217 442 1
218 25 1
218 39 1
218 52 1
218 315 1
218 333 1
218 346 1
218 401 1
218 432 1
218 447 1
219 21 1
219 44 1
219 57 1
219 319 1
219 334 1
219 347 1
219 403 1
219 418 1
219 433 1
220 22 1
220 35 1
220 50 1
220 312 1
220 325 1
220 348 1
220 414 1
220 427 1
220 445 1
221 28 1
221 41 1
221 55 1
221 318 1
221 331 1
221 349 1
221 402 1
221 417 1
221 448 1
222 24 1
222 37 1
222 60 1
222 320 1
222 335 1
222 350 1
222 406 1
222 419 1
222 434 1
223 26 1
223 40 1
223 53 1
223 305 1
223 336 1
223 351 1
223 404 1
223 422 1
223 435 1
224 29 1
224 42 1
224 56 1
224 306 1
224 321 1
224 352 1
224 407 1
224 420 1
224 438 1
225 58 1
225 68 1
225 86 1
225 337 1
225 362 1
225 376 1
225 436 1
225 463 1
225 478 1
226 61 1
226 71 1
226 84 1
226 338 1
226 365 1
226 378 1
226 439 1
226 464 1
226 479 1
227 59 1
227 73 1
227 87 1
227 339 1
227 363 1
227 381 1
227 441 1
227 449 1
227 480 1
228 63 1
228 69 1
228 92 1
228 340 1
228 367 1
228 382 1
228 437 1
228 451 1
228 466 1
229 51 1
229 75 1
229 93 1
229 341 1
229 355 1
229 370 1
229 443 1
229 457 1
229 471 1
230 62 1
230 76 1
230 89 1
230 342 1
230 366 1
230 379 1
230 444 1
230 450 1
230 465 1
231 64 1
231 72 1
231 85 1
231 343 1
231 368 1
231 383 1
231 440 1
231 454 1
231 467 1
232 54 1
232 78 1
232 91 1
232 344 1
232 358 1
232 371 1
232 446 1
232 460 1
232 473 1
233 49 1
233 74 1
233 88 1
233 345 1
233 353 1
233 384 1
233 442 1
233 452 1
233 470 1
234 52 1
234 79 1
234 94 1
234 346 1
234 356 1
234 374 1
234 447 1
234 453 1
234 476 1
235 57 1
235 65 1
235 96 1
235 347 1
235 361 1
235 375 1
235 433 1
235 458 1
235 472 1
236 50 1
236 77 1
236 90 1
236 348 1
236 354 1
236 369 1
236 445 1
236 455 1
236 468 1
237 55 1
237 80 1
237 95 1
237 349 1
237 359 1
237 372 1
237 448 1
237 456 1
237 469 1
238 60 1
238 66 1
238 81 1
238 350 1
238 364 1
238 377 1
238 434 1
238 461 1
238 474 1
239 53 1
239 67 1
239 82 1
239 351 1
239 357 1
239 380 1
239 435 1
239 459 1
239 477 1
240 56 1
240 70 1
240 83 1
240 352 1
240 360 1
240 373 1
240 438 1
240 462 1
240 475 1
241 99 1
241 142 1
241 169 1
241 198 1
241 239 1
241 268 1
241 297 1
241 322 1
241 362 1
242 102 1
242 143 1
242 172 1
242 196 1
242 240 1
242 261 1
242 300 1
242 323 1
242 365 1
243 100 1
243 144 1
243 165 1
243 199 1
243 225 1
243 264 1
243 293 1
243 326 1
243 363 1
244 105 1
244 130 1
244 170 1
244 204 1
244 227 1
244 269 1
244 298 1
244 327 1
244 367 1
245 106 1
245 135 1
245 175 1
245 205 1
245 233 1
245 272 1
245 303 1
245 328 1
245 355 1
246 103 1
246 129 1
246 168 1
246 201 1
246 226 1
246 266 1
246 296 1
246 324 1
246 366 1
247 108 1
247 131 1
247 173 1
247 197 1
247 230 1
247 267 1
247 301 1
247 329 1
247 368 1
248 109 1
248 137 1
248 176 1
248 203 1
248 236 1
248 257 1
248 304 1
248 330 1
248 358 1
249 101 1
249 134 1
249 171 1
249 200 1
249 228 1
249 270 1
249 299 1
249 332 1
249 353 1
250 107 1
250 140 1
250 161 1
250 206 1
250 229 1
250 258 1
250 289 1
250 333 1
250 356 1
251 111 1
251 136 1
251 163 1
251 208 1
251 234 1
251 262 1
251 291 1
251 334 1
251 361 1
252 104 1
252 132 1
252 174 1
252 202 1
252 231 1
252 271 1
252 302 1
252 325 1
252 354 1
253 110 1
253 133 1
253 162 1
253 207 1
253 232 1
253 259 1
253 290 1
253 331 1
253 359 1
254 112 1
254 138 1
254 166 1
254 193 1
254 237 1
254 260 1
254 294 1
254 335 1
254 364 1
255 97 1
255 141 1
255 164 1
255 194 1
255 235 1
255 263 1
255 292 1
255 336 1
255 357 1
256 98 1
256 139 1
256 167 1
256 195 1
256 238 1
256 265 1
256 295 1
256 321 1
256 360 1
257 127 1
257 142 1
257 155 1
257 224 1
257 239 1
257 254 1
257 307 1
257 322 1
257 337 1
258 128 1
258 143 1
258 158 1
258 209 1
258 240 1
258 255 1
258 310 1
258 323 1
258 338 1
259 113 1
259 144 1
259 159 1
259 210 1
259 225 1
259 256 1
259 308 1
259 326 1
259 339 1
260 115 1
260 130 1
260 145 1
260 214 1
260 227 1
260 242 1
260 313 1
260 327 1
260 340 1
261 121 1
261 135 1
261 148 1
261 220 1
261 233 1
261 247 1
261 314 1
261 328 1
261 341 1
262 114 1
262 129 1
262 160 1
262 211 1
262 226 1
262 241 1
262 311 1
262 324 1
262 342 1
263 118 1
263 131 1
263 146 1
263 212 1
263 230 1
263 243 1
263 316 1
263 329 1
263 343 1
264 124 1
264 137 1
264 151 1
264 213 1
264 236 1
264 249 1
264 317 1
264 330 1
264 344 1
265 116 1
265 134 1
265 147 1
265 215 1
265 228 1
265 246 1
265 309 1
265 332 1
265 345 1
266 117 1
266 140 1
266 153 1
266 216 1
266 229 1
266 252 1
266 315 1
266 333 1
266 346 1
267 122 1
267 136 1
267 149 1
267 221 1
267 234 1
267 248 1
267 319 1
267 334 1
267 347 1
268 119 1
268 132 1
268 150 1
268 217 1
268 231 1
268 244 1
268 312 1
268 325 1
268 348 1
269 120 1
269 133 1
269 156 1
269 218 1
269 232 1
269 245 1
269 318 1
269 331 1
269 349 1
270 125 1
270 138 1
270 152 1
270 219 1
270 237 1
270 250 1
270 320 1
270 335 1
270 350 1
271 123 1
271 141 1
271 154 1
271 222 1
271 235 1
271 253 1
271 305 1
271 336 1
271 351 1
272 126 1
272 139 1
272 157 1
272 223 1
272 238 1
272 251 1
272 306 1
272 321 1
272 352 1
273 155 1
273 169 1
273 183 1
273 254 1
273 268 1
273 281 1
273 337 1
273 362 1
273 376 1
274 158 1
274 172 1
274 185 1
274 255 1
274 261 1
274 284 1
274 338 1
274 365 1
274 378 1
275 159 1
275 165 1
275 188 1
275 256 1
275 264 1
275 277 1
275 339 1
275 363 1
275 381 1
276 145 1
276 170 1
276 184 1
276 242 1
276 269 1
276 282 1
276 340 1
276 367 1
276 382 1
277 148 1
277 175 1
277 190 1
277 247 1
277 272 1
277 287 1
277 341 1
277 355 1
277 370 1
278 160 1
278 168 1
278 181 1
278 241 1
278 266 1
278 280 1
278 342 1
278 366 1
278 379 1
279 146 1
279 173 1
279 186 1
279 243 1
279 267 1
279 285 1
279 343 1
279 368 1
279 383 1
280 151 1
280 176 1
280 191 1
280 249 1
280 257 1
280 288 1
280 344 1
280 358 1
280 371 1
281 147 1
281 171 1
281 189 1
281 246 1
281 270 1
281 283 1
281 345 1
281 353 1
281 384 1
282 153 1
282 161 1
282 192 1
282 252 1
282 258 1
282 273 1
282 346 1
282 356 1
282 374 1
283 149 1
283 163 1
283 178 1
283 248 1
283 262 1
283 275 1
283 347 1
283 361 1
283 375 1
284 150 1
284 174 1
284 187 1
284 244 1
284 271 1
284 286 1
284 348 1
284 354 1
284 369 1
285 156 1
285 162 1
285 177 1
285 245 1
285 259 1
285 274 1
285 349 1
285 359 1
285 372 1
286 152 1
286 166 1
286 179 1
286 250 1
286 260 1
286 278 1
286 350 1
286 364 1
286 377 1
287 154 1
287 164 1
287 182 1
287 253 1
287 263 1
287 276 1
287 351 1
287 357 1
287 380 1
288 157 1
288 167 1
288 180 1
288 251 1
288 265 1
288 279 1
288 352 1
288 360 1
288 373 1
