%%MatrixMarket matrix coordinate integer general
288 576 2592
1 1 1
1 49 1
1 65 1
1 97 1
1 145 1
1 161 1
1 289 1
1 337 1
1 353 1
2 2 1
2 50 1
2 66 1
2 98 1
2 146 1
2 162 1
2 290 1
2 338 1
2 354 1
3 3 1
3 51 1
3 67 1
3 99 1
3 147 1
3 163 1
3 291 1
3 339 1
3 355 1
4 4 1
4 52 1
4 68 1
4 100 1
4 148 1
4 164 1
4 292 1
4 340 1
4 356 1
5 5 1
5 53 1
5 69 1
5 101 1
5 149 1
5 165 1
5 293 1
5 341 1
5 357 1
6 6 1
6 54 1
6 70 1
6 102 1
6 150 1
6 166 1
6 294 1
6 342 1
6 358 1
7 7 1
7 55 1
7 71 1
7 103 1
7 151 1
7 167 1
7 295 1
7 343 1
7 359 1
8 8 1
8 56 1
8 72 1
8 104 1
8 152 1
8 168 1
8 296 1
8 344 1
8 360 1
9 9 1
9 57 1
9 73 1
9 105 1
9 153 1
9 169 1
9 297 1
9 345 1
9 361 1
10 10 1
10 58 1
10 74 1
10 106 1
10 154 1
10 170 1
10 298 1
10 346 1
10 362 1
11 11 1
11 59 1
11 75 1
11 107 1
11 155 1
11 171 1
11 299 1
11 347 1
11 363 1
12 12 1
12 60 1
12 76 1
12 108 1
12 156 1
12 172 1
12 300 1
12 348 1
12 364 1
13 13 1
13 61 1
13 77 1
13 109 1
13 157 1
13 173 1
13 301 1
13 349 1
13 365 1
14 14 1
14 62 1
14 78 1
14 110 1
14 158 1
14 174 1
14 302 1
14 350 1
14 366 1
15 15 1
15 63 1
15 79 1
15 111 1
15 159 1
15 175 1
15 303 1
15 351 1
15 367 1
16 16 1
16 64 1
16 80 1
16 112 1
16 160 1
16 176 1
16 304 1
16 352 1
16 368 1
17 17 1
17 49 1
17 81 1
17 113 1
17 145 1
17 177 1
17 305 1
17 337 1
17 369 1
18 18 1
18 50 1
18 82 1
18 114 1
18 146 1
18 178 1
18 306 1
18 338 1
18 370 1
19 19 1
19 51 1
19 83 1
19 115 1
19 147 1
19 179 1
19 307 1
19 339 1
19 371 1
20 20 1
20 52 1
20 84 1
20 116 1
20 148 1
20 180 1
20 308 1
20 340 1
20 372 1
21 21 1
21 53 1
21 85 1
21 117 1
21 149 1
21 181 1
21 309 1
21 341 1
21 373 1
22 22 1
22 54 1
22 86 1
22 118 1
22 150 1
22 182 1
22 310 1
22 342 1
22 374 1
23 23 1
23 55 1
23 87 1
23 119 1
23 151 1
23 183 1
23 311 1
23 343 1
23 375 1
24 24 1
24 56 1
24 88 1
24 120 1
24 152 1
24 184 1
24 312 1
24 344 1
24 376 1
25 25 1
25 57 1
25 89 1
25 121 1
25 153 1
25 185 1
25 313 1
25 345 1
25 377 1
26 26 1
26 58 1
26 90 1
26 122 1
26 154 1
26 186 1
26 314 1
26 346 1
26 378 1
27 27 1
27 59 1
27 91 1
27 123 1
27 155 1
27 187 1
27 315 1
27 347 1
27 379 1
28 28 1
28 60 1
28 92 1
28 124 1
28 156 1
28 188 1
28 316 1
28 348 1
28 380 1
29 29 1
29 61 1
29 93 1
29 125 1
29 157 1
29 189 1
29 317 1
29 349 1
29 381 1
30 30 1
30 62 1
30 94 1
30 126 1
30 158 1
30 190 1
30 318 1
30 350 1
30 382 1
31 31 1
31 63 1
31 95 1
31 127 1
31 159 1
31 191 1
31 319 1
31 351 1
31 383 1
32 32 1
32 64 1
32 96 1
32 128 1
32 160 1
32 192 1
32 320 1
32 352 1
32 384 1
33 33 1
33 65 1
33 81 1
33 129 1
33 161 1
33 177 1
33 321 1
33 353 1
33 369 1
34 34 1
34 66 1
34 82 1
34 130 1
34 162 1
34 178 1
34 322 1
34 354 1
34 370 1
35 35 1
35 67 1
35 83 1
35 131 1
35 163 1
35 179 1
35 323 1
35 355 1
35 371 1
36 36 1
36 68 1
36 84 1
36 132 1
36 164 1
36 180 1
36 324 1
36 356 1
36 372 1
37 37 1
37 69 1
37 85 1
37 133 1
37 165 1
37 181 1
37 325 1
37 357 1
37 373 1
38 38 1
38 70 1
38 86 1
38 134 1
38 166 1
38 182 1
38 326 1
38 358 1
38 374 1
39 39 1
39 71 1
39 87 1
39 135 1
39 167 1
39 183 1
39 327 1
39 359 1
39 375 1
40 40 1
40 72 1
40 88 1
40 136 1
40 168 1
40 184 1
40 328 1
40 360 1
40 376 1
41 41 1
41 73 1
41 89 1
41 137 1
41 169 1
41 185 1
41 329 1
41 361 1
41 377 1
42 42 1
42 74 1
42 90 1
42 138 1
42 170 1
42 186 1
42 330 1
42 362 1
42 378 1
43 43 1
43 75 1
43 91 1
43 139 1
43 171 1
43 187 1
43 331 1
43 363 1
43 379 1
44 44 1
44 76 1
44 92 1
44 140 1
44 172 1
44 188 1
44 332 1
44 364 1
44 380 1
45 45 1
45 77 1
45 93 1
45 141 1
45 173 1
45 189 1
45 333 1
45 365 1
45 381 1
46 46 1
46 78 1
46 94 1
46 142 1
46 174 1
46 190 1
46 334 1
46 366 1
46 382 1
47 47 1
47 79 1
47 95 1
47 143 1
47 175 1
47 191 1
47 335 1
47 367 1
47 383 1
48 48 1
48 80 1
48 96 1
48 144 1
48 176 1
48 192 1
48 336 1
48 368 1
48 384 1
49 1 1
49 49 1
49 65 1
49 193 1
49 241 1
49 257 1
49 385 1
49 433 1
49 449 1
50 2 1
50 50 1
50 66 1
50 194 1
50 242 1
50 258 1
50 386 1
50 434 1
50 450 1
51 3 1
51 51 1
51 67 1
51 195 1
51 243 1
51 259 1
51 387 1
51 435 1
51 451 1
52 4 1
52 52 1
52 68 1
52 196 1
52 244 1
52 260 1
52 388 1
52 436 1
52 452 1
53 5 1
53 53 1
53 69 1
53 197 1
53 245 1
53 261 1
53 389 1
53 437 1
53 453 1
54 6 1
54 54 1
54 70 1
54 198 1
54 246 1
54 262 1
54 390 1
54 438 1
54 454 1
55 7 1
55 55 1
55 71 1
55 199 1
55 247 1
55 263 1
55 391 1
55 439 1
55 455 1
56 8 1
56 56 1
56 72 1
56 200 1
56 248 1
56 264 1
56 392 1
56 440 1
56 456 1
57 9 1
57 57 1
57 73 1
57 201 1
57 249 1
57 265 1
57 393 1
57 441 1
57 457 1
58 10 1
58 58 1
58 74 1
58 202 1
58 250 1
58 266 1
58 394 1
58 442 1
58 458 1
59 11 1
59 59 1
59 75 1
59 203 1
59 251 1
59 267 1
59 395 1
59 443 1
59 459 1
60 12 1
60 60 1
60 76 1
60 204 1
60 252 1
60 268 1
60 396 1
60 444 1
60 460 1
61 13 1
61 61 1
61 77 1
61 205 1
61 253 1
61 269 1
61 397 1
61 445 1
61 461 1
62 14 1
62 62 1
62 78 1
62 206 1
62 254 1
62 270 1
62 398 1
62 446 1
62 462 1
63 15 1
63 63 1
63 79 1
63 207 1
63 255 1
63 271 1
63 399 1
63 447 1
63 463 1
64 16 1
64 64 1
64 80 1
64 208 1
64 256 1
64 272 1
64 400 1
64 448 1
64 464 1
65 17 1
65 49 1
65 81 1
65 209 1
65 241 1
65 273 1
65 401 1
65 433 1
65 465 1
66 18 1
66 50 1
66 82 1
66 210 1
66 242 1
66 274 1
66 402 1
66 434 1
66 466 1
67 19 1
67 51 1
67 83 1
67 211 1
67 243 1
67 275 1
67 403 1
67 435 1
67 467 1
68 20 1
68 52 1
68 84 1
68 212 1
68 244 1
68 276 1
68 404 1
68 436 1
68 468 1
69 21 1
69 53 1
69 85 1
69 213 1
69 245 1
69 277 1
69 405 1
69 437 1
69 469 1
70 22 1
70 54 1
70 86 1
70 214 1
70 246 1
70 278 1
70 406 1
70 438 1
70 470 1
71 23 1
71 55 1
71 87 1
71 215 1
71 247 1
71 279 1
71 407 1
71 439 1
71 471 1
72 24 1
72 56 1
72 88 1
72 216 1
72 248 1
72 280 1
72 408 1
72 440 1
72 472 1
73 25 1
73 57 1
73 89 1
73 217 1
73 249 1
73 281 1
73 409 1
73 441 1
73 473 1
74 26 1
74 58 1
74 90 1
74 218 1
74 250 1
74 282 1
74 410 1
74 442 1
74 474 1
75 27 1
75 59 1
75 91 1
75 219 1
75 251 1
75 283 1
75 411 1
75 443 1
75 475 1
76 28 1
76 60 1
76 92 1
76 220 1
76 252 1
76 284 1
76 412 1
76 444 1
76 476 1
77 29 1
77 61 1
77 93 1
77 221 1
77 253 1
77 285 1
77 413 1
77 445 1
77 477 1
78 30 1
78 62 1
78 94 1
78 222 1
78 254 1
78 286 1
78 414 1
78 446 1
78 478 1
79 31 1
79 63 1
79 95 1
79 223 1
79 255 1
79 287 1
79 415 1
79 447 1
79 479 1
80 32 1
80 64 1
80 96 1
80 224 1
80 256 1
80 288 1
80 416 1
80 448 1
80 480 1
81 33 1
81 65 1
81 81 1
81 225 1
81 257 1
81 273 1
81 417 1
81 449 1
81 465 1
82 34 1
82 66 1
82 82 1
82 226 1
82 258 1
82 274 1
82 418 1
82 450 1
82 466 1
83 35 1
83 67 1
83 83 1
83 227 1
83 259 1
83 275 1
83 419 1
83 451 1
83 467 1
84 36 1
84 68 1
84 84 1
84 228 1
84 260 1
84 276 1
84 420 1
84 452 1
84 468 1
85 37 1
85 69 1
85 85 1
85 229 1
85 261 1
85 277 1
85 421 1
85 453 1
85 469 1
86 38 1
86 70 1
86 86 1
86 230 1
86 262 1
86 278 1
86 422 1
86 454 1
86 470 1
87 39 1
87 71 1
87 87 1
87 231 1
87 263 1
87 279 1
87 423 1
87 455 1
87 471 1
88 40 1
88 72 1
88 88 1
88 232 1
88 264 1
88 280 1
88 424 1
88 456 1
88 472 1
89 41 1
89 73 1
89 89 1
89 233 1
89 265 1
89 281 1
89 425 1
89 457 1
89 473 1
90 42 1
90 74 1
90 90 1
90 234 1
90 266 1
90 282 1
90 426 1
90 458 1
90 474 1
91 43 1
91 75 1
91 91 1
91 235 1
91 267 1
91 283 1
91 427 1
91 459 1
91 475 1
92 44 1
92 76 1
92 92 1
92 236 1
92 268 1
92 284 1
92 428 1
92 460 1
92 476 1
93 45 1
93 77 1
93 93 1
93 237 1
93 269 1
93 285 1
93 429 1
93 461 1
93 477 1
94 46 1
94 78 1
94 94 1
94 238 1
94 270 1
94 286 1
94 430 1
94 462 1
94 478 1
95 47 1
95 79 1
95 95 1
95 239 1
95 271 1
95 287 1
95 431 1
95 463 1
95 479 1
96 48 1
96 80 1
96 96 1
96 240 1
96 272 1
96 288 1
96 432 1
96 464 1
96 480 1
97 97 1
97 145 1
97 161 1
97 193 1
97 241 1
97 257 1
97 481 1
97 529 1
97 545 1
98 98 1
98 146 1
98 162 1
98 194 1
98 242 1
98 258 1
98 482 1
98 530 1
98 546 1
99 99 1
99 147 1
99 163 1
99 195 1
99 243 1
99 259 1
99 483 1
99 531 1
99 547 1
100 100 1
100 148 1
100 164 1
100 196 1
100 244 1
100 260 1
100 484 1
100 532 1
100 548 1
101 101 1
101 149 1
101 165 1
101 197 1
101 245 1
101 261 1
101 485 1
101 533 1
101 549 1
102 102 1
102 150 1
102 166 1
102 198 1
102 246 1
102 262 1
102 486 1
102 534 1
102 550 1
103 103 1
103 151 1
103 167 1
103 199 1
103 247 1
103 263 1
103 487 1
103 535 1
103 551 1
104 104 1
104 152 1
104 168 1
104 200 1
104 248 1
104 264 1
104 488 1
104 536 1
104 552 1
105 105 1
105 153 1
105 169 1
105 201 1
105 249 1
105 265 1
105 489 1
105 537 1
105 553 1
106 106 1
106 154 1
106 170 1
106 202 1
106 250 1
106 266 1
106 490 1
106 538 1
106 554 1
107 107 1
107 155 1
107 171 1
107 203 1
107 251 1
107 267 1
107 491 1
107 539 1
107 555 1
108 108 1
108 156 1
108 172 1
108 204 1
108 252 1
108 268 1
108 492 1
108 540 1
108 556 1
109 109 1
109 157 1
109 173 1
109 205 1
109 253 1
109 269 1
109 493 1
109 541 1
109 557 1
110 110 1
110 158 1
110 174 1
110 206 1
110 254 1
110 270 1
110 494 1
110 542 1
110 558 1
111 111 1
111 159 1
111 175 1
111 207 1
111 255 1
111 271 1
111 495 1
111 543 1
111 559 1
112 112 1
112 160 1
112 176 1
112 208 1
112 256 1
112 272 1
112 496 1
112 544 1
112 560 1
113 113 1
113 145 1
113 177 1
113 209 1
113 241 1
113 273 1
113 497 1
113 529 1
113 561 1
114 114 1
114 146 1
114 178 1
114 210 1
114 242 1
114 274 1
114 498 1
114 530 1
114 562 1
115 115 1
115 147 1
115 179 1
115 211 1
115 243 1
115 275 1
115 499 1
115 531 1
115 563 1
116 116 1
116 148 1
116 180 1
116 212 1
116 244 1
116 276 1
116 500 1
116 532 1
116 564 1
117 117 1
117 149 1
117 181 1
117 213 1
117 245 1
117 277 1
117 501 1
117 533 1
117 565 1
118 118 1
118 150 1
118 182 1
118 214 1
118 246 1
118 278 1
118 502 1
118 534 1
118 566 1
119 119 1
119 151 1
119 183 1
119 215 1
119 247 1
119 279 1
119 503 1
119 535 1
119 567 1
120 120 1
120 152 1
120 184 1
120 216 1
120 248 1
120 280 1
120 504 1
120 536 1
120 568 1
121 121 1
121 153 1
121 185 1
121 217 1
121 249 1
121 281 1
121 505 1
121 537 1
121 569 1
122 122 1
122 154 1
122 186 1
122 218 1
122 250 1
122 282 1
122 506 1
122 538 1
122 570 1
123 123 1
123 155 1
123 187 1
123 219 1
123 251 1
123 283 1
123 507 1
123 539 1
123 571 1
124 124 1
124 156 1
124 188 1
124 220 1
124 252 1
124 284 1
124 508 1
124 540 1
124 572 1
125 125 1
125 157 1
125 189 1
125 221 1
125 253 1
125 285 1
125 509 1
125 541 1
125 573 1
126 126 1
126 158 1
126 190 1
126 222 1
126 254 1
126 286 1
126 510 1
126 542 1
126 574 1
127 127 1
127 159 1
127 191 1
127 223 1
127 255 1
127 287 1
127 511 1
127 543 1
127 575 1
128 128 1
128 160 1
128 192 1
128 224 1
128 256 1
128 288 1
128 512 1
128 544 1
128 576 1
129 129 1
129 161 1
129 177 1
129 225 1
129 257 1
129 273 1
129 513 1
129 545 1
129 561 1
130 130 1
130 162 1
130 178 1
130 226 1
130 258 1
130 274 1
130 514 1
130 546 1
130 562 1
131 131 1
131 163 1
131 179 1
131 227 1
131 259 1
131 275 1
131 515 1
131 547 1
131 563 1
132 132 1
132 164 1
132 180 1
132 228 1
132 260 1
132 276 1
132 516 1
132 548 1
132 564 1
133 133 1
133 165 1
133 181 1
133 229 1
133 261 1
133 277 1
133 517 1
133 549 1
133 565 1
134 134 1
134 166 1
134 182 1
134 230 1
134 262 1
134 278 1
134 518 1
134 550 1
134 566 1
135 135 1
135 167 1
135 183 1
135 231 1
135 263 1
135 279 1
135 519 1
135 551 1
135 567 1
136 136 1
136 168 1
136 184 1
136 232 1
136 264 1
136 280 1
136 520 1
136 552 1
136 568 1
137 137 1
137 169 1
137 185 1
137 233 1
137 265 1
137 281 1
137 521 1
137 553 1
137 569 1
138 138 1
138 170 1
138 186 1
138 234 1
138 266 1
138 282 1
138 522 1
138 554 1
138 570 1
139 139 1
139 171 1
139 187 1
139 235 1
139 267 1
139 283 1
139 523 1
139 555 1
139 571 1
140 140 1
140 172 1
140 188 1
140 236 1
140 268 1
140 284 1
140 524 1
140 556 1
140 572 1
141 141 1
141 173 1
141 189 1
141 237 1
141 269 1
141 285 1
141 525 1
141 557 1
141 573 1
142 142 1
142 174 1
142 190 1
142 238 1
142 270 1
142 286 1
142 526 1
142 558 1
142 574 1
143 143 1
143 175 1
143 191 1
143 239 1
143 271 1
143 287 1
143 527 1
143 559 1
143 575 1
144 144 1
144 176 1
144 192 1
144 240 1
144 272 1
144 288 1
144 528 1
144 560 1
144 576 1
145 1 1
145 73 1
145 88 1
145 98 1
145 172 1
145 186 1
145 493 1
145 546 1
145 564 1
146 2 1
146 76 1
146 90 1
146 99 1
146 165 1
146 189 1
146 491 1
146 547 1
146 567 1
147 3 1
147 69 1
147 93 1
147 102 1
147 168 1
147 187 1
147 494 1
147 550 1
147 569 1
148 4 1
148 74 1
148 94 1
148 103 1
148 173 1
148 191 1
148 496 1
148 551 1
148 565 1
149 5 1
149 79 1
149 82 1
149 104 1
149 176 1
149 179 1
149 486 1
149 552 1
149 571 1
150 6 1
150 72 1
150 91 1
150 100 1
150 170 1
150 190 1
150 495 1
150 548 1
150 572 1
151 7 1
151 77 1
151 95 1
151 105 1
151 171 1
151 192 1
151 481 1
151 553 1
151 568 1
152 8 1
152 80 1
152 83 1
152 106 1
152 161 1
152 182 1
152 484 1
152 554 1
152 574 1
153 9 1
153 75 1
153 96 1
153 108 1
153 174 1
153 177 1
153 482 1
153 556 1
153 570 1
154 10 1
154 65 1
154 86 1
154 109 1
154 162 1
154 180 1
154 487 1
154 557 1
154 575 1
155 11 1
155 67 1
155 87 1
155 110 1
155 166 1
155 185 1
155 492 1
155 558 1
155 561 1
156 12 1
156 78 1
156 81 1
156 101 1
156 175 1
156 178 1
156 483 1
156 549 1
156 573 1
157 13 1
157 66 1
157 84 1
157 107 1
157 163 1
157 183 1
157 489 1
157 555 1
157 576 1
158 14 1
158 70 1
158 89 1
158 111 1
158 164 1
158 188 1
158 485 1
158 559 1
158 562 1
159 15 1
159 68 1
159 92 1
159 112 1
159 167 1
159 181 1
159 488 1
159 560 1
159 563 1
160 16 1
160 71 1
160 85 1
160 97 1
160 169 1
160 184 1
160 490 1
160 545 1
160 566 1
161 31 1
161 43 1
161 88 1
161 128 1
161 142 1
161 186 1
161 504 1
161 524 1
161 564 1
162 32 1
162 46 1
162 90 1
162 113 1
162 143 1
162 189 1
162 506 1
162 517 1
162 567 1
163 17 1
163 47 1
163 93 1
163 114 1
163 144 1
163 187 1
163 509 1
163 520 1
163 569 1
164 19 1
164 33 1
164 94 1
164 118 1
164 130 1
164 191 1
164 510 1
164 525 1
164 565 1
165 25 1
165 36 1
165 82 1
165 124 1
165 135 1
165 179 1
165 498 1
165 528 1
165 571 1
166 18 1
166 48 1
166 91 1
166 115 1
166 129 1
166 190 1
166 507 1
166 522 1
166 572 1
167 22 1
167 34 1
167 95 1
167 116 1
167 131 1
167 192 1
167 511 1
167 523 1
167 568 1
168 28 1
168 39 1
168 83 1
168 117 1
168 137 1
168 182 1
168 499 1
168 513 1
168 574 1
169 20 1
169 35 1
169 96 1
169 119 1
169 134 1
169 177 1
169 512 1
169 526 1
169 570 1
170 21 1
170 41 1
170 86 1
170 120 1
170 140 1
170 180 1
170 502 1
170 514 1
170 575 1
171 26 1
171 37 1
171 87 1
171 125 1
171 136 1
171 185 1
171 503 1
171 518 1
171 561 1
172 23 1
172 38 1
172 81 1
172 121 1
172 132 1
172 178 1
172 497 1
172 527 1
172 573 1
173 24 1
173 44 1
173 84 1
173 122 1
173 133 1
173 183 1
173 500 1
173 515 1
173 576 1
174 29 1
174 40 1
174 89 1
174 123 1
174 138 1
174 188 1
174 505 1
174 516 1
174 562 1
175 27 1
175 42 1
175 92 1
175 126 1
175 141 1
175 181 1
175 508 1
175 519 1
175 563 1
176 30 1
176 45 1
176 85 1
176 127 1
176 139 1
176 184 1
176 501 1
176 521 1
176 566 1
177 43 1
177 60 1
177 73 1
177 142 1
177 149 1
177 172 1
177 524 1
177 531 1
177 546 1
178 46 1
178 53 1
178 76 1
178 143 1
178 152 1
178 165 1
178 517 1
178 534 1
178 547 1
179 47 1
179 56 1
179 69 1
179 144 1
179 154 1
179 168 1
179 520 1
179 532 1
179 550 1
180 33 1
180 61 1
180 74 1
180 130 1
180 155 1
180 173 1
180 525 1
180 537 1
180 551 1
181 36 1
181 64 1
181 79 1
181 135 1
181 145 1
181 176 1
181 528 1
181 538 1
181 552 1
182 48 1
182 58 1
182 72 1
182 129 1
182 157 1
182 170 1
182 522 1
182 535 1
182 548 1
183 34 1
183 59 1
183 77 1
183 131 1
183 158 1
183 171 1
183 523 1
183 540 1
183 553 1
184 39 1
184 49 1
184 80 1
184 137 1
184 146 1
184 161 1
184 513 1
184 541 1
184 554 1
185 35 1
185 62 1
185 75 1
185 134 1
185 159 1
185 174 1
185 526 1
185 533 1
185 556 1
186 41 1
186 50 1
186 65 1
186 140 1
186 147 1
186 162 1
186 514 1
186 539 1
186 557 1
187 37 1
187 54 1
187 67 1
187 136 1
187 148 1
187 166 1
187 518 1
187 543 1
187 558 1
188 38 1
188 63 1
188 78 1
188 132 1
188 160 1
188 175 1
188 527 1
188 536 1
188 549 1
189 44 1
189 51 1
189 66 1
189 133 1
189 150 1
189 163 1
189 515 1
189 542 1
189 555 1
190 40 1
190 52 1
190 70 1
190 138 1
190 151 1
190 164 1
190 516 1
190 544 1
190 559 1
191 42 1
191 55 1
191 68 1
191 141 1
191 153 1
191 167 1
191 519 1
191 529 1
191 560 1
192 45 1
192 57 1
192 71 1
192 139 1
192 156 1
192 169 1
192 521 1
192 530 1
192 545 1
193 1 1
193 73 1
193 88 1
193 297 1
193 363 1
193 384 1
193 396 1
193 462 1
193 465 1
194 2 1
194 76 1
194 90 1
194 300 1
194 366 1
194 369 1
194 389 1
194 463 1
194 466 1
195 3 1
195 69 1
195 93 1
195 293 1
195 367 1
195 370 1
195 392 1
195 464 1
195 467 1
196 4 1
196 74 1
196 94 1
196 298 1
196 353 1
196 374 1
196 397 1
196 450 1
196 468 1
197 5 1
197 79 1
197 82 1
197 303 1
197 356 1
197 380 1
197 400 1
197 455 1
197 469 1
198 6 1
198 72 1
198 91 1
198 296 1
198 368 1
198 371 1
198 394 1
198 449 1
198 470 1
199 7 1
199 77 1
199 95 1
199 301 1
199 354 1
199 372 1
199 395 1
199 451 1
199 471 1
200 8 1
200 80 1
200 83 1
200 304 1
200 359 1
200 373 1
200 385 1
200 457 1
200 472 1
201 9 1
201 75 1
201 96 1
201 299 1
201 355 1
201 375 1
201 398 1
201 454 1
201 473 1
202 10 1
202 65 1
202 86 1
202 289 1
202 361 1
202 376 1
202 386 1
202 460 1
202 474 1
203 11 1
203 67 1
203 87 1
203 291 1
203 357 1
203 381 1
203 390 1
203 456 1
203 475 1
204 12 1
204 78 1
204 81 1
204 302 1
204 358 1
204 377 1
204 399 1
204 452 1
204 476 1
205 13 1
205 66 1
205 84 1
205 290 1
205 364 1
205 378 1
205 387 1
205 453 1
205 477 1
206 14 1
206 70 1
206 89 1
206 294 1
206 360 1
206 379 1
206 388 1
206 458 1
206 478 1
207 15 1
207 68 1
207 92 1
207 292 1
207 362 1
207 382 1
207 391 1
207 461 1
207 479 1
208 16 1
208 71 1
208 85 1
208 295 1
208 365 1
208 383 1
208 393 1
208 459 1
208 480 1
209 31 1
209 43 1
209 88 1
209 308 1
209 323 1
209 384 1
209 407 1
209 422 1
209 465 1
210 32 1
210 46 1
210 90 1
210 311 1
210 326 1
210 369 1
210 409 1
210 420 1
210 466 1
211 17 1
211 47 1
211 93 1
211 313 1
211 324 1
211 370 1
211 412 1
211 423 1
211 467 1
212 19 1
212 33 1
212 94 1
212 309 1
212 329 1
212 374 1
212 408 1
212 428 1
212 468 1
213 25 1
213 36 1
213 82 1
213 315 1
213 330 1
213 380 1
213 414 1
213 429 1
213 469 1
214 18 1
214 48 1
214 91 1
214 316 1
214 327 1
214 371 1
214 405 1
214 425 1
214 470 1
215 22 1
215 34 1
215 95 1
215 312 1
215 332 1
215 372 1
215 410 1
215 421 1
215 471 1
216 28 1
216 39 1
216 83 1
216 318 1
216 333 1
216 373 1
216 415 1
216 427 1
216 472 1
217 20 1
217 35 1
217 96 1
217 314 1
217 325 1
217 375 1
217 413 1
217 424 1
217 473 1
218 21 1
218 41 1
218 86 1
218 319 1
218 331 1
218 376 1
218 416 1
218 430 1
218 474 1
219 26 1
219 37 1
219 87 1
219 305 1
219 335 1
219 381 1
219 402 1
219 432 1
219 475 1
220 23 1
220 38 1
220 81 1
220 317 1
220 328 1
220 377 1
220 411 1
220 426 1
220 476 1
221 24 1
221 44 1
221 84 1
221 320 1
221 334 1
221 378 1
221 401 1
221 431 1
221 477 1
222 29 1
222 40 1
222 89 1
222 306 1
222 336 1
222 379 1
222 403 1
222 417 1
222 478 1
223 27 1
223 42 1
223 92 1
223 307 1
223 321 1
223 382 1
223 406 1
223 418 1
223 479 1
224 30 1
224 45 1
224 85 1
224 310 1
224 322 1
224 383 1
224 404 1
224 419 1
224 480 1
225 43 1
225 60 1
225 73 1
225 323 1
225 350 1
225 363 1
225 422 1
225 447 1
225 462 1
226 46 1
226 53 1
226 76 1
226 326 1
226 351 1
226 366 1
226 420 1
226 448 1
226 463 1
227 47 1
227 56 1
227 69 1
227 324 1
227 352 1
227 367 1
227 423 1
227 433 1
227 464 1
228 33 1
228 61 1
228 74 1
228 329 1
228 338 1
228 353 1
228 428 1
228 435 1
228 450 1
229 36 1
229 64 1
229 79 1
229 330 1
229 343 1
229 356 1
229 429 1
229 441 1
229 455 1
230 48 1
230 58 1
230 72 1
230 327 1
230 337 1
230 368 1
230 425 1
230 434 1
230 449 1
231 34 1
231 59 1
231 77 1
231 332 1
231 339 1
231 354 1
231 421 1
231 438 1
231 451 1
232 39 1
232 49 1
232 80 1
232 333 1
232 345 1
232 359 1
232 427 1
232 444 1
232 457 1
233 35 1
233 62 1
233 75 1
233 325 1
233 342 1
233 355 1
233 424 1
233 436 1
233 454 1
234 41 1
234 50 1
234 65 1
234 331 1
234 348 1
234 361 1
234 430 1
234 437 1
234 460 1
235 37 1
235 54 1
235 67 1
235 335 1
235 344 1
235 357 1
235 432 1
235 442 1
235 456 1
236 38 1
236 63 1
236 78 1
236 328 1
236 340 1
236 358 1
236 426 1
236 439 1
236 452 1
237 44 1
237 51 1
237 66 1
237 334 1
237 341 1
237 364 1
237 431 1
237 440 1
237 453 1
238 40 1
238 52 1
238 70 1
238 336 1
238 346 1
238 360 1
238 417 1
238 445 1
238 458 1
239 42 1
239 55 1
239 68 1
239 321 1
239 349 1
239 362 1
239 418 1
239 443 1
239 461 1
240 45 1
240 57 1
240 71 1
240 322 1
240 347 1
240 365 1
240 419 1
240 446 1
240 459 1
241 98 1
241 172 1
241 186 1
241 198 1
241 264 1
241 283 1
241 297 1
241 363 1
241 384 1
242 99 1
242 165 1
242 189 1
242 196 1
242 266 1
242 286 1
242 300 1
242 366 1
242 369 1
243 102 1
243 168 1
243 187 1
243 199 1
243 269 1
243 287 1
243 293 1
243 367 1
243 370 1
244 103 1
244 173 1
244 191 1
244 204 1
244 270 1
244 273 1
244 298 1
244 353 1
244 374 1
245 104 1
245 176 1
245 179 1
245 205 1
245 258 1
245 276 1
245 303 1
245 356 1
245 380 1
246 100 1
246 170 1
246 190 1
246 201 1
246 267 1
246 288 1
246 296 1
246 368 1
246 371 1
247 105 1
247 171 1
247 192 1
247 197 1
247 271 1
247 274 1
247 301 1
247 354 1
247 372 1
248 106 1
248 161 1
248 182 1
248 203 1
248 259 1
248 279 1
248 304 1
248 359 1
248 373 1
249 108 1
249 174 1
249 177 1
249 200 1
249 272 1
249 275 1
249 299 1
249 355 1
249 375 1
250 109 1
250 162 1
250 180 1
250 206 1
250 262 1
250 281 1
250 289 1
250 361 1
250 376 1
251 110 1
251 166 1
251 185 1
251 208 1
251 263 1
251 277 1
251 291 1
251 357 1
251 381 1
252 101 1
252 175 1
252 178 1
252 202 1
252 257 1
252 278 1
252 302 1
252 358 1
252 377 1
253 107 1
253 163 1
253 183 1
253 207 1
253 260 1
253 284 1
253 290 1
253 364 1
253 378 1
254 111 1
254 164 1
254 188 1
254 193 1
254 265 1
254 280 1
254 294 1
254 360 1
254 379 1
255 112 1
255 167 1
255 181 1
255 194 1
255 268 1
255 282 1
255 292 1
255 362 1
255 382 1
256 97 1
256 169 1
256 184 1
256 195 1
256 261 1
256 285 1
256 295 1
256 365 1
256 383 1
257 128 1
257 142 1
257 186 1
257 210 1
257 240 1
257 283 1
257 308 1
257 323 1
257 384 1
258 113 1
258 143 1
258 189 1
258 211 1
258 225 1
258 286 1
258 311 1
258 326 1
258 369 1
259 114 1
259 144 1
259 187 1
259 214 1
259 226 1
259 287 1
259 313 1
259 324 1
259 370 1
260 118 1
260 130 1
260 191 1
260 215 1
260 230 1
260 273 1
260 309 1
260 329 1
260 374 1
261 124 1
261 135 1
261 179 1
261 216 1
261 236 1
261 276 1
261 315 1
261 330 1
261 380 1
262 115 1
262 129 1
262 190 1
262 212 1
262 227 1
262 288 1
262 316 1
262 327 1
262 371 1
263 116 1
263 131 1
263 192 1
263 217 1
263 228 1
263 274 1
263 312 1
263 332 1
263 372 1
264 117 1
264 137 1
264 182 1
264 218 1
264 229 1
264 279 1
264 318 1
264 333 1
264 373 1
265 119 1
265 134 1
265 177 1
265 220 1
265 231 1
265 275 1
265 314 1
265 325 1
265 375 1
266 120 1
266 140 1
266 180 1
266 221 1
266 232 1
266 281 1
266 319 1
266 331 1
266 376 1
267 125 1
267 136 1
267 185 1
267 222 1
267 237 1
267 277 1
267 305 1
267 335 1
267 381 1
268 121 1
268 132 1
268 178 1
268 213 1
268 233 1
268 278 1
268 317 1
268 328 1
268 377 1
269 122 1
269 133 1
269 183 1
269 219 1
269 234 1
269 284 1
269 320 1
269 334 1
269 378 1
270 123 1
270 138 1
270 188 1
270 223 1
270 235 1
270 280 1
270 306 1
270 336 1
270 379 1
271 126 1
271 141 1
271 181 1
271 224 1
271 238 1
271 282 1
271 307 1
271 321 1
271 382 1
272 127 1
272 139 1
272 184 1
272 209 1
272 239 1
272 285 1
272 310 1
272 322 1
272 383 1
273 142 1
273 149 1
273 172 1
273 240 1
273 250 1
273 264 1
273 323 1
273 350 1
273 363 1
274 143 1
274 152 1
274 165 1
274 225 1
274 253 1
274 266 1
274 326 1
274 351 1
274 366 1
275 144 1
275 154 1
275 168 1
275 226 1
275 251 1
275 269 1
275 324 1
275 352 1
275 367 1
276 130 1
276 155 1
276 173 1
276 230 1
276 255 1
276 270 1
276 329 1
276 338 1
276 353 1
277 135 1
277 145 1
277 176 1
277 236 1
277 243 1
277 258 1
277 330 1
277 343 1
277 356 1
278 129 1
278 157 1
278 170 1
278 227 1
278 254 1
278 267 1
278 327 1
278 337 1
278 368 1
279 131 1
279 158 1
279 171 1
279 228 1
279 256 1
279 271 1
279 332 1
279 339 1
279 354 1
280 137 1
280 146 1
280 161 1
280 229 1
280 246 1
280 259 1
280 333 1
280 345 1
280 359 1
281 134 1
281 159 1
281 174 1
281 231 1
281 241 1
281 272 1
281 325 1
281 342 1
281 355 1
282 140 1
282 147 1
282 162 1
282 232 1
282 244 1
282 262 1
282 331 1
282 348 1
282 361 1
283 136 1
283 148 1
283 166 1
283 237 1
283 249 1
283 263 1
283 335 1
283 344 1
283 357 1
284 132 1
284 160 1
284 175 1
284 233 1
284 242 1
284 257 1
284 328 1
284 340 1
284 358 1
285 133 1
285 150 1
285 163 1
285 234 1
285 247 1
285 260 1
285 334 1
285 341 1
285 364 1
286 138 1
286 151 1
286 164 1
286 235 1
286 252 1
286 265 1
286 336 1
286 346 1
286 360 1
287 141 1
287 153 1
287 167 1
287 238 1
287 245 1
287 268 1
287 321 1
287 349 1
287 362 1
288 139 1
288 156 1
288 169 1
288 239 1
288 248 1
288 261 1
288 322 1
288 347 1
288 365 1
