%%MatrixMarket matrix coordinate integer general
144 288 1296
1 1 1
1 14 1
1 32 1
1 145 1
1 158 1
1 176 1
1 193 1
1 206 1
1 224 1
2 2 1
2 9 1
2 27 1
2 146 1
2 153 1
2 171 1
2 194 1
2 201 1
2 219 1
3 3 1
3 16 1
3 30 1
3 147 1
3 160 1
3 174 1
3 195 1
3 208 1
3 222 1
4 4 1
4 10 1
4 29 1
4 148 1
4 154 1
4 173 1
4 196 1
4 202 1
4 221 1
5 5 1
5 11 1
5 25 1
5 149 1
5 155 1
5 169 1
5 197 1
5 203 1
5 217 1
6 6 1
6 12 1
6 31 1
6 150 1
6 156 1
6 175 1
6 198 1
6 204 1
6 223 1
7 7 1
7 13 1
7 26 1
7 151 1
7 157 1
7 170 1
7 199 1
7 205 1
7 218 1
8 8 1
8 15 1
8 28 1
8 152 1
8 159 1
8 172 1
8 200 1
8 207 1
8 220 1
9 1 1
9 24 1
9 34 1
9 145 1
9 168 1
9 178 1
9 193 1
9 216 1
9 226 1
10 2 1
10 19 1
10 36 1
10 146 1
10 163 1
10 180 1
10 194 1
10 211 1
10 228 1
11 3 1
11 22 1
11 37 1
11 147 1
11 166 1
11 181 1
11 195 1
11 214 1
11 229 1
12 4 1
12 21 1
12 38 1
12 148 1
12 165 1
12 182 1
12 196 1
12 213 1
12 230 1
13 5 1
13 17 1
13 39 1
13 149 1
13 161 1
13 183 1
13 197 1
13 209 1
13 231 1
14 6 1
14 23 1
14 33 1
14 150 1
14 167 1
14 177 1
14 198 1
14 215 1
14 225 1
15 7 1
15 18 1
15 40 1
15 151 1
15 162 1
15 184 1
15 199 1
15 210 1
15 232 1
16 8 1
16 20 1
16 35 1
16 152 1
16 164 1
16 179 1
16 200 1
16 212 1
16 227 1
17 14 1
17 24 1
17 45 1
17 158 1
17 168 1
17 189 1
17 206 1
17 216 1
17 237 1
18 9 1
18 19 1
18 47 1
18 153 1
18 163 1
18 191 1
18 201 1
18 211 1
18 239 1
19 16 1
19 22 1
19 42 1
19 160 1
19 166 1
19 186 1
19 208 1
19 214 1
19 234 1
20 10 1
20 21 1
20 48 1
20 154 1
20 165 1
20 192 1
20 202 1
20 213 1
20 240 1
21 11 1
21 17 1
21 44 1
21 155 1
21 161 1
21 188 1
21 203 1
21 209 1
21 236 1
22 12 1
22 23 1
22 43 1
22 156 1
22 167 1
22 187 1
22 204 1
22 215 1
22 235 1
23 13 1
23 18 1
23 46 1
23 157 1
23 162 1
23 190 1
23 205 1
23 210 1
23 238 1
24 15 1
24 20 1
24 41 1
24 159 1
24 164 1
24 185 1
24 207 1
24 212 1
24 233 1
25 49 1
25 62 1
25 80 1
25 145 1
25 158 1
25 176 1
25 241 1
25 254 1
25 272 1
26 50 1
26 57 1
26 75 1
26 146 1
26 153 1
26 171 1
26 242 1
26 249 1
26 267 1
27 51 1
27 64 1
27 78 1
27 147 1
27 160 1
27 174 1
27 243 1
27 256 1
27 270 1
28 52 1
28 58 1
28 77 1
28 148 1
28 154 1
28 173 1
28 244 1
28 250 1
28 269 1
29 53 1
29 59 1
29 73 1
29 149 1
29 155 1
29 169 1
29 245 1
29 251 1
29 265 1
30 54 1
30 60 1
30 79 1
30 150 1
30 156 1
30 175 1
30 246 1
30 252 1
30 271 1
31 55 1
31 61 1
31 74 1
31 151 1
31 157 1
31 170 1
31 247 1
31 253 1
31 266 1
32 56 1
32 63 1
32 76 1
32 152 1
32 159 1
32 172 1
32 248 1
32 255 1
32 268 1
33 49 1
33 72 1
33 82 1
33 145 1
33 168 1
33 178 1
33 241 1
33 264 1
33 274 1
34 50 1
34 67 1
34 84 1
34 146 1
34 163 1
34 180 1
34 242 1
34 259 1
34 276 1
35 51 1
35 70 1
35 85 1
35 147 1
35 166 1
35 181 1
35 243 1
35 262 1
35 277 1
36 52 1
36 69 1
36 86 1
36 148 1
36 165 1
36 182 1
36 244 1
36 261 1
36 278 1
37 53 1
37 65 1
37 87 1
37 149 1
37 161 1
37 183 1
37 245 1
37 257 1
37 279 1
38 54 1
38 71 1
38 81 1
38 150 1
38 167 1
38 177 1
38 246 1
38 263 1
38 273 1
39 55 1
39 66 1
39 88 1
39 151 1
39 162 1
39 184 1
39 247 1
39 258 1
39 280 1
40 56 1
40 68 1
40 83 1
40 152 1
40 164 1
40 179 1
40 248 1
40 260 1
40 275 1
41 62 1
41 72 1
41 93 1
41 158 1
41 168 1
41 189 1
41 254 1
41 264 1
41 285 1
42 57 1
42 67 1
42 95 1
42 153 1
42 163 1
42 191 1
42 249 1
42 259 1
42 287 1
43 64 1
43 70 1
43 90 1
43 160 1
43 166 1
43 186 1
43 256 1
43 262 1
43 282 1
44 58 1
44 69 1
44 96 1
44 154 1
44 165 1
44 192 1
44 250 1
44 261 1
44 288 1
45 59 1
45 65 1
45 92 1
45 155 1
45 161 1
45 188 1
45 251 1
45 257 1
45 284 1
46 60 1
46 71 1
46 91 1
46 156 1
46 167 1
46 187 1
46 252 1
46 263 1
46 283 1
47 61 1
47 66 1
47 94 1
47 157 1
47 162 1
47 190 1
47 253 1
47 258 1
47 286 1
48 63 1
48 68 1
48 89 1
48 159 1
48 164 1
48 185 1
48 255 1
48 260 1
48 281 1
49 97 1
49 110 1
49 128 1
49 193 1
49 206 1
49 224 1
49 241 1
49 254 1
49 272 1
50 98 1
50 105 1
50 123 1
50 194 1
50 201 1
50 219 1
50 242 1
50 249 1
50 267 1
51 99 1
51 112 1
51 126 1
51 195 1
51 208 1
51 222 1
51 243 1
51 256 1
51 270 1
52 100 1
52 106 1
52 125 1
52 196 1
52 202 1
52 221 1
52 244 1
52 250 1
52 269 1
53 101 1
53 107 1
53 121 1
53 197 1
53 203 1
53 217 1
53 245 1
53 251 1
53 265 1
54 102 1
54 108 1
54 127 1
54 198 1
54 204 1
54 223 1
54 246 1
54 252 1
54 271 1
55 103 1
55 109 1
55 122 1
55 199 1
55 205 1
55 218 1
55 247 1
55 253 1
55 266 1
56 104 1
56 111 1
56 124 1
56 200 1
56 207 1
56 220 1
56 248 1
56 255 1
56 268 1
57 97 1
57 120 1
57 130 1
57 193 1
57 216 1
57 226 1
57 241 1
57 264 1
57 274 1
58 98 1
58 115 1
58 132 1
58 194 1
58 211 1
58 228 1
58 242 1
58 259 1
58 276 1
59 99 1
59 118 1
59 133 1
59 195 1
59 214 1
59 229 1
59 243 1
59 262 1
59 277 1
60 100 1
60 117 1
60 134 1
60 196 1
60 213 1
60 230 1
60 244 1
60 261 1
60 278 1
61 101 1
61 113 1
61 135 1
61 197 1
61 209 1
61 231 1
61 245 1
61 257 1
61 279 1
62 102 1
62 119 1
62 129 1
62 198 1
62 215 1
62 225 1
62 246 1
62 263 1
62 273 1
63 103 1
63 114 1
63 136 1
63 199 1
63 210 1
63 232 1
63 247 1
63 258 1
63 280 1
64 104 1
64 116 1
64 131 1
64 200 1
64 212 1
64 227 1
64 248 1
64 260 1
64 275 1
65 110 1
65 120 1
65 141 1
65 206 1
65 216 1
65 237 1
65 254 1
65 264 1
65 285 1
66 105 1
66 115 1
66 143 1
66 201 1
66 211 1
66 239 1
66 249 1
66 259 1
66 287 1
67 112 1
67 118 1
67 138 1
67 208 1
67 214 1
67 234 1
67 256 1
67 262 1
67 282 1
68 106 1
68 117 1
68 144 1
68 202 1
68 213 1
68 240 1
68 250 1
68 261 1
68 288 1
69 107 1
69 113 1
69 140 1
69 203 1
69 209 1
69 236 1
69 251 1
69 257 1
69 284 1
70 108 1
70 119 1
70 139 1
70 204 1
70 215 1
70 235 1
70 252 1
70 263 1
70 283 1
71 109 1
71 114 1
71 142 1
71 205 1
71 210 1
71 238 1
71 253 1
71 258 1
71 286 1
72 111 1
72 116 1
72 137 1
72 207 1
72 212 1
72 233 1
72 255 1
72 260 1
72 281 1
73 1 1
73 9 1
73 25 1
73 148 1
73 156 1
73 172 1
73 198 1
73 206 1
73 222 1
74 2 1
74 10 1
74 26 1
74 150 1
74 158 1
74 174 1
74 193 1
74 201 1
74 217 1
75 3 1
75 11 1
75 27 1
75 151 1
75 159 1
75 175 1
75 200 1
75 208 1
75 224 1
76 4 1
76 12 1
76 28 1
76 145 1
76 153 1
76 169 1
76 194 1
76 202 1
76 218 1
77 5 1
77 13 1
77 29 1
77 152 1
77 160 1
77 176 1
77 195 1
77 203 1
77 219 1
78 6 1
78 14 1
78 30 1
78 146 1
78 154 1
78 170 1
78 196 1
78 204 1
78 220 1
79 7 1
79 15 1
79 31 1
79 147 1
79 155 1
79 171 1
79 197 1
79 205 1
79 221 1
80 8 1
80 16 1
80 32 1
80 149 1
80 157 1
80 173 1
80 199 1
80 207 1
80 223 1
81 1 1
81 17 1
81 33 1
81 148 1
81 164 1
81 180 1
81 198 1
81 214 1
81 230 1
82 2 1
82 18 1
82 34 1
82 150 1
82 166 1
82 182 1
82 193 1
82 209 1
82 225 1
83 3 1
83 19 1
83 35 1
83 151 1
83 167 1
83 183 1
83 200 1
83 216 1
83 232 1
84 4 1
84 20 1
84 36 1
84 145 1
84 161 1
84 177 1
84 194 1
84 210 1
84 226 1
85 5 1
85 21 1
85 37 1
85 152 1
85 168 1
85 184 1
85 195 1
85 211 1
85 227 1
86 6 1
86 22 1
86 38 1
86 146 1
86 162 1
86 178 1
86 196 1
86 212 1
86 228 1
87 7 1
87 23 1
87 39 1
87 147 1
87 163 1
87 179 1
87 197 1
87 213 1
87 229 1
88 8 1
88 24 1
88 40 1
88 149 1
88 165 1
88 181 1
88 199 1
88 215 1
88 231 1
89 9 1
89 17 1
89 41 1
89 156 1
89 164 1
89 188 1
89 206 1
89 214 1
89 238 1
90 10 1
90 18 1
90 42 1
90 158 1
90 166 1
90 190 1
90 201 1
90 209 1
90 233 1
91 11 1
91 19 1
91 43 1
91 159 1
91 167 1
91 191 1
91 208 1
91 216 1
91 240 1
92 12 1
92 20 1
92 44 1
92 153 1
92 161 1
92 185 1
92 202 1
92 210 1
92 234 1
93 13 1
93 21 1
93 45 1
93 160 1
93 168 1
93 192 1
93 203 1
93 211 1
93 235 1
94 14 1
94 22 1
94 46 1
94 154 1
94 162 1
94 186 1
94 204 1
94 212 1
94 236 1
95 15 1
95 23 1
95 47 1
95 155 1
95 163 1
95 187 1
95 205 1
95 213 1
95 237 1
96 16 1
96 24 1
96 48 1
96 157 1
96 165 1
96 189 1
96 207 1
96 215 1
96 239 1
97 51 1
97 59 1
97 75 1
97 148 1
97 156 1
97 172 1
97 247 1
97 255 1
97 271 1
98 53 1
98 61 1
98 77 1
98 150 1
98 158 1
98 174 1
98 248 1
98 256 1
98 272 1
99 49 1
99 57 1
99 73 1
99 151 1
99 159 1
99 175 1
99 244 1
99 252 1
99 268 1
100 55 1
100 63 1
100 79 1
100 145 1
100 153 1
100 169 1
100 243 1
100 251 1
100 267 1
101 50 1
101 58 1
101 74 1
101 152 1
101 160 1
101 176 1
101 246 1
101 254 1
101 270 1
102 56 1
102 64 1
102 80 1
102 146 1
102 154 1
102 170 1
102 245 1
102 253 1
102 269 1
103 52 1
103 60 1
103 76 1
103 147 1
103 155 1
103 171 1
103 241 1
103 249 1
103 265 1
104 54 1
104 62 1
104 78 1
104 149 1
104 157 1
104 173 1
104 242 1
104 250 1
104 266 1
105 51 1
105 67 1
105 83 1
105 148 1
105 164 1
105 180 1
105 247 1
105 263 1
105 279 1
106 53 1
106 69 1
106 85 1
106 150 1
106 166 1
106 182 1
106 248 1
106 264 1
106 280 1
107 49 1
107 65 1
107 81 1
107 151 1
107 167 1
107 183 1
107 244 1
107 260 1
107 276 1
108 55 1
108 71 1
108 87 1
108 145 1
108 161 1
108 177 1
108 243 1
108 259 1
108 275 1
109 50 1
109 66 1
109 82 1
109 152 1
109 168 1
109 184 1
109 246 1
109 262 1
109 278 1
110 56 1
110 72 1
110 88 1
110 146 1
110 162 1
110 178 1
110 245 1
110 261 1
110 277 1
111 52 1
111 68 1
111 84 1
111 147 1
111 163 1
111 179 1
111 241 1
111 257 1
111 273 1
112 54 1
112 70 1
112 86 1
112 149 1
112 165 1
112 181 1
112 242 1
112 258 1
112 274 1
113 59 1
113 67 1
113 91 1
113 156 1
113 164 1
113 188 1
113 255 1
113 263 1
113 287 1
114 61 1
114 69 1
114 93 1
114 158 1
114 166 1
114 190 1
114 256 1
114 264 1
114 288 1
115 57 1
115 65 1
115 89 1
115 159 1
115 167 1
115 191 1
115 252 1
115 260 1
115 284 1
116 63 1
116 71 1
116 95 1
116 153 1
116 161 1
116 185 1
116 251 1
116 259 1
116 283 1
117 58 1
117 66 1
117 90 1
117 160 1
117 168 1
117 192 1
117 254 1
117 262 1
117 286 1
118 64 1
118 72 1
118 96 1
118 154 1
118 162 1
118 186 1
118 253 1
118 261 1
118 285 1
119 60 1
119 68 1
119 92 1
119 155 1
119 163 1
119 187 1
119 249 1
119 257 1
119 281 1
120 62 1
120 70 1
120 94 1
120 157 1
120 165 1
120 189 1
120 250 1
120 258 1
120 282 1
121 100 1
121 108 1
121 124 1
121 198 1
121 206 1
121 222 1
121 247 1
121 255 1
121 271 1
122 102 1
122 110 1
122 126 1
122 193 1
122 201 1
122 217 1
122 248 1
122 256 1
122 272 1
123 103 1
123 111 1
123 127 1
123 200 1
123 208 1
123 224 1
123 244 1
123 252 1
123 268 1
124 97 1
124 105 1
124 121 1
124 194 1
124 202 1
124 218 1
124 243 1
124 251 1
124 267 1
125 104 1
125 112 1
125 128 1
125 195 1
125 203 1
125 219 1
125 246 1
125 254 1
125 270 1
126 98 1
126 106 1
126 122 1
126 196 1
126 204 1
126 220 1
126 245 1
126 253 1
126 269 1
127 99 1
127 107 1
127 123 1
127 197 1
127 205 1
127 221 1
127 241 1
127 249 1
127 265 1
128 101 1
128 109 1
128 125 1
128 199 1
128 207 1
128 223 1
128 242 1
128 250 1
128 266 1
129 100 1
129 116 1
129 132 1
129 198 1
129 214 1
129 230 1
129 247 1
129 263 1
129 279 1
130 102 1
130 118 1
130 134 1
130 193 1
130 209 1
130 225 1
130 248 1
130 264 1
130 280 1
131 103 1
131 119 1
131 135 1
131 200 1
131 216 1
131 232 1
131 244 1
131 260 1
131 276 1
132 97 1
132 113 1
132 129 1
132 194 1
132 210 1
132 226 1
132 243 1
132 259 1
132 275 1
133 104 1
133 120 1
133 136 1
133 195 1
133 211 1
133 227 1
133 246 1
133 262 1
133 278 1
134 98 1
134 114 1
134 130 1
134 196 1
134 212 1
134 228 1
134 245 1
134 261 1
134 277 1
135 99 1
135 115 1
135 131 1
135 197 1
135 213 1
135 229 1
135 241 1
135 257 1
135 273 1
136 101 1
136 117 1
136 133 1
136 199 1
136 215 1
136 231 1
136 242 1
136 258 1
136 274 1
137 108 1
137 116 1
137 140 1
137 206 1
137 214 1
137 238 1
137 255 1
137 263 1
137 287 1
138 110 1
138 118 1
138 142 1
138 201 1
138 209 1
138 233 1
138 256 1
138 264 1
138 288 1
139 111 1
139 119 1
139 143 1
139 208 1
139 216 1
139 240 1
139 252 1
139 260 1
139 284 1
140 105 1
140 113 1
140 137 1
140 202 1
140 210 1
140 234 1
140 251 1
140 259 1
140 283 1
141 112 1
141 120 1
141 144 1
141 203 1
141 211 1
141 235 1
141 254 1
141 262 1
141 286 1
142 106 1
142 114 1
142 138 1
142 204 1
142 212 1
142 236 1
142 253 1
142 261 1
142 285 1
143 107 1
143 115 1
143 139 1
143 205 1
143 213 1
143 237 1
143 249 1
143 257 1
143 281 1
144 109 1
144 117 1
144 141 1
144 207 1
144 215 1
144 239 1
144 250 1
144 258 1
144 282 1
