%%MatrixMarket matrix coordinate integer general
288 576 2592
1 1 1
1 32 1
1 86 1
1 289 1
1 320 1
1 374 1
1 385 1
1 416 1
1 470 1
2 2 1
2 17 1
2 84 1
2 290 1
2 305 1
2 372 1
2 386 1
2 401 1
2 468 1
3 3 1
3 18 1
3 87 1
3 291 1
3 306 1
3 375 1
3 387 1
3 402 1
3 471 1
4 4 1
4 22 1
4 92 1
4 292 1
4 310 1
4 380 1
4 388 1
4 406 1
4 476 1
5 5 1
5 28 1
5 93 1
5 293 1
5 316 1
5 381 1
5 389 1
5 412 1
5 477 1
6 6 1
6 19 1
6 89 1
6 294 1
6 307 1
6 377 1
6 390 1
6 403 1
6 473 1
7 7 1
7 20 1
7 85 1
7 295 1
7 308 1
7 373 1
7 391 1
7 404 1
7 469 1
8 8 1
8 21 1
8 91 1
8 296 1
8 309 1
8 379 1
8 392 1
8 405 1
8 475 1
9 9 1
9 23 1
9 88 1
9 297 1
9 311 1
9 376 1
9 393 1
9 407 1
9 472 1
10 10 1
10 24 1
10 94 1
10 298 1
10 312 1
10 382 1
10 394 1
10 408 1
10 478 1
11 11 1
11 29 1
11 96 1
11 299 1
11 317 1
11 384 1
11 395 1
11 413 1
11 480 1
12 12 1
12 25 1
12 90 1
12 300 1
12 313 1
12 378 1
12 396 1
12 409 1
12 474 1
13 13 1
13 26 1
13 95 1
13 301 1
13 314 1
13 383 1
13 397 1
13 410 1
13 479 1
14 14 1
14 27 1
14 81 1
14 302 1
14 315 1
14 369 1
14 398 1
14 411 1
14 465 1
15 15 1
15 30 1
15 82 1
15 303 1
15 318 1
15 370 1
15 399 1
15 414 1
15 466 1
16 16 1
16 31 1
16 83 1
16 304 1
16 319 1
16 371 1
16 400 1
16 415 1
16 467 1
17 1 1
17 57 1
17 68 1
17 289 1
17 345 1
17 356 1
17 385 1
17 441 1
17 452 1
18 2 1
18 60 1
18 71 1
18 290 1
18 348 1
18 359 1
18 386 1
18 444 1
18 455 1
19 3 1
19 53 1
19 73 1
19 291 1
19 341 1
19 361 1
19 387 1
19 437 1
19 457 1
20 4 1
20 58 1
20 69 1
20 292 1
20 346 1
20 357 1
20 388 1
20 442 1
20 453 1
21 5 1
21 63 1
21 75 1
21 293 1
21 351 1
21 363 1
21 389 1
21 447 1
21 459 1
22 6 1
22 56 1
22 76 1
22 294 1
22 344 1
22 364 1
22 390 1
22 440 1
22 460 1
23 7 1
23 61 1
23 72 1
23 295 1
23 349 1
23 360 1
23 391 1
23 445 1
23 456 1
24 8 1
24 64 1
24 78 1
24 296 1
24 352 1
24 366 1
24 392 1
24 448 1
24 462 1
25 9 1
25 59 1
25 74 1
25 297 1
25 347 1
25 362 1
25 393 1
25 443 1
25 458 1
26 10 1
26 49 1
26 79 1
26 298 1
26 337 1
26 367 1
26 394 1
26 433 1
26 463 1
27 11 1
27 51 1
27 65 1
27 299 1
27 339 1
27 353 1
27 395 1
27 435 1
27 449 1
28 12 1
28 62 1
28 77 1
28 300 1
28 350 1
28 365 1
28 396 1
28 446 1
28 461 1
29 13 1
29 50 1
29 80 1
29 301 1
29 338 1
29 368 1
29 397 1
29 434 1
29 464 1
30 14 1
30 54 1
30 66 1
30 302 1
30 342 1
30 354 1
30 398 1
30 438 1
30 450 1
31 15 1
31 52 1
31 67 1
31 303 1
31 340 1
31 355 1
31 399 1
31 436 1
31 451 1
32 16 1
32 55 1
32 70 1
32 304 1
32 343 1
32 358 1
32 400 1
32 439 1
32 454 1
33 32 1
33 43 1
33 57 1
33 320 1
33 331 1
33 345 1
33 416 1
33 427 1
33 441 1
34 17 1
34 46 1
34 60 1
34 305 1
34 334 1
34 348 1
34 401 1
34 430 1
34 444 1
35 18 1
35 47 1
35 53 1
35 306 1
35 335 1
35 341 1
35 402 1
35 431 1
35 437 1
36 22 1
36 33 1
36 58 1
36 310 1
36 321 1
36 346 1
36 406 1
36 417 1
36 442 1
37 28 1
37 36 1
37 63 1
37 316 1
37 324 1
37 351 1
37 412 1
37 420 1
37 447 1
38 19 1
38 48 1
38 56 1
38 307 1
38 336 1
38 344 1
38 403 1
38 432 1
38 440 1
39 20 1
39 34 1
39 61 1
39 308 1
39 322 1
39 349 1
39 404 1
39 418 1
39 445 1
40 21 1
40 39 1
40 64 1
40 309 1
40 327 1
40 352 1
40 405 1
40 423 1
40 448 1
41 23 1
41 35 1
41 59 1
41 311 1
41 323 1
41 347 1
41 407 1
41 419 1
41 443 1
42 24 1
42 41 1
42 49 1
42 312 1
42 329 1
42 337 1
42 408 1
42 425 1
42 433 1
43 29 1
43 37 1
43 51 1
43 317 1
43 325 1
43 339 1
43 413 1
43 421 1
43 435 1
44 25 1
44 38 1
44 62 1
44 313 1
44 326 1
44 350 1
44 409 1
44 422 1
44 446 1
45 26 1
45 44 1
45 50 1
45 314 1
45 332 1
45 338 1
45 410 1
45 428 1
45 434 1
46 27 1
46 40 1
46 54 1
46 315 1
46 328 1
46 342 1
46 411 1
46 424 1
46 438 1
47 30 1
47 42 1
47 52 1
47 318 1
47 330 1
47 340 1
47 414 1
47 426 1
47 436 1
48 31 1
48 45 1
48 55 1
48 319 1
48 333 1
48 343 1
48 415 1
48 429 1
48 439 1
49 97 1
49 128 1
49 182 1
49 289 1
49 320 1
49 374 1
49 481 1
49 512 1
49 566 1
50 98 1
50 113 1
50 180 1
50 290 1
50 305 1
50 372 1
50 482 1
50 497 1
50 564 1
51 99 1
51 114 1
51 183 1
51 291 1
51 306 1
51 375 1
51 483 1
51 498 1
51 567 1
52 100 1
52 118 1
52 188 1
52 292 1
52 310 1
52 380 1
52 484 1
52 502 1
52 572 1
53 101 1
53 124 1
53 189 1
53 293 1
53 316 1
53 381 1
53 485 1
53 508 1
53 573 1
54 102 1
54 115 1
54 185 1
54 294 1
54 307 1
54 377 1
54 486 1
54 499 1
54 569 1
55 103 1
55 116 1
55 181 1
55 295 1
55 308 1
55 373 1
55 487 1
55 500 1
55 565 1
56 104 1
56 117 1
56 187 1
56 296 1
56 309 1
56 379 1
56 488 1
56 501 1
56 571 1
57 105 1
57 119 1
57 184 1
57 297 1
57 311 1
57 376 1
57 489 1
57 503 1
57 568 1
58 106 1
58 120 1
58 190 1
58 298 1
58 312 1
58 382 1
58 490 1
58 504 1
58 574 1
59 107 1
59 125 1
59 192 1
59 299 1
59 317 1
59 384 1
59 491 1
59 509 1
59 576 1
60 108 1
60 121 1
60 186 1
60 300 1
60 313 1
60 378 1
60 492 1
60 505 1
60 570 1
61 109 1
61 122 1
61 191 1
61 301 1
61 314 1
61 383 1
61 493 1
61 506 1
61 575 1
62 110 1
62 123 1
62 177 1
62 302 1
62 315 1
62 369 1
62 494 1
62 507 1
62 561 1
63 111 1
63 126 1
63 178 1
63 303 1
63 318 1
63 370 1
63 495 1
63 510 1
63 562 1
64 112 1
64 127 1
64 179 1
64 304 1
64 319 1
64 371 1
64 496 1
64 511 1
64 563 1
65 97 1
65 153 1
65 164 1
65 289 1
65 345 1
65 356 1
65 481 1
65 537 1
65 548 1
66 98 1
66 156 1
66 167 1
66 290 1
66 348 1
66 359 1
66 482 1
66 540 1
66 551 1
67 99 1
67 149 1
67 169 1
67 291 1
67 341 1
67 361 1
67 483 1
67 533 1
67 553 1
68 100 1
68 154 1
68 165 1
68 292 1
68 346 1
68 357 1
68 484 1
68 538 1
68 549 1
69 101 1
69 159 1
69 171 1
69 293 1
69 351 1
69 363 1
69 485 1
69 543 1
69 555 1
70 102 1
70 152 1
70 172 1
70 294 1
70 344 1
70 364 1
70 486 1
70 536 1
70 556 1
71 103 1
71 157 1
71 168 1
71 295 1
71 349 1
71 360 1
71 487 1
71 541 1
71 552 1
72 104 1
72 160 1
72 174 1
72 296 1
72 352 1
72 366 1
72 488 1
72 544 1
72 558 1
73 105 1
73 155 1
73 170 1
73 297 1
73 347 1
73 362 1
73 489 1
73 539 1
73 554 1
74 106 1
74 145 1
74 175 1
74 298 1
74 337 1
74 367 1
74 490 1
74 529 1
74 559 1
75 107 1
75 147 1
75 161 1
75 299 1
75 339 1
75 353 1
75 491 1
75 531 1
75 545 1
76 108 1
76 158 1
76 173 1
76 300 1
76 350 1
76 365 1
76 492 1
76 542 1
76 557 1
77 109 1
77 146 1
77 176 1
77 301 1
77 338 1
77 368 1
77 493 1
77 530 1
77 560 1
78 110 1
78 150 1
78 162 1
78 302 1
78 342 1
78 354 1
78 494 1
78 534 1
78 546 1
79 111 1
79 148 1
79 163 1
79 303 1
79 340 1
79 355 1
79 495 1
79 532 1
79 547 1
80 112 1
80 151 1
80 166 1
80 304 1
80 343 1
80 358 1
80 496 1
80 535 1
80 550 1
81 128 1
81 139 1
81 153 1
81 320 1
81 331 1
81 345 1
81 512 1
81 523 1
81 537 1
82 113 1
82 142 1
82 156 1
82 305 1
82 334 1
82 348 1
82 497 1
82 526 1
82 540 1
83 114 1
83 143 1
83 149 1
83 306 1
83 335 1
83 341 1
83 498 1
83 527 1
83 533 1
84 118 1
84 129 1
84 154 1
84 310 1
84 321 1
84 346 1
84 502 1
84 513 1
84 538 1
85 124 1
85 132 1
85 159 1
85 316 1
85 324 1
85 351 1
85 508 1
85 516 1
85 543 1
86 115 1
86 144 1
86 152 1
86 307 1
86 336 1
86 344 1
86 499 1
86 528 1
86 536 1
87 116 1
87 130 1
87 157 1
87 308 1
87 322 1
87 349 1
87 500 1
87 514 1
87 541 1
88 117 1
88 135 1
88 160 1
88 309 1
88 327 1
88 352 1
88 501 1
88 519 1
88 544 1
89 119 1
89 131 1
89 155 1
89 311 1
89 323 1
89 347 1
89 503 1
89 515 1
89 539 1
90 120 1
90 137 1
90 145 1
90 312 1
90 329 1
90 337 1
90 504 1
90 521 1
90 529 1
91 125 1
91 133 1
91 147 1
91 317 1
91 325 1
91 339 1
91 509 1
91 517 1
91 531 1
92 121 1
92 134 1
92 158 1
92 313 1
92 326 1
92 350 1
92 505 1
92 518 1
92 542 1
93 122 1
93 140 1
93 146 1
93 314 1
93 332 1
93 338 1
93 506 1
93 524 1
93 530 1
94 123 1
94 136 1
94 150 1
94 315 1
94 328 1
94 342 1
94 507 1
94 520 1
94 534 1
95 126 1
95 138 1
95 148 1
95 318 1
95 330 1
95 340 1
95 510 1
95 522 1
95 532 1
96 127 1
96 141 1
96 151 1
96 319 1
96 333 1
96 343 1
96 511 1
96 525 1
96 535 1
97 193 1
97 224 1
97 278 1
97 385 1
97 416 1
97 470 1
97 481 1
97 512 1
97 566 1
98 194 1
98 209 1
98 276 1
98 386 1
98 401 1
98 468 1
98 482 1
98 497 1
98 564 1
99 195 1
99 210 1
99 279 1
99 387 1
99 402 1
99 471 1
99 483 1
99 498 1
99 567 1
100 196 1
100 214 1
100 284 1
100 388 1
100 406 1
100 476 1
100 484 1
100 502 1
100 572 1
101 197 1
101 220 1
101 285 1
101 389 1
101 412 1
101 477 1
101 485 1
101 508 1
101 573 1
102 198 1
102 211 1
102 281 1
102 390 1
102 403 1
102 473 1
102 486 1
102 499 1
102 569 1
103 199 1
103 212 1
103 277 1
103 391 1
103 404 1
103 469 1
103 487 1
103 500 1
103 565 1
104 200 1
104 213 1
104 283 1
104 392 1
104 405 1
104 475 1
104 488 1
104 501 1
104 571 1
105 201 1
105 215 1
105 280 1
105 393 1
105 407 1
105 472 1
105 489 1
105 503 1
105 568 1
106 202 1
106 216 1
106 286 1
106 394 1
106 408 1
106 478 1
106 490 1
106 504 1
106 574 1
107 203 1
107 221 1
107 288 1
107 395 1
107 413 1
107 480 1
107 491 1
107 509 1
107 576 1
108 204 1
108 217 1
108 282 1
108 396 1
108 409 1
108 474 1
108 492 1
108 505 1
108 570 1
109 205 1
109 218 1
109 287 1
109 397 1
109 410 1
109 479 1
109 493 1
109 506 1
109 575 1
110 206 1
110 219 1
110 273 1
110 398 1
110 411 1
110 465 1
110 494 1
110 507 1
110 561 1
111 207 1
111 222 1
111 274 1
111 399 1
111 414 1
111 466 1
111 495 1
111 510 1
111 562 1
112 208 1
112 223 1
112 275 1
112 400 1
112 415 1
112 467 1
112 496 1
112 511 1
112 563 1
113 193 1
113 249 1
113 260 1
113 385 1
113 441 1
113 452 1
113 481 1
113 537 1
113 548 1
114 194 1
114 252 1
114 263 1
114 386 1
114 444 1
114 455 1
114 482 1
114 540 1
114 551 1
115 195 1
115 245 1
115 265 1
115 387 1
115 437 1
115 457 1
115 483 1
115 533 1
115 553 1
116 196 1
116 250 1
116 261 1
116 388 1
116 442 1
116 453 1
116 484 1
116 538 1
116 549 1
117 197 1
117 255 1
117 267 1
117 389 1
117 447 1
117 459 1
117 485 1
117 543 1
117 555 1
118 198 1
118 248 1
118 268 1
118 390 1
118 440 1
118 460 1
118 486 1
118 536 1
118 556 1
119 199 1
119 253 1
119 264 1
119 391 1
119 445 1
119 456 1
119 487 1
119 541 1
119 552 1
120 200 1
120 256 1
120 270 1
120 392 1
120 448 1
120 462 1
120 488 1
120 544 1
120 558 1
121 201 1
121 251 1
121 266 1
121 393 1
121 443 1
121 458 1
121 489 1
121 539 1
121 554 1
122 202 1
122 241 1
122 271 1
122 394 1
122 433 1
122 463 1
122 490 1
122 529 1
122 559 1
123 203 1
123 243 1
123 257 1
123 395 1
123 435 1
123 449 1
123 491 1
123 531 1
123 545 1
124 204 1
124 254 1
124 269 1
124 396 1
124 446 1
124 461 1
124 492 1
124 542 1
124 557 1
125 205 1
125 242 1
125 272 1
125 397 1
125 434 1
125 464 1
125 493 1
125 530 1
125 560 1
126 206 1
126 246 1
126 258 1
126 398 1
126 438 1
126 450 1
126 494 1
126 534 1
126 546 1
127 207 1
127 244 1
127 259 1
127 399 1
127 436 1
127 451 1
127 495 1
127 532 1
127 547 1
128 208 1
128 247 1
128 262 1
128 400 1
128 439 1
128 454 1
128 496 1
128 535 1
128 550 1
129 224 1
129 235 1
129 249 1
129 416 1
129 427 1
129 441 1
129 512 1
129 523 1
129 537 1
130 209 1
130 238 1
130 252 1
130 401 1
130 430 1
130 444 1
130 497 1
130 526 1
130 540 1
131 210 1
131 239 1
131 245 1
131 402 1
131 431 1
131 437 1
131 498 1
131 527 1
131 533 1
132 214 1
132 225 1
132 250 1
132 406 1
132 417 1
132 442 1
132 502 1
132 513 1
132 538 1
133 220 1
133 228 1
133 255 1
133 412 1
133 420 1
133 447 1
133 508 1
133 516 1
133 543 1
134 211 1
134 240 1
134 248 1
134 403 1
134 432 1
134 440 1
134 499 1
134 528 1
134 536 1
135 212 1
135 226 1
135 253 1
135 404 1
135 418 1
135 445 1
135 500 1
135 514 1
135 541 1
136 213 1
136 231 1
136 256 1
136 405 1
136 423 1
136 448 1
136 501 1
136 519 1
136 544 1
137 215 1
137 227 1
137 251 1
137 407 1
137 419 1
137 443 1
137 503 1
137 515 1
137 539 1
138 216 1
138 233 1
138 241 1
138 408 1
138 425 1
138 433 1
138 504 1
138 521 1
138 529 1
139 221 1
139 229 1
139 243 1
139 413 1
139 421 1
139 435 1
139 509 1
139 517 1
139 531 1
140 217 1
140 230 1
140 254 1
140 409 1
140 422 1
140 446 1
140 505 1
140 518 1
140 542 1
141 218 1
141 236 1
141 242 1
141 410 1
141 428 1
141 434 1
141 506 1
141 524 1
141 530 1
142 219 1
142 232 1
142 246 1
142 411 1
142 424 1
142 438 1
142 507 1
142 520 1
142 534 1
143 222 1
143 234 1
143 244 1
143 414 1
143 426 1
143 436 1
143 510 1
143 522 1
143 532 1
144 223 1
144 237 1
144 247 1
144 415 1
144 429 1
144 439 1
144 511 1
144 525 1
144 535 1
145 1 1
145 17 1
145 49 1
145 196 1
145 212 1
145 244 1
145 394 1
145 410 1
145 442 1
146 2 1
146 18 1
146 50 1
146 199 1
146 215 1
146 247 1
146 397 1
146 413 1
146 445 1
147 3 1
147 19 1
147 51 1
147 201 1
147 217 1
147 249 1
147 395 1
147 411 1
147 443 1
148 4 1
148 20 1
148 52 1
148 197 1
148 213 1
148 245 1
148 399 1
148 415 1
148 447 1
149 5 1
149 21 1
149 53 1
149 203 1
149 219 1
149 251 1
149 387 1
149 403 1
149 435 1
150 6 1
150 22 1
150 54 1
150 204 1
150 220 1
150 252 1
150 398 1
150 414 1
150 446 1
151 7 1
151 23 1
151 55 1
151 200 1
151 216 1
151 248 1
151 400 1
151 416 1
151 448 1
152 8 1
152 24 1
152 56 1
152 206 1
152 222 1
152 254 1
152 390 1
152 406 1
152 438 1
153 9 1
153 25 1
153 57 1
153 202 1
153 218 1
153 250 1
153 385 1
153 401 1
153 433 1
154 10 1
154 26 1
154 58 1
154 207 1
154 223 1
154 255 1
154 388 1
154 404 1
154 436 1
155 11 1
155 27 1
155 59 1
155 193 1
155 209 1
155 241 1
155 393 1
155 409 1
155 441 1
156 12 1
156 28 1
156 60 1
156 205 1
156 221 1
156 253 1
156 386 1
156 402 1
156 434 1
157 13 1
157 29 1
157 61 1
157 208 1
157 224 1
157 256 1
157 391 1
157 407 1
157 439 1
158 14 1
158 30 1
158 62 1
158 194 1
158 210 1
158 242 1
158 396 1
158 412 1
158 444 1
159 15 1
159 31 1
159 63 1
159 195 1
159 211 1
159 243 1
159 389 1
159 405 1
159 437 1
160 16 1
160 32 1
160 64 1
160 198 1
160 214 1
160 246 1
160 392 1
160 408 1
160 440 1
161 1 1
161 33 1
161 65 1
161 196 1
161 228 1
161 260 1
161 394 1
161 426 1
161 458 1
162 2 1
162 34 1
162 66 1
162 199 1
162 231 1
162 263 1
162 397 1
162 429 1
162 461 1
163 3 1
163 35 1
163 67 1
163 201 1
163 233 1
163 265 1
163 395 1
163 427 1
163 459 1
164 4 1
164 36 1
164 68 1
164 197 1
164 229 1
164 261 1
164 399 1
164 431 1
164 463 1
165 5 1
165 37 1
165 69 1
165 203 1
165 235 1
165 267 1
165 387 1
165 419 1
165 451 1
166 6 1
166 38 1
166 70 1
166 204 1
166 236 1
166 268 1
166 398 1
166 430 1
166 462 1
167 7 1
167 39 1
167 71 1
167 200 1
167 232 1
167 264 1
167 400 1
167 432 1
167 464 1
168 8 1
168 40 1
168 72 1
168 206 1
168 238 1
168 270 1
168 390 1
168 422 1
168 454 1
169 9 1
169 41 1
169 73 1
169 202 1
169 234 1
169 266 1
169 385 1
169 417 1
169 449 1
170 10 1
170 42 1
170 74 1
170 207 1
170 239 1
170 271 1
170 388 1
170 420 1
170 452 1
171 11 1
171 43 1
171 75 1
171 193 1
171 225 1
171 257 1
171 393 1
171 425 1
171 457 1
172 12 1
172 44 1
172 76 1
172 205 1
172 237 1
172 269 1
172 386 1
172 418 1
172 450 1
173 13 1
173 45 1
173 77 1
173 208 1
173 240 1
173 272 1
173 391 1
173 423 1
173 455 1
174 14 1
174 46 1
174 78 1
174 194 1
174 226 1
174 258 1
174 396 1
174 428 1
174 460 1
175 15 1
175 47 1
175 79 1
175 195 1
175 227 1
175 259 1
175 389 1
175 421 1
175 453 1
176 16 1
176 48 1
176 80 1
176 198 1
176 230 1
176 262 1
176 392 1
176 424 1
176 456 1
177 17 1
177 33 1
177 81 1
177 212 1
177 228 1
177 276 1
177 410 1
177 426 1
177 474 1
178 18 1
178 34 1
178 82 1
178 215 1
178 231 1
178 279 1
178 413 1
178 429 1
178 477 1
179 19 1
179 35 1
179 83 1
179 217 1
179 233 1
179 281 1
179 411 1
179 427 1
179 475 1
180 20 1
180 36 1
180 84 1
180 213 1
180 229 1
180 277 1
180 415 1
180 431 1
180 479 1
181 21 1
181 37 1
181 85 1
181 219 1
181 235 1
181 283 1
181 403 1
181 419 1
181 467 1
182 22 1
182 38 1
182 86 1
182 220 1
182 236 1
182 284 1
182 414 1
182 430 1
182 478 1
183 23 1
183 39 1
183 87 1
183 216 1
183 232 1
183 280 1
183 416 1
183 432 1
183 480 1
184 24 1
184 40 1
184 88 1
184 222 1
184 238 1
184 286 1
184 406 1
184 422 1
184 470 1
185 25 1
185 41 1
185 89 1
185 218 1
185 234 1
185 282 1
185 401 1
185 417 1
185 465 1
186 26 1
186 42 1
186 90 1
186 223 1
186 239 1
186 287 1
186 404 1
186 420 1
186 468 1
187 27 1
187 43 1
187 91 1
187 209 1
187 225 1
187 273 1
187 409 1
187 425 1
187 473 1
188 28 1
188 44 1
188 92 1
188 221 1
188 237 1
188 285 1
188 402 1
188 418 1
188 466 1
189 29 1
189 45 1
189 93 1
189 224 1
189 240 1
189 288 1
189 407 1
189 423 1
189 471 1
190 30 1
190 46 1
190 94 1
190 210 1
190 226 1
190 274 1
190 412 1
190 428 1
190 476 1
191 31 1
191 47 1
191 95 1
191 211 1
191 227 1
191 275 1
191 405 1
191 421 1
191 469 1
192 32 1
192 48 1
192 96 1
192 214 1
192 230 1
192 278 1
192 408 1
192 424 1
192 472 1
193 99 1
193 115 1
193 147 1
193 196 1
193 212 1
193 244 1
193 296 1
193 312 1
193 344 1
194 102 1
194 118 1
194 150 1
194 199 1
194 215 1
194 247 1
194 298 1
194 314 1
194 346 1
195 100 1
195 116 1
195 148 1
195 201 1
195 217 1
195 249 1
195 301 1
195 317 1
195 349 1
196 105 1
196 121 1
196 153 1
196 197 1
196 213 1
196 245 1
196 302 1
196 318 1
196 350 1
197 106 1
197 122 1
197 154 1
197 203 1
197 219 1
197 251 1
197 290 1
197 306 1
197 338 1
198 103 1
198 119 1
198 151 1
198 204 1
198 220 1
198 252 1
198 299 1
198 315 1
198 347 1
199 108 1
199 124 1
199 156 1
199 200 1
199 216 1
199 248 1
199 303 1
199 319 1
199 351 1
200 109 1
200 125 1
200 157 1
200 206 1
200 222 1
200 254 1
200 291 1
200 307 1
200 339 1
201 101 1
201 117 1
201 149 1
201 202 1
201 218 1
201 250 1
201 304 1
201 320 1
201 352 1
202 107 1
202 123 1
202 155 1
202 207 1
202 223 1
202 255 1
202 294 1
202 310 1
202 342 1
203 111 1
203 127 1
203 159 1
203 193 1
203 209 1
203 241 1
203 295 1
203 311 1
203 343 1
204 104 1
204 120 1
204 152 1
204 205 1
204 221 1
204 253 1
204 289 1
204 305 1
204 337 1
205 110 1
205 126 1
205 158 1
205 208 1
205 224 1
205 256 1
205 292 1
205 308 1
205 340 1
206 112 1
206 128 1
206 160 1
206 194 1
206 210 1
206 242 1
206 297 1
206 313 1
206 345 1
207 97 1
207 113 1
207 145 1
207 195 1
207 211 1
207 243 1
207 300 1
207 316 1
207 348 1
208 98 1
208 114 1
208 146 1
208 198 1
208 214 1
208 246 1
208 293 1
208 309 1
208 341 1
209 99 1
209 131 1
209 163 1
209 196 1
209 228 1
209 260 1
209 296 1
209 328 1
209 360 1
210 102 1
210 134 1
210 166 1
210 199 1
210 231 1
210 263 1
210 298 1
210 330 1
210 362 1
211 100 1
211 132 1
211 164 1
211 201 1
211 233 1
211 265 1
211 301 1
211 333 1
211 365 1
212 105 1
212 137 1
212 169 1
212 197 1
212 229 1
212 261 1
212 302 1
212 334 1
212 366 1
213 106 1
213 138 1
213 170 1
213 203 1
213 235 1
213 267 1
213 290 1
213 322 1
213 354 1
214 103 1
214 135 1
214 167 1
214 204 1
214 236 1
214 268 1
214 299 1
214 331 1
214 363 1
215 108 1
215 140 1
215 172 1
215 200 1
215 232 1
215 264 1
215 303 1
215 335 1
215 367 1
216 109 1
216 141 1
216 173 1
216 206 1
216 238 1
216 270 1
216 291 1
216 323 1
216 355 1
217 101 1
217 133 1
217 165 1
217 202 1
217 234 1
217 266 1
217 304 1
217 336 1
217 368 1
218 107 1
218 139 1
218 171 1
218 207 1
218 239 1
218 271 1
218 294 1
218 326 1
218 358 1
219 111 1
219 143 1
219 175 1
219 193 1
219 225 1
219 257 1
219 295 1
219 327 1
219 359 1
220 104 1
220 136 1
220 168 1
220 205 1
220 237 1
220 269 1
220 289 1
220 321 1
220 353 1
221 110 1
221 142 1
221 174 1
221 208 1
221 240 1
221 272 1
221 292 1
221 324 1
221 356 1
222 112 1
222 144 1
222 176 1
222 194 1
222 226 1
222 258 1
222 297 1
222 329 1
222 361 1
223 97 1
223 129 1
223 161 1
223 195 1
223 227 1
223 259 1
223 300 1
223 332 1
223 364 1
224 98 1
224 130 1
224 162 1
224 198 1
224 230 1
224 262 1
224 293 1
224 325 1
224 357 1
225 115 1
225 131 1
225 179 1
225 212 1
225 228 1
225 276 1
225 312 1
225 328 1
225 376 1
226 118 1
226 134 1
226 182 1
226 215 1
226 231 1
226 279 1
226 314 1
226 330 1
226 378 1
227 116 1
227 132 1
227 180 1
227 217 1
227 233 1
227 281 1
227 317 1
227 333 1
227 381 1
228 121 1
228 137 1
228 185 1
228 213 1
228 229 1
228 277 1
228 318 1
228 334 1
228 382 1
229 122 1
229 138 1
229 186 1
229 219 1
229 235 1
229 283 1
229 306 1
229 322 1
229 370 1
230 119 1
230 135 1
230 183 1
230 220 1
230 236 1
230 284 1
230 315 1
230 331 1
230 379 1
231 124 1
231 140 1
231 188 1
231 216 1
231 232 1
231 280 1
231 319 1
231 335 1
231 383 1
232 125 1
232 141 1
232 189 1
232 222 1
232 238 1
232 286 1
232 307 1
232 323 1
232 371 1
233 117 1
233 133 1
233 181 1
233 218 1
233 234 1
233 282 1
233 320 1
233 336 1
233 384 1
234 123 1
234 139 1
234 187 1
234 223 1
234 239 1
234 287 1
234 310 1
234 326 1
234 374 1
235 127 1
235 143 1
235 191 1
235 209 1
235 225 1
235 273 1
235 311 1
235 327 1
235 375 1
236 120 1
236 136 1
236 184 1
236 221 1
236 237 1
236 285 1
236 305 1
236 321 1
236 369 1
237 126 1
237 142 1
237 190 1
237 224 1
237 240 1
237 288 1
237 308 1
237 324 1
237 372 1
238 128 1
238 144 1
238 192 1
238 210 1
238 226 1
238 274 1
238 313 1
238 329 1
238 377 1
239 113 1
239 129 1
239 177 1
239 211 1
239 227 1
239 275 1
239 316 1
239 332 1
239 380 1
240 114 1
240 130 1
240 178 1
240 214 1
240 230 1
240 278 1
240 309 1
240 325 1
240 373 1
241 296 1
241 312 1
241 344 1
241 394 1
241 410 1
241 442 1
241 493 1
241 509 1
241 541 1
242 298 1
242 314 1
242 346 1
242 397 1
242 413 1
242 445 1
242 491 1
242 507 1
242 539 1
243 301 1
243 317 1
243 349 1
243 395 1
243 411 1
243 443 1
243 494 1
243 510 1
243 542 1
244 302 1
244 318 1
244 350 1
244 399 1
244 415 1
244 447 1
244 496 1
244 512 1
244 544 1
245 290 1
245 306 1
245 338 1
245 387 1
245 403 1
245 435 1
245 486 1
245 502 1
245 534 1
246 299 1
246 315 1
246 347 1
246 398 1
246 414 1
246 446 1
246 495 1
246 511 1
246 543 1
247 303 1
247 319 1
247 351 1
247 400 1
247 416 1
247 448 1
247 481 1
247 497 1
247 529 1
248 291 1
248 307 1
248 339 1
248 390 1
248 406 1
248 438 1
248 484 1
248 500 1
248 532 1
249 304 1
249 320 1
249 352 1
249 385 1
249 401 1
249 433 1
249 482 1
249 498 1
249 530 1
250 294 1
250 310 1
250 342 1
250 388 1
250 404 1
250 436 1
250 487 1
250 503 1
250 535 1
251 295 1
251 311 1
251 343 1
251 393 1
251 409 1
251 441 1
251 492 1
251 508 1
251 540 1
252 289 1
252 305 1
252 337 1
252 386 1
252 402 1
252 434 1
252 483 1
252 499 1
252 531 1
253 292 1
253 308 1
253 340 1
253 391 1
253 407 1
253 439 1
253 489 1
253 505 1
253 537 1
254 297 1
254 313 1
254 345 1
254 396 1
254 412 1
254 444 1
254 485 1
254 501 1
254 533 1
255 300 1
255 316 1
255 348 1
255 389 1
255 405 1
255 437 1
255 488 1
255 504 1
255 536 1
256 293 1
256 309 1
256 341 1
256 392 1
256 408 1
256 440 1
256 490 1
256 506 1
256 538 1
257 296 1
257 328 1
257 360 1
257 394 1
257 426 1
257 458 1
257 493 1
257 525 1
257 557 1
258 298 1
258 330 1
258 362 1
258 397 1
258 429 1
258 461 1
258 491 1
258 523 1
258 555 1
259 301 1
259 333 1
259 365 1
259 395 1
259 427 1
259 459 1
259 494 1
259 526 1
259 558 1
260 302 1
260 334 1
260 366 1
260 399 1
260 431 1
260 463 1
260 496 1
260 528 1
260 560 1
261 290 1
261 322 1
261 354 1
261 387 1
261 419 1
261 451 1
261 486 1
261 518 1
261 550 1
262 299 1
262 331 1
262 363 1
262 398 1
262 430 1
262 462 1
262 495 1
262 527 1
262 559 1
263 303 1
263 335 1
263 367 1
263 400 1
263 432 1
263 464 1
263 481 1
263 513 1
263 545 1
264 291 1
264 323 1
264 355 1
264 390 1
264 422 1
264 454 1
264 484 1
264 516 1
264 548 1
265 304 1
265 336 1
265 368 1
265 385 1
265 417 1
265 449 1
265 482 1
265 514 1
265 546 1
266 294 1
266 326 1
266 358 1
266 388 1
266 420 1
266 452 1
266 487 1
266 519 1
266 551 1
267 295 1
267 327 1
267 359 1
267 393 1
267 425 1
267 457 1
267 492 1
267 524 1
267 556 1
268 289 1
268 321 1
268 353 1
268 386 1
268 418 1
268 450 1
268 483 1
268 515 1
268 547 1
269 292 1
269 324 1
269 356 1
269 391 1
269 423 1
269 455 1
269 489 1
269 521 1
269 553 1
270 297 1
270 329 1
270 361 1
270 396 1
270 428 1
270 460 1
270 485 1
270 517 1
270 549 1
271 300 1
271 332 1
271 364 1
271 389 1
271 421 1
271 453 1
271 488 1
271 520 1
271 552 1
272 293 1
272 325 1
272 357 1
272 392 1
272 424 1
272 456 1
272 490 1
272 522 1
272 554 1
273 312 1
273 328 1
273 376 1
273 410 1
273 426 1
273 474 1
273 509 1
273 525 1
273 573 1
274 314 1
274 330 1
274 378 1
274 413 1
274 429 1
274 477 1
274 507 1
274 523 1
274 571 1
275 317 1
275 333 1
275 381 1
275 411 1
275 427 1
275 475 1
275 510 1
275 526 1
275 574 1
276 318 1
276 334 1
276 382 1
276 415 1
276 431 1
276 479 1
276 512 1
276 528 1
276 576 1
277 306 1
277 322 1
277 370 1
277 403 1
277 419 1
277 467 1
277 502 1
277 518 1
277 566 1
278 315 1
278 331 1
278 379 1
278 414 1
278 430 1
278 478 1
278 511 1
278 527 1
278 575 1
279 319 1
279 335 1
279 383 1
279 416 1
279 432 1
279 480 1
279 497 1
279 513 1
279 561 1
280 307 1
280 323 1
280 371 1
280 406 1
280 422 1
280 470 1
280 500 1
280 516 1
280 564 1
281 320 1
281 336 1
281 384 1
281 401 1
281 417 1
281 465 1
281 498 1
281 514 1
281 562 1
282 310 1
282 326 1
282 374 1
282 404 1
282 420 1
282 468 1
282 503 1
282 519 1
282 567 1
283 311 1
283 327 1
283 375 1
283 409 1
283 425 1
283 473 1
283 508 1
283 524 1
283 572 1
284 305 1
284 321 1
284 369 1
284 402 1
284 418 1
284 466 1
284 499 1
284 515 1
284 563 1
285 308 1
285 324 1
285 372 1
285 407 1
285 423 1
285 471 1
285 505 1
285 521 1
285 569 1
286 313 1
286 329 1
286 377 1
286 412 1
286 428 1
286 476 1
286 501 1
286 517 1
286 565 1
287 316 1
287 332 1
287 380 1
287 405 1
287 421 1
287 469 1
287 504 1
287 520 1
287 568 1
288 309 1
288 325 1
288 373 1
288 408 1
288 424 1
288 472 1
288 506 1
288 522 1
288 570 1
