%%MatrixMarket matrix coordinate integer general
180 360 1620
1 1 1
1 27 1
1 56 1
1 181 1
1 207 1
1 236 1
1 241 1
1 267 1
1 296 1
2 2 1
2 28 1
2 55 1
2 182 1
2 208 1
2 235 1
2 242 1
2 268 1
2 295 1
3 3 1
3 29 1
3 58 1
3 183 1
3 209 1
3 238 1
3 243 1
3 269 1
3 298 1
4 4 1
4 30 1
4 57 1
4 184 1
4 210 1
4 237 1
4 244 1
4 270 1
4 297 1
5 5 1
5 21 1
5 60 1
5 185 1
5 201 1
5 240 1
5 245 1
5 261 1
5 300 1
6 6 1
6 22 1
6 59 1
6 186 1
6 202 1
6 239 1
6 246 1
6 262 1
6 299 1
7 7 1
7 23 1
7 52 1
7 187 1
7 203 1
7 232 1
7 247 1
7 263 1
7 292 1
8 8 1
8 24 1
8 51 1
8 188 1
8 204 1
8 231 1
8 248 1
8 264 1
8 291 1
9 9 1
9 25 1
9 54 1
9 189 1
9 205 1
9 234 1
9 249 1
9 265 1
9 294 1
10 10 1
10 26 1
10 53 1
10 190 1
10 206 1
10 233 1
10 250 1
10 266 1
10 293 1
11 1 1
11 38 1
11 45 1
11 181 1
11 218 1
11 225 1
11 241 1
11 278 1
11 285 1
12 2 1
12 37 1
12 46 1
12 182 1
12 217 1
12 226 1
12 242 1
12 277 1
12 286 1
13 3 1
13 40 1
13 47 1
13 183 1
13 220 1
13 227 1
13 243 1
13 280 1
13 287 1
14 4 1
14 39 1
14 48 1
14 184 1
14 219 1
14 228 1
14 244 1
14 279 1
14 288 1
15 5 1
15 32 1
15 49 1
15 185 1
15 212 1
15 229 1
15 245 1
15 272 1
15 289 1
16 6 1
16 31 1
16 50 1
16 186 1
16 211 1
16 230 1
16 246 1
16 271 1
16 290 1
17 7 1
17 34 1
17 41 1
17 187 1
17 214 1
17 221 1
17 247 1
17 274 1
17 281 1
18 8 1
18 33 1
18 42 1
18 188 1
18 213 1
18 222 1
18 248 1
18 273 1
18 282 1
19 9 1
19 36 1
19 43 1
19 189 1
19 216 1
19 223 1
19 249 1
19 276 1
19 283 1
20 10 1
20 35 1
20 44 1
20 190 1
20 215 1
20 224 1
20 250 1
20 275 1
20 284 1
21 12 1
21 27 1
21 38 1
21 192 1
21 207 1
21 218 1
21 252 1
21 267 1
21 278 1
22 11 1
22 28 1
22 37 1
22 191 1
22 208 1
22 217 1
22 251 1
22 268 1
22 277 1
23 14 1
23 29 1
23 40 1
23 194 1
23 209 1
23 220 1
23 254 1
23 269 1
23 280 1
24 13 1
24 30 1
24 39 1
24 193 1
24 210 1
24 219 1
24 253 1
24 270 1
24 279 1
25 16 1
25 21 1
25 32 1
25 196 1
25 201 1
25 212 1
25 256 1
25 261 1
25 272 1
26 15 1
26 22 1
26 31 1
26 195 1
26 202 1
26 211 1
26 255 1
26 262 1
26 271 1
27 18 1
27 23 1
27 34 1
27 198 1
27 203 1
27 214 1
27 258 1
27 263 1
27 274 1
28 17 1
28 24 1
28 33 1
28 197 1
28 204 1
28 213 1
28 257 1
28 264 1
28 273 1
29 20 1
29 25 1
29 36 1
29 200 1
29 205 1
29 216 1
29 260 1
29 265 1
29 276 1
30 19 1
30 26 1
30 35 1
30 199 1
30 206 1
30 215 1
30 259 1
30 266 1
30 275 1
31 61 1
31 87 1
31 116 1
31 181 1
31 207 1
31 236 1
31 301 1
31 327 1
31 356 1
32 62 1
32 88 1
32 115 1
32 182 1
32 208 1
32 235 1
32 302 1
32 328 1
32 355 1
33 63 1
33 89 1
33 118 1
33 183 1
33 209 1
33 238 1
33 303 1
33 329 1
33 358 1
34 64 1
34 90 1
34 117 1
34 184 1
34 210 1
34 237 1
34 304 1
34 330 1
34 357 1
35 65 1
35 81 1
35 120 1
35 185 1
35 201 1
35 240 1
35 305 1
35 321 1
35 360 1
36 66 1
36 82 1
36 119 1
36 186 1
36 202 1
36 239 1
36 306 1
36 322 1
36 359 1
37 67 1
37 83 1
37 112 1
37 187 1
37 203 1
37 232 1
37 307 1
37 323 1
37 352 1
38 68 1
38 84 1
38 111 1
38 188 1
38 204 1
38 231 1
38 308 1
38 324 1
38 351 1
39 69 1
39 85 1
39 114 1
39 189 1
39 205 1
39 234 1
39 309 1
39 325 1
39 354 1
40 70 1
40 86 1
40 113 1
40 190 1
40 206 1
40 233 1
40 310 1
40 326 1
40 353 1
41 61 1
41 98 1
41 105 1
41 181 1
41 218 1
41 225 1
41 301 1
41 338 1
41 345 1
42 62 1
42 97 1
42 106 1
42 182 1
42 217 1
42 226 1
42 302 1
42 337 1
42 346 1
43 63 1
43 100 1
43 107 1
43 183 1
43 220 1
43 227 1
43 303 1
43 340 1
43 347 1
44 64 1
44 99 1
44 108 1
44 184 1
44 219 1
44 228 1
44 304 1
44 339 1
44 348 1
45 65 1
45 92 1
45 109 1
45 185 1
45 212 1
45 229 1
45 305 1
45 332 1
45 349 1
46 66 1
46 91 1
46 110 1
46 186 1
46 211 1
46 230 1
46 306 1
46 331 1
46 350 1
47 67 1
47 94 1
47 101 1
47 187 1
47 214 1
47 221 1
47 307 1
47 334 1
47 341 1
48 68 1
48 93 1
48 102 1
48 188 1
48 213 1
48 222 1
48 308 1
48 333 1
48 342 1
49 69 1
49 96 1
49 103 1
49 189 1
49 216 1
49 223 1
49 309 1
49 336 1
49 343 1
50 70 1
50 95 1
50 104 1
50 190 1
50 215 1
50 224 1
50 310 1
50 335 1
50 344 1
51 72 1
51 87 1
51 98 1
51 192 1
51 207 1
51 218 1
51 312 1
51 327 1
51 338 1
52 71 1
52 88 1
52 97 1
52 191 1
52 208 1
52 217 1
52 311 1
52 328 1
52 337 1
53 74 1
53 89 1
53 100 1
53 194 1
53 209 1
53 220 1
53 314 1
53 329 1
53 340 1
54 73 1
54 90 1
54 99 1
54 193 1
54 210 1
54 219 1
54 313 1
54 330 1
54 339 1
55 76 1
55 81 1
55 92 1
55 196 1
55 201 1
55 212 1
55 316 1
55 321 1
55 332 1
56 75 1
56 82 1
56 91 1
56 195 1
56 202 1
56 211 1
56 315 1
56 322 1
56 331 1
57 78 1
57 83 1
57 94 1
57 198 1
57 203 1
57 214 1
57 318 1
57 323 1
57 334 1
58 77 1
58 84 1
58 93 1
58 197 1
58 204 1
58 213 1
58 317 1
58 324 1
58 333 1
59 80 1
59 85 1
59 96 1
59 200 1
59 205 1
59 216 1
59 320 1
59 325 1
59 336 1
60 79 1
60 86 1
60 95 1
60 199 1
60 206 1
60 215 1
60 319 1
60 326 1
60 335 1
61 121 1
61 147 1
61 176 1
61 241 1
61 267 1
61 296 1
61 301 1
61 327 1
61 356 1
62 122 1
62 148 1
62 175 1
62 242 1
62 268 1
62 295 1
62 302 1
62 328 1
62 355 1
63 123 1
63 149 1
63 178 1
63 243 1
63 269 1
63 298 1
63 303 1
63 329 1
63 358 1
64 124 1
64 150 1
64 177 1
64 244 1
64 270 1
64 297 1
64 304 1
64 330 1
64 357 1
65 125 1
65 141 1
65 180 1
65 245 1
65 261 1
65 300 1
65 305 1
65 321 1
65 360 1
66 126 1
66 142 1
66 179 1
66 246 1
66 262 1
66 299 1
66 306 1
66 322 1
66 359 1
67 127 1
67 143 1
67 172 1
67 247 1
67 263 1
67 292 1
67 307 1
67 323 1
67 352 1
68 128 1
68 144 1
68 171 1
68 248 1
68 264 1
68 291 1
68 308 1
68 324 1
68 351 1
69 129 1
69 145 1
69 174 1
69 249 1
69 265 1
69 294 1
69 309 1
69 325 1
69 354 1
70 130 1
70 146 1
70 173 1
70 250 1
70 266 1
70 293 1
70 310 1
70 326 1
70 353 1
71 121 1
71 158 1
71 165 1
71 241 1
71 278 1
71 285 1
71 301 1
71 338 1
71 345 1
72 122 1
72 157 1
72 166 1
72 242 1
72 277 1
72 286 1
72 302 1
72 337 1
72 346 1
73 123 1
73 160 1
73 167 1
73 243 1
73 280 1
73 287 1
73 303 1
73 340 1
73 347 1
74 124 1
74 159 1
74 168 1
74 244 1
74 279 1
74 288 1
74 304 1
74 339 1
74 348 1
75 125 1
75 152 1
75 169 1
75 245 1
75 272 1
75 289 1
75 305 1
75 332 1
75 349 1
76 126 1
76 151 1
76 170 1
76 246 1
76 271 1
76 290 1
76 306 1
76 331 1
76 350 1
77 127 1
77 154 1
77 161 1
77 247 1
77 274 1
77 281 1
77 307 1
77 334 1
77 341 1
78 128 1
78 153 1
78 162 1
78 248 1
78 273 1
78 282 1
78 308 1
78 333 1
78 342 1
79 129 1
79 156 1
79 163 1
79 249 1
79 276 1
79 283 1
79 309 1
79 336 1
79 343 1
80 130 1
80 155 1
80 164 1
80 250 1
80 275 1
80 284 1
80 310 1
80 335 1
80 344 1
81 132 1
81 147 1
81 158 1
81 252 1
81 267 1
81 278 1
81 312 1
81 327 1
81 338 1
82 131 1
82 148 1
82 157 1
82 251 1
82 268 1
82 277 1
82 311 1
82 328 1
82 337 1
83 134 1
83 149 1
83 160 1
83 254 1
83 269 1
83 280 1
83 314 1
83 329 1
83 340 1
84 133 1
84 150 1
84 159 1
84 253 1
84 270 1
84 279 1
84 313 1
84 330 1
84 339 1
85 136 1
85 141 1
85 152 1
85 256 1
85 261 1
85 272 1
85 316 1
85 321 1
85 332 1
86 135 1
86 142 1
86 151 1
86 255 1
86 262 1
86 271 1
86 315 1
86 322 1
86 331 1
87 138 1
87 143 1
87 154 1
87 258 1
87 263 1
87 274 1
87 318 1
87 323 1
87 334 1
88 137 1
88 144 1
88 153 1
88 257 1
88 264 1
88 273 1
88 317 1
88 324 1
88 333 1
89 140 1
89 145 1
89 156 1
89 260 1
89 265 1
89 276 1
89 320 1
89 325 1
89 336 1
90 139 1
90 146 1
90 155 1
90 259 1
90 266 1
90 275 1
90 319 1
90 326 1
90 335 1
91 1 1
91 11 1
91 31 1
91 245 1
91 255 1
91 275 1
91 306 1
91 316 1
91 336 1
92 2 1
92 12 1
92 32 1
92 246 1
92 256 1
92 276 1
92 305 1
92 315 1
92 335 1
93 3 1
93 13 1
93 33 1
93 247 1
93 257 1
93 277 1
93 308 1
93 318 1
93 338 1
94 4 1
94 14 1
94 34 1
94 248 1
94 258 1
94 278 1
94 307 1
94 317 1
94 337 1
95 5 1
95 15 1
95 35 1
95 249 1
95 259 1
95 279 1
95 310 1
95 320 1
95 340 1
96 6 1
96 16 1
96 36 1
96 250 1
96 260 1
96 280 1
96 309 1
96 319 1
96 339 1
97 7 1
97 17 1
97 37 1
97 241 1
97 251 1
97 271 1
97 302 1
97 312 1
97 332 1
98 8 1
98 18 1
98 38 1
98 242 1
98 252 1
98 272 1
98 301 1
98 311 1
98 331 1
99 9 1
99 19 1
99 39 1
99 243 1
99 253 1
99 273 1
99 304 1
99 314 1
99 334 1
100 10 1
100 20 1
100 40 1
100 244 1
100 254 1
100 274 1
100 303 1
100 313 1
100 333 1
101 1 1
101 21 1
101 41 1
101 245 1
101 265 1
101 285 1
101 306 1
101 326 1
101 346 1
102 2 1
102 22 1
102 42 1
102 246 1
102 266 1
102 286 1
102 305 1
102 325 1
102 345 1
103 3 1
103 23 1
103 43 1
103 247 1
103 267 1
103 287 1
103 308 1
103 328 1
103 348 1
104 4 1
104 24 1
104 44 1
104 248 1
104 268 1
104 288 1
104 307 1
104 327 1
104 347 1
105 5 1
105 25 1
105 45 1
105 249 1
105 269 1
105 289 1
105 310 1
105 330 1
105 350 1
106 6 1
106 26 1
106 46 1
106 250 1
106 270 1
106 290 1
106 309 1
106 329 1
106 349 1
107 7 1
107 27 1
107 47 1
107 241 1
107 261 1
107 281 1
107 302 1
107 322 1
107 342 1
108 8 1
108 28 1
108 48 1
108 242 1
108 262 1
108 282 1
108 301 1
108 321 1
108 341 1
109 9 1
109 29 1
109 49 1
109 243 1
109 263 1
109 283 1
109 304 1
109 324 1
109 344 1
110 10 1
110 30 1
110 50 1
110 244 1
110 264 1
110 284 1
110 303 1
110 323 1
110 343 1
111 11 1
111 21 1
111 51 1
111 255 1
111 265 1
111 295 1
111 316 1
111 326 1
111 356 1
112 12 1
112 22 1
112 52 1
112 256 1
112 266 1
112 296 1
112 315 1
112 325 1
112 355 1
113 13 1
113 23 1
113 53 1
113 257 1
113 267 1
113 297 1
113 318 1
113 328 1
113 358 1
114 14 1
114 24 1
114 54 1
114 258 1
114 268 1
114 298 1
114 317 1
114 327 1
114 357 1
115 15 1
115 25 1
115 55 1
115 259 1
115 269 1
115 299 1
115 320 1
115 330 1
115 360 1
116 16 1
116 26 1
116 56 1
116 260 1
116 270 1
116 300 1
116 319 1
116 329 1
116 359 1
117 17 1
117 27 1
117 57 1
117 251 1
117 261 1
117 291 1
117 312 1
117 322 1
117 352 1
118 18 1
118 28 1
118 58 1
118 252 1
118 262 1
118 292 1
118 311 1
118 321 1
118 351 1
119 19 1
119 29 1
119 59 1
119 253 1
119 263 1
119 293 1
119 314 1
119 324 1
119 354 1
120 20 1
120 30 1
120 60 1
120 254 1
120 264 1
120 294 1
120 313 1
120 323 1
120 353 1
121 61 1
121 71 1
121 91 1
121 123 1
121 133 1
121 153 1
121 306 1
121 316 1
121 336 1
122 62 1
122 72 1
122 92 1
122 124 1
122 134 1
122 154 1
122 305 1
122 315 1
122 335 1
123 63 1
123 73 1
123 93 1
123 125 1
123 135 1
123 155 1
123 308 1
123 318 1
123 338 1
124 64 1
124 74 1
124 94 1
124 126 1
124 136 1
124 156 1
124 307 1
124 317 1
124 337 1
125 65 1
125 75 1
125 95 1
125 127 1
125 137 1
125 157 1
125 310 1
125 320 1
125 340 1
126 66 1
126 76 1
126 96 1
126 128 1
126 138 1
126 158 1
126 309 1
126 319 1
126 339 1
127 67 1
127 77 1
127 97 1
127 129 1
127 139 1
127 159 1
127 302 1
127 312 1
127 332 1
128 68 1
128 78 1
128 98 1
128 130 1
128 140 1
128 160 1
128 301 1
128 311 1
128 331 1
129 69 1
129 79 1
129 99 1
129 121 1
129 131 1
129 151 1
129 304 1
129 314 1
129 334 1
130 70 1
130 80 1
130 100 1
130 122 1
130 132 1
130 152 1
130 303 1
130 313 1
130 333 1
131 61 1
131 81 1
131 101 1
131 123 1
131 143 1
131 163 1
131 306 1
131 326 1
131 346 1
132 62 1
132 82 1
132 102 1
132 124 1
132 144 1
132 164 1
132 305 1
132 325 1
132 345 1
133 63 1
133 83 1
133 103 1
133 125 1
133 145 1
133 165 1
133 308 1
133 328 1
133 348 1
134 64 1
134 84 1
134 104 1
134 126 1
134 146 1
134 166 1
134 307 1
134 327 1
134 347 1
135 65 1
135 85 1
135 105 1
135 127 1
135 147 1
135 167 1
135 310 1
135 330 1
135 350 1
136 66 1
136 86 1
136 106 1
136 128 1
136 148 1
136 168 1
136 309 1
136 329 1
136 349 1
137 67 1
137 87 1
137 107 1
137 129 1
137 149 1
137 169 1
137 302 1
137 322 1
137 342 1
138 68 1
138 88 1
138 108 1
138 130 1
138 150 1
138 170 1
138 301 1
138 321 1
138 341 1
139 69 1
139 89 1
139 109 1
139 121 1
139 141 1
139 161 1
139 304 1
139 324 1
139 344 1
140 70 1
140 90 1
140 110 1
140 122 1
140 142 1
140 162 1
140 303 1
140 323 1
140 343 1
141 71 1
141 81 1
141 111 1
141 133 1
141 143 1
141 173 1
141 316 1
141 326 1
141 356 1
142 72 1
142 82 1
142 112 1
142 134 1
142 144 1
142 174 1
142 315 1
142 325 1
142 355 1
143 73 1
143 83 1
143 113 1
143 135 1
143 145 1
143 175 1
143 318 1
143 328 1
143 358 1
144 74 1
144 84 1
144 114 1
144 136 1
144 146 1
144 176 1
144 317 1
144 327 1
144 357 1
145 75 1
145 85 1
145 115 1
145 137 1
145 147 1
145 177 1
145 320 1
145 330 1
145 360 1
146 76 1
146 86 1
146 116 1
146 138 1
146 148 1
146 178 1
146 319 1
146 329 1
146 359 1
147 77 1
147 87 1
147 117 1
147 139 1
147 149 1
147 179 1
147 312 1
147 322 1
147 352 1
148 78 1
148 88 1
148 118 1
148 140 1
148 150 1
148 180 1
148 311 1
148 321 1
148 351 1
149 79 1
149 89 1
149 119 1
149 131 1
149 141 1
149 171 1
149 314 1
149 324 1
149 354 1
150 80 1
150 90 1
150 120 1
150 132 1
150 142 1
150 172 1
150 313 1
150 323 1
150 353 1
151 61 1
151 71 1
151 91 1
151 183 1
151 193 1
151 213 1
151 245 1
151 255 1
151 275 1
152 62 1
152 72 1
152 92 1
152 184 1
152 194 1
152 214 1
152 246 1
152 256 1
152 276 1
153 63 1
153 73 1
153 93 1
153 185 1
153 195 1
153 215 1
153 247 1
153 257 1
153 277 1
154 64 1
154 74 1
154 94 1
154 186 1
154 196 1
154 216 1
154 248 1
154 258 1
154 278 1
155 65 1
155 75 1
155 95 1
155 187 1
155 197 1
155 217 1
155 249 1
155 259 1
155 279 1
156 66 1
156 76 1
156 96 1
156 188 1
156 198 1
156 218 1
156 250 1
156 260 1
156 280 1
157 67 1
157 77 1
157 97 1
157 189 1
157 199 1
157 219 1
157 241 1
157 251 1
157 271 1
158 68 1
158 78 1
158 98 1
158 190 1
158 200 1
158 220 1
158 242 1
158 252 1
158 272 1
159 69 1
159 79 1
159 99 1
159 181 1
159 191 1
159 211 1
159 243 1
159 253 1
159 273 1
160 70 1
160 80 1
160 100 1
160 182 1
160 192 1
160 212 1
160 244 1
160 254 1
160 274 1
161 61 1
161 81 1
161 101 1
161 183 1
161 203 1
161 223 1
161 245 1
161 265 1
161 285 1
162 62 1
162 82 1
162 102 1
162 184 1
162 204 1
162 224 1
162 246 1
162 266 1
162 286 1
163 63 1
163 83 1
163 103 1
163 185 1
163 205 1
163 225 1
163 247 1
163 267 1
163 287 1
164 64 1
164 84 1
164 104 1
164 186 1
164 206 1
164 226 1
164 248 1
164 268 1
164 288 1
165 65 1
165 85 1
165 105 1
165 187 1
165 207 1
165 227 1
165 249 1
165 269 1
165 289 1
166 66 1
166 86 1
166 106 1
166 188 1
166 208 1
166 228 1
166 250 1
166 270 1
166 290 1
167 67 1
167 87 1
167 107 1
167 189 1
167 209 1
167 229 1
167 241 1
167 261 1
167 281 1
168 68 1
168 88 1
168 108 1
168 190 1
168 210 1
168 230 1
168 242 1
168 262 1
168 282 1
169 69 1
169 89 1
169 109 1
169 181 1
169 201 1
169 221 1
169 243 1
169 263 1
169 283 1
170 70 1
170 90 1
170 110 1
170 182 1
170 202 1
170 222 1
170 244 1
170 264 1
170 284 1
171 71 1
171 81 1
171 111 1
171 193 1
171 203 1
171 233 1
171 255 1
171 265 1
171 295 1
172 72 1
172 82 1
172 112 1
172 194 1
172 204 1
172 234 1
172 256 1
172 266 1
172 296 1
173 73 1
173 83 1
173 113 1
173 195 1
173 205 1
173 235 1
173 257 1
173 267 1
173 297 1
174 74 1
174 84 1
174 114 1
174 196 1
174 206 1
174 236 1
174 258 1
174 268 1
174 298 1
175 75 1
175 85 1
175 115 1
175 197 1
175 207 1
175 237 1
175 259 1
175 269 1
175 299 1
176 76 1
176 86 1
176 116 1
176 198 1
176 208 1
176 238 1
176 260 1
176 270 1
176 300 1
177 77 1
177 87 1
177 117 1
177 199 1
177 209 1
177 239 1
177 251 1
177 261 1
177 291 1
178 78 1
178 88 1
178 118 1
178 200 1
178 210 1
178 240 1
178 252 1
178 262 1
178 292 1
179 79 1
179 89 1
179 119 1
179 191 1
179 201 1
179 231 1
179 253 1
179 263 1
179 293 1
180 80 1
180 90 1
180 120 1
180 192 1
180 202 1
180 232 1
180 254 1
180 264 1
180 294 1
