%%MatrixMarket matrix coordinate integer general
160 320 2560
1 1 1
1 21 1
1 26 1
1 31 1
1 161 1
1 181 1
1 186 1
1 191 1
1 201 1
1 221 1
1 226 1
1 231 1
1 241 1
1 261 1
1 266 1
1 271 1
2 2 1
2 22 1
2 27 1
2 32 1
2 162 1
2 182 1
2 187 1
2 192 1
2 202 1
2 222 1
2 227 1
2 232 1
2 242 1
2 262 1
2 267 1
2 272 1
3 3 1
3 23 1
3 28 1
3 33 1
3 163 1
3 183 1
3 188 1
3 193 1
3 203 1
3 223 1
3 228 1
3 233 1
3 243 1
3 263 1
3 268 1
3 273 1
4 4 1
4 24 1
4 29 1
4 34 1
4 164 1
4 184 1
4 189 1
4 194 1
4 204 1
4 224 1
4 229 1
4 234 1
4 244 1
4 264 1
4 269 1
4 274 1
5 5 1
5 25 1
5 30 1
5 35 1
5 165 1
5 185 1
5 190 1
5 195 1
5 205 1
5 225 1
5 230 1
5 235 1
5 245 1
5 265 1
5 270 1
5 275 1
6 6 1
6 21 1
6 26 1
6 36 1
6 166 1
6 181 1
6 186 1
6 196 1
6 206 1
6 221 1
6 226 1
6 236 1
6 246 1
6 261 1
6 266 1
6 276 1
7 7 1
7 22 1
7 27 1
7 37 1
7 167 1
7 182 1
7 187 1
7 197 1
7 207 1
7 222 1
7 227 1
7 237 1
7 247 1
7 262 1
7 267 1
7 277 1
8 8 1
8 23 1
8 28 1
8 38 1
8 168 1
8 183 1
8 188 1
8 198 1
8 208 1
8 223 1
8 228 1
8 238 1
8 248 1
8 263 1
8 268 1
8 278 1
9 9 1
9 24 1
9 29 1
9 39 1
9 169 1
9 184 1
9 189 1
9 199 1
9 209 1
9 224 1
9 229 1
9 239 1
9 249 1
9 264 1
9 269 1
9 279 1
10 10 1
10 25 1
10 30 1
10 40 1
10 170 1
10 185 1
10 190 1
10 200 1
10 210 1
10 225 1
10 230 1
10 240 1
10 250 1
10 265 1
10 270 1
10 280 1
11 11 1
11 21 1
11 31 1
11 36 1
11 171 1
11 181 1
11 191 1
11 196 1
11 211 1
11 221 1
11 231 1
11 236 1
11 251 1
11 261 1
11 271 1
11 276 1
12 12 1
12 22 1
12 32 1
12 37 1
12 172 1
12 182 1
12 192 1
12 197 1
12 212 1
12 222 1
12 232 1
12 237 1
12 252 1
12 262 1
12 272 1
12 277 1
13 13 1
13 23 1
13 33 1
13 38 1
13 173 1
13 183 1
13 193 1
13 198 1
13 213 1
13 223 1
13 233 1
13 238 1
13 253 1
13 263 1
13 273 1
13 278 1
14 14 1
14 24 1
14 34 1
14 39 1
14 174 1
14 184 1
14 194 1
14 199 1
14 214 1
14 224 1
14 234 1
14 239 1
14 254 1
14 264 1
14 274 1
14 279 1
15 15 1
15 25 1
15 35 1
15 40 1
15 175 1
15 185 1
15 195 1
15 200 1
15 215 1
15 225 1
15 235 1
15 240 1
15 255 1
15 265 1
15 275 1
15 280 1
16 16 1
16 26 1
16 31 1
16 36 1
16 176 1
16 186 1
16 191 1
16 196 1
16 216 1
16 226 1
16 231 1
16 236 1
16 256 1
16 266 1
16 271 1
16 276 1
17 17 1
17 27 1
17 32 1
17 37 1
17 177 1
17 187 1
17 192 1
17 197 1
17 217 1
17 227 1
17 232 1
17 237 1
17 257 1
17 267 1
17 272 1
17 277 1
18 18 1
18 28 1
18 33 1
18 38 1
18 178 1
18 188 1
18 193 1
18 198 1
18 218 1
18 228 1
18 233 1
18 238 1
18 258 1
18 268 1
18 273 1
18 278 1
19 19 1
19 29 1
19 34 1
19 39 1
19 179 1
19 189 1
19 194 1
19 199 1
19 219 1
19 229 1
19 234 1
19 239 1
19 259 1
19 269 1
19 274 1
19 279 1
20 20 1
20 30 1
20 35 1
20 40 1
20 180 1
20 190 1
20 195 1
20 200 1
20 220 1
20 230 1
20 235 1
20 240 1
20 260 1
20 270 1
20 275 1
20 280 1
21 41 1
21 61 1
21 66 1
21 71 1
21 161 1
21 181 1
21 186 1
21 191 1
21 201 1
21 221 1
21 226 1
21 231 1
21 281 1
21 301 1
21 306 1
21 311 1
22 42 1
22 62 1
22 67 1
22 72 1
22 162 1
22 182 1
22 187 1
22 192 1
22 202 1
22 222 1
22 227 1
22 232 1
22 282 1
22 302 1
22 307 1
22 312 1
23 43 1
23 63 1
23 68 1
23 73 1
23 163 1
23 183 1
23 188 1
23 193 1
23 203 1
23 223 1
23 228 1
23 233 1
23 283 1
23 303 1
23 308 1
23 313 1
24 44 1
24 64 1
24 69 1
24 74 1
24 164 1
24 184 1
24 189 1
24 194 1
24 204 1
24 224 1
24 229 1
24 234 1
24 284 1
24 304 1
24 309 1
24 314 1
25 45 1
25 65 1
25 70 1
25 75 1
25 165 1
25 185 1
25 190 1
25 195 1
25 205 1
25 225 1
25 230 1
25 235 1
25 285 1
25 305 1
25 310 1
25 315 1
26 46 1
26 61 1
26 66 1
26 76 1
26 166 1
26 181 1
26 186 1
26 196 1
26 206 1
26 221 1
26 226 1
26 236 1
26 286 1
26 301 1
26 306 1
26 316 1
27 47 1
27 62 1
27 67 1
27 77 1
27 167 1
27 182 1
27 187 1
27 197 1
27 207 1
27 222 1
27 227 1
27 237 1
27 287 1
27 302 1
27 307 1
27 317 1
28 48 1
28 63 1
28 68 1
28 78 1
28 168 1
28 183 1
28 188 1
28 198 1
28 208 1
28 223 1
28 228 1
28 238 1
28 288 1
28 303 1
28 308 1
28 318 1
29 49 1
29 64 1
29 69 1
29 79 1
29 169 1
29 184 1
29 189 1
29 199 1
29 209 1
29 224 1
29 229 1
29 239 1
29 289 1
29 304 1
29 309 1
29 319 1
30 50 1
30 65 1
30 70 1
30 80 1
30 170 1
30 185 1
30 190 1
30 200 1
30 210 1
30 225 1
30 230 1
30 240 1
30 290 1
30 305 1
30 310 1
30 320 1
31 51 1
31 61 1
31 71 1
31 76 1
31 171 1
31 181 1
31 191 1
31 196 1
31 211 1
31 221 1
31 231 1
31 236 1
31 291 1
31 301 1
31 311 1
31 316 1
32 52 1
32 62 1
32 72 1
32 77 1
32 172 1
32 182 1
32 192 1
32 197 1
32 212 1
32 222 1
32 232 1
32 237 1
32 292 1
32 302 1
32 312 1
32 317 1
33 53 1
33 63 1
33 73 1
33 78 1
33 173 1
33 183 1
33 193 1
33 198 1
33 213 1
33 223 1
33 233 1
33 238 1
33 293 1
33 303 1
33 313 1
33 318 1
34 54 1
34 64 1
34 74 1
34 79 1
34 174 1
34 184 1
34 194 1
34 199 1
34 214 1
34 224 1
34 234 1
34 239 1
34 294 1
34 304 1
34 314 1
34 319 1
35 55 1
35 65 1
35 75 1
35 80 1
35 175 1
35 185 1
35 195 1
35 200 1
35 215 1
35 225 1
35 235 1
35 240 1
35 295 1
35 305 1
35 315 1
35 320 1
36 56 1
36 66 1
36 71 1
36 76 1
36 176 1
36 186 1
36 191 1
36 196 1
36 216 1
36 226 1
36 231 1
36 236 1
36 296 1
36 306 1
36 311 1
36 316 1
37 57 1
37 67 1
37 72 1
37 77 1
37 177 1
37 187 1
37 192 1
37 197 1
37 217 1
37 227 1
37 232 1
37 237 1
37 297 1
37 307 1
37 312 1
37 317 1
38 58 1
38 68 1
38 73 1
38 78 1
38 178 1
38 188 1
38 193 1
38 198 1
38 218 1
38 228 1
38 233 1
38 238 1
38 298 1
38 308 1
38 313 1
38 318 1
39 59 1
39 69 1
39 74 1
39 79 1
39 179 1
39 189 1
39 194 1
39 199 1
39 219 1
39 229 1
39 234 1
39 239 1
39 299 1
39 309 1
39 314 1
39 319 1
40 60 1
40 70 1
40 75 1
40 80 1
40 180 1
40 190 1
40 195 1
40 200 1
40 220 1
40 230 1
40 235 1
40 240 1
40 300 1
40 310 1
40 315 1
40 320 1
41 81 1
41 101 1
41 106 1
41 111 1
41 161 1
41 181 1
41 186 1
41 191 1
41 241 1
41 261 1
41 266 1
41 271 1
41 281 1
41 301 1
41 306 1
41 311 1
42 82 1
42 102 1
42 107 1
42 112 1
42 162 1
42 182 1
42 187 1
42 192 1
42 242 1
42 262 1
42 267 1
42 272 1
42 282 1
42 302 1
42 307 1
42 312 1
43 83 1
43 103 1
43 108 1
43 113 1
43 163 1
43 183 1
43 188 1
43 193 1
43 243 1
43 263 1
43 268 1
43 273 1
43 283 1
43 303 1
43 308 1
43 313 1
44 84 1
44 104 1
44 109 1
44 114 1
44 164 1
44 184 1
44 189 1
44 194 1
44 244 1
44 264 1
44 269 1
44 274 1
44 284 1
44 304 1
44 309 1
44 314 1
45 85 1
45 105 1
45 110 1
45 115 1
45 165 1
45 185 1
45 190 1
45 195 1
45 245 1
45 265 1
45 270 1
45 275 1
45 285 1
45 305 1
45 310 1
45 315 1
46 86 1
46 101 1
46 106 1
46 116 1
46 166 1
46 181 1
46 186 1
46 196 1
46 246 1
46 261 1
46 266 1
46 276 1
46 286 1
46 301 1
46 306 1
46 316 1
47 87 1
47 102 1
47 107 1
47 117 1
47 167 1
47 182 1
47 187 1
47 197 1
47 247 1
47 262 1
47 267 1
47 277 1
47 287 1
47 302 1
47 307 1
47 317 1
48 88 1
48 103 1
48 108 1
48 118 1
48 168 1
48 183 1
48 188 1
48 198 1
48 248 1
48 263 1
48 268 1
48 278 1
48 288 1
48 303 1
48 308 1
48 318 1
49 89 1
49 104 1
49 109 1
49 119 1
49 169 1
49 184 1
49 189 1
49 199 1
49 249 1
49 264 1
49 269 1
49 279 1
49 289 1
49 304 1
49 309 1
49 319 1
50 90 1
50 105 1
50 110 1
50 120 1
50 170 1
50 185 1
50 190 1
50 200 1
50 250 1
50 265 1
50 270 1
50 280 1
50 290 1
50 305 1
50 310 1
50 320 1
51 91 1
51 101 1
51 111 1
51 116 1
51 171 1
51 181 1
51 191 1
51 196 1
51 251 1
51 261 1
51 271 1
51 276 1
51 291 1
51 301 1
51 311 1
51 316 1
52 92 1
52 102 1
52 112 1
52 117 1
52 172 1
52 182 1
52 192 1
52 197 1
52 252 1
52 262 1
52 272 1
52 277 1
52 292 1
52 302 1
52 312 1
52 317 1
53 93 1
53 103 1
53 113 1
53 118 1
53 173 1
53 183 1
53 193 1
53 198 1
53 253 1
53 263 1
53 273 1
53 278 1
53 293 1
53 303 1
53 313 1
53 318 1
54 94 1
54 104 1
54 114 1
54 119 1
54 174 1
54 184 1
54 194 1
54 199 1
54 254 1
54 264 1
54 274 1
54 279 1
54 294 1
54 304 1
54 314 1
54 319 1
55 95 1
55 105 1
55 115 1
55 120 1
55 175 1
55 185 1
55 195 1
55 200 1
55 255 1
55 265 1
55 275 1
55 280 1
55 295 1
55 305 1
55 315 1
55 320 1
56 96 1
56 106 1
56 111 1
56 116 1
56 176 1
56 186 1
56 191 1
56 196 1
56 256 1
56 266 1
56 271 1
56 276 1
56 296 1
56 306 1
56 311 1
56 316 1
57 97 1
57 107 1
57 112 1
57 117 1
57 177 1
57 187 1
57 192 1
57 197 1
57 257 1
57 267 1
57 272 1
57 277 1
57 297 1
57 307 1
57 312 1
57 317 1
58 98 1
58 108 1
58 113 1
58 118 1
58 178 1
58 188 1
58 193 1
58 198 1
58 258 1
58 268 1
58 273 1
58 278 1
58 298 1
58 308 1
58 313 1
58 318 1
59 99 1
59 109 1
59 114 1
59 119 1
59 179 1
59 189 1
59 194 1
59 199 1
59 259 1
59 269 1
59 274 1
59 279 1
59 299 1
59 309 1
59 314 1
59 319 1
60 100 1
60 110 1
60 115 1
60 120 1
60 180 1
60 190 1
60 195 1
60 200 1
60 260 1
60 270 1
60 275 1
60 280 1
60 300 1
60 310 1
60 315 1
60 320 1
61 121 1
61 141 1
61 146 1
61 151 1
61 201 1
61 221 1
61 226 1
61 231 1
61 241 1
61 261 1
61 266 1
61 271 1
61 281 1
61 301 1
61 306 1
61 311 1
62 122 1
62 142 1
62 147 1
62 152 1
62 202 1
62 222 1
62 227 1
62 232 1
62 242 1
62 262 1
62 267 1
62 272 1
62 282 1
62 302 1
62 307 1
62 312 1
63 123 1
63 143 1
63 148 1
63 153 1
63 203 1
63 223 1
63 228 1
63 233 1
63 243 1
63 263 1
63 268 1
63 273 1
63 283 1
63 303 1
63 308 1
63 313 1
64 124 1
64 144 1
64 149 1
64 154 1
64 204 1
64 224 1
64 229 1
64 234 1
64 244 1
64 264 1
64 269 1
64 274 1
64 284 1
64 304 1
64 309 1
64 314 1
65 125 1
65 145 1
65 150 1
65 155 1
65 205 1
65 225 1
65 230 1
65 235 1
65 245 1
65 265 1
65 270 1
65 275 1
65 285 1
65 305 1
65 310 1
65 315 1
66 126 1
66 141 1
66 146 1
66 156 1
66 206 1
66 221 1
66 226 1
66 236 1
66 246 1
66 261 1
66 266 1
66 276 1
66 286 1
66 301 1
66 306 1
66 316 1
67 127 1
67 142 1
67 147 1
67 157 1
67 207 1
67 222 1
67 227 1
67 237 1
67 247 1
67 262 1
67 267 1
67 277 1
67 287 1
67 302 1
67 307 1
67 317 1
68 128 1
68 143 1
68 148 1
68 158 1
68 208 1
68 223 1
68 228 1
68 238 1
68 248 1
68 263 1
68 268 1
68 278 1
68 288 1
68 303 1
68 308 1
68 318 1
69 129 1
69 144 1
69 149 1
69 159 1
69 209 1
69 224 1
69 229 1
69 239 1
69 249 1
69 264 1
69 269 1
69 279 1
69 289 1
69 304 1
69 309 1
69 319 1
70 130 1
70 145 1
70 150 1
70 160 1
70 210 1
70 225 1
70 230 1
70 240 1
70 250 1
70 265 1
70 270 1
70 280 1
70 290 1
70 305 1
70 310 1
70 320 1
71 131 1
71 141 1
71 151 1
71 156 1
71 211 1
71 221 1
71 231 1
71 236 1
71 251 1
71 261 1
71 271 1
71 276 1
71 291 1
71 301 1
71 311 1
71 316 1
72 132 1
72 142 1
72 152 1
72 157 1
72 212 1
72 222 1
72 232 1
72 237 1
72 252 1
72 262 1
72 272 1
72 277 1
72 292 1
72 302 1
72 312 1
72 317 1
73 133 1
73 143 1
73 153 1
73 158 1
73 213 1
73 223 1
73 233 1
73 238 1
73 253 1
73 263 1
73 273 1
73 278 1
73 293 1
73 303 1
73 313 1
73 318 1
74 134 1
74 144 1
74 154 1
74 159 1
74 214 1
74 224 1
74 234 1
74 239 1
74 254 1
74 264 1
74 274 1
74 279 1
74 294 1
74 304 1
74 314 1
74 319 1
75 135 1
75 145 1
75 155 1
75 160 1
75 215 1
75 225 1
75 235 1
75 240 1
75 255 1
75 265 1
75 275 1
75 280 1
75 295 1
75 305 1
75 315 1
75 320 1
76 136 1
76 146 1
76 151 1
76 156 1
76 216 1
76 226 1
76 231 1
76 236 1
76 256 1
76 266 1
76 271 1
76 276 1
76 296 1
76 306 1
76 311 1
76 316 1
77 137 1
77 147 1
77 152 1
77 157 1
77 217 1
77 227 1
77 232 1
77 237 1
77 257 1
77 267 1
77 272 1
77 277 1
77 297 1
77 307 1
77 312 1
77 317 1
78 138 1
78 148 1
78 153 1
78 158 1
78 218 1
78 228 1
78 233 1
78 238 1
78 258 1
78 268 1
78 273 1
78 278 1
78 298 1
78 308 1
78 313 1
78 318 1
79 139 1
79 149 1
79 154 1
79 159 1
79 219 1
79 229 1
79 234 1
79 239 1
79 259 1
79 269 1
79 274 1
79 279 1
79 299 1
79 309 1
79 314 1
79 319 1
80 140 1
80 150 1
80 155 1
80 160 1
80 220 1
80 230 1
80 235 1
80 240 1
80 260 1
80 270 1
80 275 1
80 280 1
80 300 1
80 310 1
80 315 1
80 320 1
81 1 1
81 23 1
81 32 1
81 37 1
81 161 1
81 183 1
81 192 1
81 197 1
81 201 1
81 223 1
81 232 1
81 237 1
81 282 1
81 304 1
81 313 1
81 318 1
82 2 1
82 24 1
82 33 1
82 38 1
82 162 1
82 184 1
82 193 1
82 198 1
82 202 1
82 224 1
82 233 1
82 238 1
82 283 1
82 305 1
82 314 1
82 319 1
83 3 1
83 25 1
83 34 1
83 39 1
83 163 1
83 185 1
83 194 1
83 199 1
83 203 1
83 225 1
83 234 1
83 239 1
83 284 1
83 301 1
83 315 1
83 320 1
84 4 1
84 21 1
84 35 1
84 40 1
84 164 1
84 181 1
84 195 1
84 200 1
84 204 1
84 221 1
84 235 1
84 240 1
84 285 1
84 302 1
84 311 1
84 316 1
85 5 1
85 22 1
85 31 1
85 36 1
85 165 1
85 182 1
85 191 1
85 196 1
85 205 1
85 222 1
85 231 1
85 236 1
85 281 1
85 303 1
85 312 1
85 317 1
86 6 1
86 23 1
86 28 1
86 37 1
86 166 1
86 183 1
86 188 1
86 197 1
86 206 1
86 223 1
86 228 1
86 237 1
86 287 1
86 304 1
86 309 1
86 318 1
87 7 1
87 24 1
87 29 1
87 38 1
87 167 1
87 184 1
87 189 1
87 198 1
87 207 1
87 224 1
87 229 1
87 238 1
87 288 1
87 305 1
87 310 1
87 319 1
88 8 1
88 25 1
88 30 1
88 39 1
88 168 1
88 185 1
88 190 1
88 199 1
88 208 1
88 225 1
88 230 1
88 239 1
88 289 1
88 301 1
88 306 1
88 320 1
89 9 1
89 21 1
89 26 1
89 40 1
89 169 1
89 181 1
89 186 1
89 200 1
89 209 1
89 221 1
89 226 1
89 240 1
89 290 1
89 302 1
89 307 1
89 316 1
90 10 1
90 22 1
90 27 1
90 36 1
90 170 1
90 182 1
90 187 1
90 196 1
90 210 1
90 222 1
90 227 1
90 236 1
90 286 1
90 303 1
90 308 1
90 317 1
91 15 1
91 23 1
91 28 1
91 32 1
91 175 1
91 183 1
91 188 1
91 192 1
91 215 1
91 223 1
91 228 1
91 232 1
91 291 1
91 304 1
91 309 1
91 313 1
92 11 1
92 24 1
92 29 1
92 33 1
92 171 1
92 184 1
92 189 1
92 193 1
92 211 1
92 224 1
92 229 1
92 233 1
92 292 1
92 305 1
92 310 1
92 314 1
93 12 1
93 25 1
93 30 1
93 34 1
93 172 1
93 185 1
93 190 1
93 194 1
93 212 1
93 225 1
93 230 1
93 234 1
93 293 1
93 301 1
93 306 1
93 315 1
94 13 1
94 21 1
94 26 1
94 35 1
94 173 1
94 181 1
94 186 1
94 195 1
94 213 1
94 221 1
94 226 1
94 235 1
94 294 1
94 302 1
94 307 1
94 311 1
95 14 1
95 22 1
95 27 1
95 31 1
95 174 1
95 182 1
95 187 1
95 191 1
95 214 1
95 222 1
95 227 1
95 231 1
95 295 1
95 303 1
95 308 1
95 312 1
96 19 1
96 28 1
96 32 1
96 37 1
96 179 1
96 188 1
96 192 1
96 197 1
96 219 1
96 228 1
96 232 1
96 237 1
96 300 1
96 309 1
96 313 1
96 318 1
97 20 1
97 29 1
97 33 1
97 38 1
97 180 1
97 189 1
97 193 1
97 198 1
97 220 1
97 229 1
97 233 1
97 238 1
97 296 1
97 310 1
97 314 1
97 319 1
98 16 1
98 30 1
98 34 1
98 39 1
98 176 1
98 190 1
98 194 1
98 199 1
98 216 1
98 230 1
98 234 1
98 239 1
98 297 1
98 306 1
98 315 1
98 320 1
99 17 1
99 26 1
99 35 1
99 40 1
99 177 1
99 186 1
99 195 1
99 200 1
99 217 1
99 226 1
99 235 1
99 240 1
99 298 1
99 307 1
99 311 1
99 316 1
100 18 1
100 27 1
100 31 1
100 36 1
100 178 1
100 187 1
100 191 1
100 196 1
100 218 1
100 227 1
100 231 1
100 236 1
100 299 1
100 308 1
100 312 1
100 317 1
101 41 1
101 63 1
101 72 1
101 77 1
101 161 1
101 183 1
101 192 1
101 197 1
101 241 1
101 263 1
101 272 1
101 277 1
101 282 1
101 304 1
101 313 1
101 318 1
102 42 1
102 64 1
102 73 1
102 78 1
102 162 1
102 184 1
102 193 1
102 198 1
102 242 1
102 264 1
102 273 1
102 278 1
102 283 1
102 305 1
102 314 1
102 319 1
103 43 1
103 65 1
103 74 1
103 79 1
103 163 1
103 185 1
103 194 1
103 199 1
103 243 1
103 265 1
103 274 1
103 279 1
103 284 1
103 301 1
103 315 1
103 320 1
104 44 1
104 61 1
104 75 1
104 80 1
104 164 1
104 181 1
104 195 1
104 200 1
104 244 1
104 261 1
104 275 1
104 280 1
104 285 1
104 302 1
104 311 1
104 316 1
105 45 1
105 62 1
105 71 1
105 76 1
105 165 1
105 182 1
105 191 1
105 196 1
105 245 1
105 262 1
105 271 1
105 276 1
105 281 1
105 303 1
105 312 1
105 317 1
106 46 1
106 63 1
106 68 1
106 77 1
106 166 1
106 183 1
106 188 1
106 197 1
106 246 1
106 263 1
106 268 1
106 277 1
106 287 1
106 304 1
106 309 1
106 318 1
107 47 1
107 64 1
107 69 1
107 78 1
107 167 1
107 184 1
107 189 1
107 198 1
107 247 1
107 264 1
107 269 1
107 278 1
107 288 1
107 305 1
107 310 1
107 319 1
108 48 1
108 65 1
108 70 1
108 79 1
108 168 1
108 185 1
108 190 1
108 199 1
108 248 1
108 265 1
108 270 1
108 279 1
108 289 1
108 301 1
108 306 1
108 320 1
109 49 1
109 61 1
109 66 1
109 80 1
109 169 1
109 181 1
109 186 1
109 200 1
109 249 1
109 261 1
109 266 1
109 280 1
109 290 1
109 302 1
109 307 1
109 316 1
110 50 1
110 62 1
110 67 1
110 76 1
110 170 1
110 182 1
110 187 1
110 196 1
110 250 1
110 262 1
110 267 1
110 276 1
110 286 1
110 303 1
110 308 1
110 317 1
111 55 1
111 63 1
111 68 1
111 72 1
111 175 1
111 183 1
111 188 1
111 192 1
111 255 1
111 263 1
111 268 1
111 272 1
111 291 1
111 304 1
111 309 1
111 313 1
112 51 1
112 64 1
112 69 1
112 73 1
112 171 1
112 184 1
112 189 1
112 193 1
112 251 1
112 264 1
112 269 1
112 273 1
112 292 1
112 305 1
112 310 1
112 314 1
113 52 1
113 65 1
113 70 1
113 74 1
113 172 1
113 185 1
113 190 1
113 194 1
113 252 1
113 265 1
113 270 1
113 274 1
113 293 1
113 301 1
113 306 1
113 315 1
114 53 1
114 61 1
114 66 1
114 75 1
114 173 1
114 181 1
114 186 1
114 195 1
114 253 1
114 261 1
114 266 1
114 275 1
114 294 1
114 302 1
114 307 1
114 311 1
115 54 1
115 62 1
115 67 1
115 71 1
115 174 1
115 182 1
115 187 1
115 191 1
115 254 1
115 262 1
115 267 1
115 271 1
115 295 1
115 303 1
115 308 1
115 312 1
116 59 1
116 68 1
116 72 1
116 77 1
116 179 1
116 188 1
116 192 1
116 197 1
116 259 1
116 268 1
116 272 1
116 277 1
116 300 1
116 309 1
116 313 1
116 318 1
117 60 1
117 69 1
117 73 1
117 78 1
117 180 1
117 189 1
117 193 1
117 198 1
117 260 1
117 269 1
117 273 1
117 278 1
117 296 1
117 310 1
117 314 1
117 319 1
118 56 1
118 70 1
118 74 1
118 79 1
118 176 1
118 190 1
118 194 1
118 199 1
118 256 1
118 270 1
118 274 1
118 279 1
118 297 1
118 306 1
118 315 1
118 320 1
119 57 1
119 66 1
119 75 1
119 80 1
119 177 1
119 186 1
119 195 1
119 200 1
119 257 1
119 266 1
119 275 1
119 280 1
119 298 1
119 307 1
119 311 1
119 316 1
120 58 1
120 67 1
120 71 1
120 76 1
120 178 1
120 187 1
120 191 1
120 196 1
120 258 1
120 267 1
120 271 1
120 276 1
120 299 1
120 308 1
120 312 1
120 317 1
121 81 1
121 103 1
121 112 1
121 117 1
121 201 1
121 223 1
121 232 1
121 237 1
121 241 1
121 263 1
121 272 1
121 277 1
121 282 1
121 304 1
121 313 1
121 318 1
122 82 1
122 104 1
122 113 1
122 118 1
122 202 1
122 224 1
122 233 1
122 238 1
122 242 1
122 264 1
122 273 1
122 278 1
122 283 1
122 305 1
122 314 1
122 319 1
123 83 1
123 105 1
123 114 1
123 119 1
123 203 1
123 225 1
123 234 1
123 239 1
123 243 1
123 265 1
123 274 1
123 279 1
123 284 1
123 301 1
123 315 1
123 320 1
124 84 1
124 101 1
124 115 1
124 120 1
124 204 1
124 221 1
124 235 1
124 240 1
124 244 1
124 261 1
124 275 1
124 280 1
124 285 1
124 302 1
124 311 1
124 316 1
125 85 1
125 102 1
125 111 1
125 116 1
125 205 1
125 222 1
125 231 1
125 236 1
125 245 1
125 262 1
125 271 1
125 276 1
125 281 1
125 303 1
125 312 1
125 317 1
126 86 1
126 103 1
126 108 1
126 117 1
126 206 1
126 223 1
126 228 1
126 237 1
126 246 1
126 263 1
126 268 1
126 277 1
126 287 1
126 304 1
126 309 1
126 318 1
127 87 1
127 104 1
127 109 1
127 118 1
127 207 1
127 224 1
127 229 1
127 238 1
127 247 1
127 264 1
127 269 1
127 278 1
127 288 1
127 305 1
127 310 1
127 319 1
128 88 1
128 105 1
128 110 1
128 119 1
128 208 1
128 225 1
128 230 1
128 239 1
128 248 1
128 265 1
128 270 1
128 279 1
128 289 1
128 301 1
128 306 1
128 320 1
129 89 1
129 101 1
129 106 1
129 120 1
129 209 1
129 221 1
129 226 1
129 240 1
129 249 1
129 261 1
129 266 1
129 280 1
129 290 1
129 302 1
129 307 1
129 316 1
130 90 1
130 102 1
130 107 1
130 116 1
130 210 1
130 222 1
130 227 1
130 236 1
130 250 1
130 262 1
130 267 1
130 276 1
130 286 1
130 303 1
130 308 1
130 317 1
131 95 1
131 103 1
131 108 1
131 112 1
131 215 1
131 223 1
131 228 1
131 232 1
131 255 1
131 263 1
131 268 1
131 272 1
131 291 1
131 304 1
131 309 1
131 313 1
132 91 1
132 104 1
132 109 1
132 113 1
132 211 1
132 224 1
132 229 1
132 233 1
132 251 1
132 264 1
132 269 1
132 273 1
132 292 1
132 305 1
132 310 1
132 314 1
133 92 1
133 105 1
133 110 1
133 114 1
133 212 1
133 225 1
133 230 1
133 234 1
133 252 1
133 265 1
133 270 1
133 274 1
133 293 1
133 301 1
133 306 1
133 315 1
134 93 1
134 101 1
134 106 1
134 115 1
134 213 1
134 221 1
134 226 1
134 235 1
134 253 1
134 261 1
134 266 1
134 275 1
134 294 1
134 302 1
134 307 1
134 311 1
135 94 1
135 102 1
135 107 1
135 111 1
135 214 1
135 222 1
135 227 1
135 231 1
135 254 1
135 262 1
135 267 1
135 271 1
135 295 1
135 303 1
135 308 1
135 312 1
136 99 1
136 108 1
136 112 1
136 117 1
136 219 1
136 228 1
136 232 1
136 237 1
136 259 1
136 268 1
136 272 1
136 277 1
136 300 1
136 309 1
136 313 1
136 318 1
137 100 1
137 109 1
137 113 1
137 118 1
137 220 1
137 229 1
137 233 1
137 238 1
137 260 1
137 269 1
137 273 1
137 278 1
137 296 1
137 310 1
137 314 1
137 319 1
138 96 1
138 110 1
138 114 1
138 119 1
138 216 1
138 230 1
138 234 1
138 239 1
138 256 1
138 270 1
138 274 1
138 279 1
138 297 1
138 306 1
138 315 1
138 320 1
139 97 1
139 106 1
139 115 1
139 120 1
139 217 1
139 226 1
139 235 1
139 240 1
139 257 1
139 266 1
139 275 1
139 280 1
139 298 1
139 307 1
139 311 1
139 316 1
140 98 1
140 107 1
140 111 1
140 116 1
140 218 1
140 227 1
140 231 1
140 236 1
140 258 1
140 267 1
140 271 1
140 276 1
140 299 1
140 308 1
140 312 1
140 317 1
141 121 1
141 143 1
141 152 1
141 157 1
141 161 1
141 183 1
141 192 1
141 197 1
141 201 1
141 223 1
141 232 1
141 237 1
141 241 1
141 263 1
141 272 1
141 277 1
142 122 1
142 144 1
142 153 1
142 158 1
142 162 1
142 184 1
142 193 1
142 198 1
142 202 1
142 224 1
142 233 1
142 238 1
142 242 1
142 264 1
142 273 1
142 278 1
143 123 1
143 145 1
143 154 1
143 159 1
143 163 1
143 185 1
143 194 1
143 199 1
143 203 1
143 225 1
143 234 1
143 239 1
143 243 1
143 265 1
143 274 1
143 279 1
144 124 1
144 141 1
144 155 1
144 160 1
144 164 1
144 181 1
144 195 1
144 200 1
144 204 1
144 221 1
144 235 1
144 240 1
144 244 1
144 261 1
144 275 1
144 280 1
145 125 1
145 142 1
145 151 1
145 156 1
145 165 1
145 182 1
145 191 1
145 196 1
145 205 1
145 222 1
145 231 1
145 236 1
145 245 1
145 262 1
145 271 1
145 276 1
146 126 1
146 143 1
146 148 1
146 157 1
146 166 1
146 183 1
146 188 1
146 197 1
146 206 1
146 223 1
146 228 1
146 237 1
146 246 1
146 263 1
146 268 1
146 277 1
147 127 1
147 144 1
147 149 1
147 158 1
147 167 1
147 184 1
147 189 1
147 198 1
147 207 1
147 224 1
147 229 1
147 238 1
147 247 1
147 264 1
147 269 1
147 278 1
148 128 1
148 145 1
148 150 1
148 159 1
148 168 1
148 185 1
148 190 1
148 199 1
148 208 1
148 225 1
148 230 1
148 239 1
148 248 1
148 265 1
148 270 1
148 279 1
149 129 1
149 141 1
149 146 1
149 160 1
149 169 1
149 181 1
149 186 1
149 200 1
149 209 1
149 221 1
149 226 1
149 240 1
149 249 1
149 261 1
149 266 1
149 280 1
150 130 1
150 142 1
150 147 1
150 156 1
150 170 1
150 182 1
150 187 1
150 196 1
150 210 1
150 222 1
150 227 1
150 236 1
150 250 1
150 262 1
150 267 1
150 276 1
151 135 1
151 143 1
151 148 1
151 152 1
151 175 1
151 183 1
151 188 1
151 192 1
151 215 1
151 223 1
151 228 1
151 232 1
151 255 1
151 263 1
151 268 1
151 272 1
152 131 1
152 144 1
152 149 1
152 153 1
152 171 1
152 184 1
152 189 1
152 193 1
152 211 1
152 224 1
152 229 1
152 233 1
152 251 1
152 264 1
152 269 1
152 273 1
153 132 1
153 145 1
153 150 1
153 154 1
153 172 1
153 185 1
153 190 1
153 194 1
153 212 1
153 225 1
153 230 1
153 234 1
153 252 1
153 265 1
153 270 1
153 274 1
154 133 1
154 141 1
154 146 1
154 155 1
154 173 1
154 181 1
154 186 1
154 195 1
154 213 1
154 221 1
154 226 1
154 235 1
154 253 1
154 261 1
154 266 1
154 275 1
155 134 1
155 142 1
155 147 1
155 151 1
155 174 1
155 182 1
155 187 1
155 191 1
155 214 1
155 222 1
155 227 1
155 231 1
155 254 1
155 262 1
155 267 1
155 271 1
156 139 1
156 148 1
156 152 1
156 157 1
156 179 1
156 188 1
156 192 1
156 197 1
156 219 1
156 228 1
156 232 1
156 237 1
156 259 1
156 268 1
156 272 1
156 277 1
157 140 1
157 149 1
157 153 1
157 158 1
157 180 1
157 189 1
157 193 1
157 198 1
157 220 1
157 229 1
157 233 1
157 238 1
157 260 1
157 269 1
157 273 1
157 278 1
158 136 1
158 150 1
158 154 1
158 159 1
158 176 1
158 190 1
158 194 1
158 199 1
158 216 1
158 230 1
158 234 1
158 239 1
158 256 1
158 270 1
158 274 1
158 279 1
159 137 1
159 146 1
159 155 1
159 160 1
159 177 1
159 186 1
159 195 1
159 200 1
159 217 1
159 226 1
159 235 1
159 240 1
159 257 1
159 266 1
159 275 1
159 280 1
160 138 1
160 147 1
160 151 1
160 156 1
160 178 1
160 187 1
160 191 1
160 196 1
160 218 1
160 227 1
160 231 1
160 236 1
160 258 1
160 267 1
160 271 1
160 276 1
