%%MatrixMarket matrix coordinate integer general
288 576 2592
1 1 1
1 49 1
1 65 1
1 97 1
1 145 1
1 161 1
1 289 1
1 337 1
1 353 1
2 2 1
2 50 1
2 66 1
2 98 1
2 146 1
2 162 1
2 290 1
2 338 1
2 354 1
3 3 1
3 51 1
3 67 1
3 99 1
3 147 1
3 163 1
3 291 1
3 339 1
3 355 1
4 4 1
4 52 1
4 68 1
4 100 1
4 148 1
4 164 1
4 292 1
4 340 1
4 356 1
5 5 1
5 53 1
5 69 1
5 101 1
5 149 1
5 165 1
5 293 1
5 341 1
5 357 1
6 6 1
6 54 1
6 70 1
6 102 1
6 150 1
6 166 1
6 294 1
6 342 1
6 358 1
7 7 1
7 55 1
7 71 1
7 103 1
7 151 1
7 167 1
7 295 1
7 343 1
7 359 1
8 8 1
8 56 1
8 72 1
8 104 1
8 152 1
8 168 1
8 296 1
8 344 1
8 360 1
9 9 1
9 57 1
9 73 1
9 105 1
9 153 1
9 169 1
9 297 1
9 345 1
9 361 1
10 10 1
10 58 1
10 74 1
10 106 1
10 154 1
10 170 1
10 298 1
10 346 1
10 362 1
11 11 1
11 59 1
11 75 1
11 107 1
11 155 1
11 171 1
11 299 1
11 347 1
11 363 1
12 12 1
12 60 1
12 76 1
12 108 1
12 156 1
12 172 1
12 300 1
12 348 1
12 364 1
13 13 1
13 61 1
13 77 1
13 109 1
13 157 1
13 173 1
13 301 1
13 349 1
13 365 1
14 14 1
14 62 1
14 78 1
14 110 1
14 158 1
14 174 1
14 302 1
14 350 1
14 366 1
15 15 1
15 63 1
15 79 1
15 111 1
15 159 1
15 175 1
15 303 1
15 351 1
15 367 1
16 16 1
16 64 1
16 80 1
16 112 1
16 160 1
16 176 1
16 304 1
16 352 1
16 368 1
17 17 1
17 49 1
17 81 1
17 113 1
17 145 1
17 177 1
17 305 1
17 337 1
17 369 1
18 18 1
18 50 1
18 82 1
18 114 1
18 146 1
18 178 1
18 306 1
18 338 1
18 370 1
19 19 1
19 51 1
19 83 1
19 115 1
19 147 1
19 179 1
19 307 1
19 339 1
19 371 1
20 20 1
20 52 1
20 84 1
20 116 1
20 148 1
20 180 1
20 308 1
20 340 1
20 372 1
21 21 1
21 53 1
21 85 1
21 117 1
21 149 1
21 181 1
21 309 1
21 341 1
21 373 1
22 22 1
22 54 1
22 86 1
22 118 1
22 150 1
22 182 1
22 310 1
22 342 1
22 374 1
23 23 1
23 55 1
23 87 1
23 119 1
23 151 1
23 183 1
23 311 1
23 343 1
23 375 1
24 24 1
24 56 1
24 88 1
24 120 1
24 152 1
24 184 1
24 312 1
24 344 1
24 376 1
25 25 1
25 57 1
25 89 1
25 121 1
25 153 1
25 185 1
25 313 1
25 345 1
25 377 1
26 26 1
26 58 1
26 90 1
26 122 1
26 154 1
26 186 1
26 314 1
26 346 1
26 378 1
27 27 1
27 59 1
27 91 1
27 123 1
27 155 1
27 187 1
27 315 1
27 347 1
27 379 1
28 28 1
28 60 1
28 92 1
28 124 1
28 156 1
28 188 1
28 316 1
28 348 1
28 380 1
29 29 1
29 61 1
29 93 1
29 125 1
29 157 1
29 189 1
29 317 1
29 349 1
29 381 1
30 30 1
30 62 1
30 94 1
30 126 1
30 158 1
30 190 1
30 318 1
30 350 1
30 382 1
31 31 1
31 63 1
31 95 1
31 127 1
31 159 1
31 191 1
31 319 1
31 351 1
31 383 1
32 32 1
32 64 1
32 96 1
32 128 1
32 160 1
32 192 1
32 320 1
32 352 1
32 384 1
33 33 1
33 65 1
33 81 1
33 129 1
33 161 1
33 177 1
33 321 1
33 353 1
33 369 1
34 34 1
34 66 1
34 82 1
34 130 1
34 162 1
34 178 1
34 322 1
34 354 1
34 370 1
35 35 1
35 67 1
35 83 1
35 131 1
35 163 1
35 179 1
35 323 1
35 355 1
35 371 1
36 36 1
36 68 1
36 84 1
36 132 1
36 164 1
36 180 1
36 324 1
36 356 1
36 372 1
37 37 1
37 69 1
37 85 1
37 133 1
37 165 1
37 181 1
37 325 1
37 357 1
37 373 1
38 38 1
38 70 1
38 86 1
38 134 1
38 166 1
38 182 1
38 326 1
38 358 1
38 374 1
39 39 1
39 71 1
39 87 1
39 135 1
39 167 1
39 183 1
39 327 1
39 359 1
39 375 1
40 40 1
40 72 1
40 88 1
40 136 1
40 168 1
40 184 1
40 328 1
40 360 1
40 376 1
41 41 1
41 73 1
41 89 1
41 137 1
41 169 1
41 185 1
41 329 1
41 361 1
41 377 1
42 42 1
42 74 1
42 90 1
42 138 1
42 170 1
42 186 1
42 330 1
42 362 1
42 378 1
43 43 1
43 75 1
43 91 1
43 139 1
43 171 1
43 187 1
43 331 1
43 363 1
43 379 1
44 44 1
44 76 1
44 92 1
44 140 1
44 172 1
44 188 1
44 332 1
44 364 1
44 380 1
45 45 1
45 77 1
45 93 1
45 141 1
45 173 1
45 189 1
45 333 1
45 365 1
45 381 1
46 46 1
46 78 1
46 94 1
46 142 1
46 174 1
46 190 1
46 334 1
46 366 1
46 382 1
47 47 1
47 79 1
47 95 1
47 143 1
47 175 1
47 191 1
47 335 1
47 367 1
47 383 1
48 48 1
48 80 1
48 96 1
48 144 1
48 176 1
48 192 1
48 336 1
48 368 1
48 384 1
49 1 1
49 49 1
49 65 1
49 193 1
49 241 1
49 257 1
49 385 1
49 433 1
49 449 1
50 2 1
50 50 1
50 66 1
50 194 1
50 242 1
50 258 1
50 386 1
50 434 1
50 450 1
51 3 1
51 51 1
51 67 1
51 195 1
51 243 1
51 259 1
51 387 1
51 435 1
51 451 1
52 4 1
52 52 1
52 68 1
52 196 1
52 244 1
52 260 1
52 388 1
52 436 1
52 452 1
53 5 1
53 53 1
53 69 1
53 197 1
53 245 1
53 261 1
53 389 1
53 437 1
53 453 1
54 6 1
54 54 1
54 70 1
54 198 1
54 246 1
54 262 1
54 390 1
54 438 1
54 454 1
55 7 1
55 55 1
55 71 1
55 199 1
55 247 1
55 263 1
55 391 1
55 439 1
55 455 1
56 8 1
56 56 1
56 72 1
56 200 1
56 248 1
56 264 1
56 392 1
56 440 1
56 456 1
57 9 1
57 57 1
57 73 1
57 201 1
57 249 1
57 265 1
57 393 1
57 441 1
57 457 1
58 10 1
58 58 1
58 74 1
58 202 1
58 250 1
58 266 1
58 394 1
58 442 1
58 458 1
59 11 1
59 59 1
59 75 1
59 203 1
59 251 1
59 267 1
59 395 1
59 443 1
59 459 1
60 12 1
60 60 1
60 76 1
60 204 1
60 252 1
60 268 1
60 396 1
60 444 1
60 460 1
61 13 1
61 61 1
61 77 1
61 205 1
61 253 1
61 269 1
61 397 1
61 445 1
61 461 1
62 14 1
62 62 1
62 78 1
62 206 1
62 254 1
62 270 1
62 398 1
62 446 1
62 462 1
63 15 1
63 63 1
63 79 1
63 207 1
63 255 1
63 271 1
63 399 1
63 447 1
63 463 1
64 16 1
64 64 1
64 80 1
64 208 1
64 256 1
64 272 1
64 400 1
64 448 1
64 464 1
65 17 1
65 49 1
65 81 1
65 209 1
65 241 1
65 273 1
65 401 1
65 433 1
65 465 1
66 18 1
66 50 1
66 82 1
66 210 1
66 242 1
66 274 1
66 402 1
66 434 1
66 466 1
67 19 1
67 51 1
67 83 1
67 211 1
67 243 1
67 275 1
67 403 1
67 435 1
67 467 1
68 20 1
68 52 1
68 84 1
68 212 1
68 244 1
68 276 1
68 404 1
68 436 1
68 468 1
69 21 1
69 53 1
69 85 1
69 213 1
69 245 1
69 277 1
69 405 1
69 437 1
69 469 1
70 22 1
70 54 1
70 86 1
70 214 1
70 246 1
70 278 1
70 406 1
70 438 1
70 470 1
71 23 1
71 55 1
71 87 1
71 215 1
71 247 1
71 279 1
71 407 1
71 439 1
71 471 1
72 24 1
72 56 1
72 88 1
72 216 1
72 248 1
72 280 1
72 408 1
72 440 1
72 472 1
73 25 1
73 57 1
73 89 1
73 217 1
73 249 1
73 281 1
73 409 1
73 441 1
73 473 1
74 26 1
74 58 1
74 90 1
74 218 1
74 250 1
74 282 1
74 410 1
74 442 1
74 474 1
75 27 1
75 59 1
75 91 1
75 219 1
75 251 1
75 283 1
75 411 1
75 443 1
75 475 1
76 28 1
76 60 1
76 92 1
76 220 1
76 252 1
76 284 1
76 412 1
76 444 1
76 476 1
77 29 1
77 61 1
77 93 1
77 221 1
77 253 1
77 285 1
77 413 1
77 445 1
77 477 1
78 30 1
78 62 1
78 94 1
78 222 1
78 254 1
78 286 1
78 414 1
78 446 1
78 478 1
79 31 1
79 63 1
79 95 1
79 223 1
79 255 1
79 287 1
79 415 1
79 447 1
79 479 1
80 32 1
80 64 1
80 96 1
80 224 1
80 256 1
80 288 1
80 416 1
80 448 1
80 480 1
81 33 1
81 65 1
81 81 1
81 225 1
81 257 1
81 273 1
81 417 1
81 449 1
81 465 1
82 34 1
82 66 1
82 82 1
82 226 1
82 258 1
82 274 1
82 418 1
82 450 1
82 466 1
83 35 1
83 67 1
83 83 1
83 227 1
83 259 1
83 275 1
83 419 1
83 451 1
83 467 1
84 36 1
84 68 1
84 84 1
84 228 1
84 260 1
84 276 1
84 420 1
84 452 1
84 468 1
85 37 1
85 69 1
85 85 1
85 229 1
85 261 1
85 277 1
85 421 1
85 453 1
85 469 1
86 38 1
86 70 1
86 86 1
86 230 1
86 262 1
86 278 1
86 422 1
86 454 1
86 470 1
87 39 1
87 71 1
87 87 1
87 231 1
87 263 1
87 279 1
87 423 1
87 455 1
87 471 1
88 40 1
88 72 1
88 88 1
88 232 1
88 264 1
88 280 1
88 424 1
88 456 1
88 472 1
89 41 1
89 73 1
89 89 1
89 233 1
89 265 1
89 281 1
89 425 1
89 457 1
89 473 1
90 42 1
90 74 1
90 90 1
90 234 1
90 266 1
90 282 1
90 426 1
90 458 1
90 474 1
91 43 1
91 75 1
91 91 1
91 235 1
91 267 1
91 283 1
91 427 1
91 459 1
91 475 1
92 44 1
92 76 1
92 92 1
92 236 1
92 268 1
92 284 1
92 428 1
92 460 1
92 476 1
93 45 1
93 77 1
93 93 1
93 237 1
93 269 1
93 285 1
93 429 1
93 461 1
93 477 1
94 46 1
94 78 1
94 94 1
94 238 1
94 270 1
94 286 1
94 430 1
94 462 1
94 478 1
95 47 1
95 79 1
95 95 1
95 239 1
95 271 1
95 287 1
95 431 1
95 463 1
95 479 1
96 48 1
96 80 1
96 96 1
96 240 1
96 272 1
96 288 1
96 432 1
96 464 1
96 480 1
97 97 1
97 145 1
97 161 1
97 193 1
97 241 1
97 257 1
97 481 1
97 529 1
97 545 1
98 98 1
98 146 1
98 162 1
98 194 1
98 242 1
98 258 1
98 482 1
98 530 1
98 546 1
99 99 1
99 147 1
99 163 1
99 195 1
99 243 1
99 259 1
99 483 1
99 531 1
99 547 1
100 100 1
100 148 1
100 164 1
100 196 1
100 244 1
100 260 1
100 484 1
100 532 1
100 548 1
101 101 1
101 149 1
101 165 1
101 197 1
101 245 1
101 261 1
101 485 1
101 533 1
101 549 1
102 102 1
102 150 1
102 166 1
102 198 1
102 246 1
102 262 1
102 486 1
102 534 1
102 550 1
103 103 1
103 151 1
103 167 1
103 199 1
103 247 1
103 263 1
103 487 1
103 535 1
103 551 1
104 104 1
104 152 1
104 168 1
104 200 1
104 248 1
104 264 1
104 488 1
104 536 1
104 552 1
105 105 1
105 153 1
105 169 1
105 201 1
105 249 1
105 265 1
105 489 1
105 537 1
105 553 1
106 106 1
106 154 1
106 170 1
106 202 1
106 250 1
106 266 1
106 490 1
106 538 1
106 554 1
107 107 1
107 155 1
107 171 1
107 203 1
107 251 1
107 267 1
107 491 1
107 539 1
107 555 1
108 108 1
108 156 1
108 172 1
108 204 1
108 252 1
108 268 1
108 492 1
108 540 1
108 556 1
109 109 1
109 157 1
109 173 1
109 205 1
109 253 1
109 269 1
109 493 1
109 541 1
109 557 1
110 110 1
110 158 1
110 174 1
110 206 1
110 254 1
110 270 1
110 494 1
110 542 1
110 558 1
111 111 1
111 159 1
111 175 1
111 207 1
111 255 1
111 271 1
111 495 1
111 543 1
111 559 1
112 112 1
112 160 1
112 176 1
112 208 1
112 256 1
112 272 1
112 496 1
112 544 1
112 560 1
113 113 1
113 145 1
113 177 1
113 209 1
113 241 1
113 273 1
113 497 1
113 529 1
113 561 1
114 114 1
114 146 1
114 178 1
114 210 1
114 242 1
114 274 1
114 498 1
114 530 1
114 562 1
115 115 1
115 147 1
115 179 1
115 211 1
115 243 1
115 275 1
115 499 1
115 531 1
115 563 1
116 116 1
116 148 1
116 180 1
116 212 1
116 244 1
116 276 1
116 500 1
116 532 1
116 564 1
117 117 1
117 149 1
117 181 1
117 213 1
117 245 1
117 277 1
117 501 1
117 533 1
117 565 1
118 118 1
118 150 1
118 182 1
118 214 1
118 246 1
118 278 1
118 502 1
118 534 1
118 566 1
119 119 1
119 151 1
119 183 1
119 215 1
119 247 1
119 279 1
119 503 1
119 535 1
119 567 1
120 120 1
120 152 1
120 184 1
120 216 1
120 248 1
120 280 1
120 504 1
120 536 1
120 568 1
121 121 1
121 153 1
121 185 1
121 217 1
121 249 1
121 281 1
121 505 1
121 537 1
121 569 1
122 122 1
122 154 1
122 186 1
122 218 1
122 250 1
122 282 1
122 506 1
122 538 1
122 570 1
123 123 1
123 155 1
123 187 1
123 219 1
123 251 1
123 283 1
123 507 1
123 539 1
123 571 1
124 124 1
124 156 1
124 188 1
124 220 1
124 252 1
124 284 1
124 508 1
124 540 1
124 572 1
125 125 1
125 157 1
125 189 1
125 221 1
125 253 1
125 285 1
125 509 1
125 541 1
125 573 1
126 126 1
126 158 1
126 190 1
126 222 1
126 254 1
126 286 1
126 510 1
126 542 1
126 574 1
127 127 1
127 159 1
127 191 1
127 223 1
127 255 1
127 287 1
127 511 1
127 543 1
127 575 1
128 128 1
128 160 1
128 192 1
128 224 1
128 256 1
128 288 1
128 512 1
128 544 1
128 576 1
129 129 1
129 161 1
129 177 1
129 225 1
129 257 1
129 273 1
129 513 1
129 545 1
129 561 1
130 130 1
130 162 1
130 178 1
130 226 1
130 258 1
130 274 1
130 514 1
130 546 1
130 562 1
131 131 1
131 163 1
131 179 1
131 227 1
131 259 1
131 275 1
131 515 1
131 547 1
131 563 1
132 132 1
132 164 1
132 180 1
132 228 1
132 260 1
132 276 1
132 516 1
132 548 1
132 564 1
133 133 1
133 165 1
133 181 1
133 229 1
133 261 1
133 277 1
133 517 1
133 549 1
133 565 1
134 134 1
134 166 1
134 182 1
134 230 1
134 262 1
134 278 1
134 518 1
134 550 1
134 566 1
135 135 1
135 167 1
135 183 1
135 231 1
135 263 1
135 279 1
135 519 1
135 551 1
135 567 1
136 136 1
136 168 1
136 184 1
136 232 1
136 264 1
136 280 1
136 520 1
136 552 1
136 568 1
137 137 1
137 169 1
137 185 1
137 233 1
137 265 1
137 281 1
137 521 1
137 553 1
137 569 1
138 138 1
138 170 1
138 186 1
138 234 1
138 266 1
138 282 1
138 522 1
138 554 1
138 570 1
139 139 1
139 171 1
139 187 1
139 235 1
139 267 1
139 283 1
139 523 1
139 555 1
139 571 1
140 140 1
140 172 1
140 188 1
140 236 1
140 268 1
140 284 1
140 524 1
140 556 1
140 572 1
141 141 1
141 173 1
141 189 1
141 237 1
141 269 1
141 285 1
141 525 1
141 557 1
141 573 1
142 142 1
142 174 1
142 190 1
142 238 1
142 270 1
142 286 1
142 526 1
142 558 1
142 574 1
143 143 1
143 175 1
143 191 1
143 239 1
143 271 1
143 287 1
143 527 1
143 559 1
143 575 1
144 144 1
144 176 1
144 192 1
144 240 1
144 272 1
144 288 1
144 528 1
144 560 1
144 576 1
145 1 1
145 42 1
145 71 1
145 200 1
145 230 1
145 271 1
145 492 1
145 514 1
145 555 1
146 2 1
146 45 1
146 73 1
146 202 1
146 228 1
146 272 1
146 485 1
146 515 1
146 558 1
147 3 1
147 43 1
147 76 1
147 205 1
147 231 1
147 257 1
147 488 1
147 518 1
147 559 1
148 4 1
148 47 1
148 72 1
148 206 1
148 236 1
148 259 1
148 493 1
148 519 1
148 545 1
149 5 1
149 35 1
149 78 1
149 194 1
149 237 1
149 265 1
149 496 1
149 520 1
149 548 1
150 6 1
150 46 1
150 69 1
150 203 1
150 233 1
150 258 1
150 490 1
150 516 1
150 560 1
151 7 1
151 48 1
151 74 1
151 207 1
151 229 1
151 262 1
151 491 1
151 521 1
151 546 1
152 8 1
152 38 1
152 79 1
152 195 1
152 235 1
152 268 1
152 481 1
152 522 1
152 551 1
153 9 1
153 33 1
153 77 1
153 208 1
153 232 1
153 260 1
153 494 1
153 524 1
153 547 1
154 10 1
154 36 1
154 80 1
154 198 1
154 238 1
154 261 1
154 482 1
154 525 1
154 553 1
155 11 1
155 41 1
155 66 1
155 199 1
155 240 1
155 266 1
155 486 1
155 526 1
155 549 1
156 12 1
156 34 1
156 75 1
156 193 1
156 234 1
156 263 1
156 495 1
156 517 1
156 550 1
157 13 1
157 39 1
157 65 1
157 196 1
157 239 1
157 264 1
157 483 1
157 523 1
157 556 1
158 14 1
158 44 1
158 67 1
158 201 1
158 225 1
158 269 1
158 484 1
158 527 1
158 552 1
159 15 1
159 37 1
159 70 1
159 204 1
159 226 1
159 267 1
159 487 1
159 528 1
159 554 1
160 16 1
160 40 1
160 68 1
160 197 1
160 227 1
160 270 1
160 489 1
160 513 1
160 557 1
161 32 1
161 42 1
161 52 1
161 213 1
161 230 1
161 254 1
161 505 1
161 514 1
161 541 1
162 17 1
162 45 1
162 55 1
162 216 1
162 228 1
162 255 1
162 508 1
162 515 1
162 539 1
163 18 1
163 43 1
163 57 1
163 218 1
163 231 1
163 256 1
163 501 1
163 518 1
163 542 1
164 22 1
164 47 1
164 53 1
164 219 1
164 236 1
164 242 1
164 506 1
164 519 1
164 544 1
165 28 1
165 35 1
165 59 1
165 209 1
165 237 1
165 247 1
165 511 1
165 520 1
165 534 1
166 19 1
166 46 1
166 60 1
166 221 1
166 233 1
166 241 1
166 504 1
166 516 1
166 543 1
167 20 1
167 48 1
167 56 1
167 222 1
167 229 1
167 243 1
167 509 1
167 521 1
167 529 1
168 21 1
168 38 1
168 62 1
168 210 1
168 235 1
168 249 1
168 512 1
168 522 1
168 532 1
169 23 1
169 33 1
169 58 1
169 223 1
169 232 1
169 246 1
169 507 1
169 524 1
169 530 1
170 24 1
170 36 1
170 63 1
170 211 1
170 238 1
170 252 1
170 497 1
170 525 1
170 535 1
171 29 1
171 41 1
171 49 1
171 212 1
171 240 1
171 248 1
171 499 1
171 526 1
171 540 1
172 25 1
172 34 1
172 61 1
172 224 1
172 234 1
172 244 1
172 510 1
172 517 1
172 531 1
173 26 1
173 39 1
173 64 1
173 214 1
173 239 1
173 245 1
173 498 1
173 523 1
173 537 1
174 27 1
174 44 1
174 50 1
174 215 1
174 225 1
174 250 1
174 502 1
174 527 1
174 533 1
175 30 1
175 37 1
175 51 1
175 217 1
175 226 1
175 253 1
175 500 1
175 528 1
175 536 1
176 31 1
176 40 1
176 54 1
176 220 1
176 227 1
176 251 1
176 503 1
176 513 1
176 538 1
177 52 1
177 71 1
177 83 1
177 254 1
177 271 1
177 285 1
177 541 1
177 555 1
177 568 1
178 55 1
178 73 1
178 86 1
178 255 1
178 272 1
178 283 1
178 539 1
178 558 1
178 570 1
179 57 1
179 76 1
179 84 1
179 256 1
179 257 1
179 286 1
179 542 1
179 559 1
179 573 1
180 53 1
180 72 1
180 89 1
180 242 1
180 259 1
180 288 1
180 544 1
180 545 1
180 574 1
181 59 1
181 78 1
181 90 1
181 247 1
181 265 1
181 278 1
181 534 1
181 548 1
181 562 1
182 60 1
182 69 1
182 87 1
182 241 1
182 258 1
182 287 1
182 543 1
182 560 1
182 571 1
183 56 1
183 74 1
183 92 1
183 243 1
183 262 1
183 273 1
183 529 1
183 546 1
183 575 1
184 62 1
184 79 1
184 93 1
184 249 1
184 268 1
184 276 1
184 532 1
184 551 1
184 563 1
185 58 1
185 77 1
185 85 1
185 246 1
185 260 1
185 274 1
185 530 1
185 547 1
185 576 1
186 63 1
186 80 1
186 91 1
186 252 1
186 261 1
186 279 1
186 535 1
186 553 1
186 566 1
187 49 1
187 66 1
187 95 1
187 248 1
187 266 1
187 284 1
187 540 1
187 549 1
187 567 1
188 61 1
188 75 1
188 88 1
188 244 1
188 263 1
188 275 1
188 531 1
188 550 1
188 561 1
189 64 1
189 65 1
189 94 1
189 245 1
189 264 1
189 281 1
189 537 1
189 556 1
189 564 1
190 50 1
190 67 1
190 96 1
190 250 1
190 269 1
190 277 1
190 533 1
190 552 1
190 569 1
191 51 1
191 70 1
191 81 1
191 253 1
191 267 1
191 280 1
191 536 1
191 554 1
191 572 1
192 54 1
192 68 1
192 82 1
192 251 1
192 270 1
192 282 1
192 538 1
192 557 1
192 565 1
193 1 1
193 42 1
193 71 1
193 296 1
193 326 1
193 367 1
193 394 1
193 420 1
193 464 1
194 2 1
194 45 1
194 73 1
194 298 1
194 324 1
194 368 1
194 397 1
194 423 1
194 449 1
195 3 1
195 43 1
195 76 1
195 301 1
195 327 1
195 353 1
195 395 1
195 425 1
195 450 1
196 4 1
196 47 1
196 72 1
196 302 1
196 332 1
196 355 1
196 399 1
196 421 1
196 454 1
197 5 1
197 35 1
197 78 1
197 290 1
197 333 1
197 361 1
197 387 1
197 427 1
197 460 1
198 6 1
198 46 1
198 69 1
198 299 1
198 329 1
198 354 1
198 398 1
198 428 1
198 451 1
199 7 1
199 48 1
199 74 1
199 303 1
199 325 1
199 358 1
199 400 1
199 424 1
199 452 1
200 8 1
200 38 1
200 79 1
200 291 1
200 331 1
200 364 1
200 390 1
200 430 1
200 453 1
201 9 1
201 33 1
201 77 1
201 304 1
201 328 1
201 356 1
201 385 1
201 426 1
201 455 1
202 10 1
202 36 1
202 80 1
202 294 1
202 334 1
202 357 1
202 388 1
202 431 1
202 456 1
203 11 1
203 41 1
203 66 1
203 295 1
203 336 1
203 362 1
203 393 1
203 417 1
203 461 1
204 12 1
204 34 1
204 75 1
204 289 1
204 330 1
204 359 1
204 386 1
204 429 1
204 457 1
205 13 1
205 39 1
205 65 1
205 292 1
205 335 1
205 360 1
205 391 1
205 432 1
205 458 1
206 14 1
206 44 1
206 67 1
206 297 1
206 321 1
206 365 1
206 396 1
206 418 1
206 459 1
207 15 1
207 37 1
207 70 1
207 300 1
207 322 1
207 363 1
207 389 1
207 419 1
207 462 1
208 16 1
208 40 1
208 68 1
208 293 1
208 323 1
208 366 1
208 392 1
208 422 1
208 463 1
209 32 1
209 42 1
209 52 1
209 309 1
209 326 1
209 350 1
209 408 1
209 420 1
209 447 1
210 17 1
210 45 1
210 55 1
210 312 1
210 324 1
210 351 1
210 410 1
210 423 1
210 448 1
211 18 1
211 43 1
211 57 1
211 314 1
211 327 1
211 352 1
211 413 1
211 425 1
211 433 1
212 22 1
212 47 1
212 53 1
212 315 1
212 332 1
212 338 1
212 414 1
212 421 1
212 435 1
213 28 1
213 35 1
213 59 1
213 305 1
213 333 1
213 343 1
213 402 1
213 427 1
213 441 1
214 19 1
214 46 1
214 60 1
214 317 1
214 329 1
214 337 1
214 411 1
214 428 1
214 434 1
215 20 1
215 48 1
215 56 1
215 318 1
215 325 1
215 339 1
215 415 1
215 424 1
215 438 1
216 21 1
216 38 1
216 62 1
216 306 1
216 331 1
216 345 1
216 403 1
216 430 1
216 444 1
217 23 1
217 33 1
217 58 1
217 319 1
217 328 1
217 342 1
217 416 1
217 426 1
217 436 1
218 24 1
218 36 1
218 63 1
218 307 1
218 334 1
218 348 1
218 406 1
218 431 1
218 437 1
219 29 1
219 41 1
219 49 1
219 308 1
219 336 1
219 344 1
219 407 1
219 417 1
219 442 1
220 25 1
220 34 1
220 61 1
220 320 1
220 330 1
220 340 1
220 401 1
220 429 1
220 439 1
221 26 1
221 39 1
221 64 1
221 310 1
221 335 1
221 341 1
221 404 1
221 432 1
221 440 1
222 27 1
222 44 1
222 50 1
222 311 1
222 321 1
222 346 1
222 409 1
222 418 1
222 445 1
223 30 1
223 37 1
223 51 1
223 313 1
223 322 1
223 349 1
223 412 1
223 419 1
223 443 1
224 31 1
224 40 1
224 54 1
224 316 1
224 323 1
224 347 1
224 405 1
224 422 1
224 446 1
225 52 1
225 71 1
225 83 1
225 350 1
225 367 1
225 381 1
225 447 1
225 464 1
225 475 1
226 55 1
226 73 1
226 86 1
226 351 1
226 368 1
226 379 1
226 448 1
226 449 1
226 478 1
227 57 1
227 76 1
227 84 1
227 352 1
227 353 1
227 382 1
227 433 1
227 450 1
227 479 1
228 53 1
228 72 1
228 89 1
228 338 1
228 355 1
228 384 1
228 435 1
228 454 1
228 465 1
229 59 1
229 78 1
229 90 1
229 343 1
229 361 1
229 374 1
229 441 1
229 460 1
229 468 1
230 60 1
230 69 1
230 87 1
230 337 1
230 354 1
230 383 1
230 434 1
230 451 1
230 480 1
231 56 1
231 74 1
231 92 1
231 339 1
231 358 1
231 369 1
231 438 1
231 452 1
231 466 1
232 62 1
232 79 1
232 93 1
232 345 1
232 364 1
232 372 1
232 444 1
232 453 1
232 471 1
233 58 1
233 77 1
233 85 1
233 342 1
233 356 1
233 370 1
233 436 1
233 455 1
233 467 1
234 63 1
234 80 1
234 91 1
234 348 1
234 357 1
234 375 1
234 437 1
234 456 1
234 473 1
235 49 1
235 66 1
235 95 1
235 344 1
235 362 1
235 380 1
235 442 1
235 461 1
235 469 1
236 61 1
236 75 1
236 88 1
236 340 1
236 359 1
236 371 1
236 439 1
236 457 1
236 470 1
237 64 1
237 65 1
237 94 1
237 341 1
237 360 1
237 377 1
237 440 1
237 458 1
237 476 1
238 50 1
238 67 1
238 96 1
238 346 1
238 365 1
238 373 1
238 445 1
238 459 1
238 472 1
239 51 1
239 70 1
239 81 1
239 349 1
239 363 1
239 376 1
239 443 1
239 462 1
239 474 1
240 54 1
240 68 1
240 82 1
240 347 1
240 366 1
240 378 1
240 446 1
240 463 1
240 477 1
241 102 1
241 142 1
241 165 1
241 200 1
241 230 1
241 271 1
241 394 1
241 420 1
241 464 1
242 100 1
242 143 1
242 168 1
242 202 1
242 228 1
242 272 1
242 397 1
242 423 1
242 449 1
243 103 1
243 144 1
243 170 1
243 205 1
243 231 1
243 257 1
243 395 1
243 425 1
243 450 1
244 108 1
244 130 1
244 171 1
244 206 1
244 236 1
244 259 1
244 399 1
244 421 1
244 454 1
245 109 1
245 135 1
245 161 1
245 194 1
245 237 1
245 265 1
245 387 1
245 427 1
245 460 1
246 105 1
246 129 1
246 173 1
246 203 1
246 233 1
246 258 1
246 398 1
246 428 1
246 451 1
247 101 1
247 131 1
247 174 1
247 207 1
247 229 1
247 262 1
247 400 1
247 424 1
247 452 1
248 107 1
248 137 1
248 162 1
248 195 1
248 235 1
248 268 1
248 390 1
248 430 1
248 453 1
249 104 1
249 134 1
249 175 1
249 208 1
249 232 1
249 260 1
249 385 1
249 426 1
249 455 1
250 110 1
250 140 1
250 163 1
250 198 1
250 238 1
250 261 1
250 388 1
250 431 1
250 456 1
251 112 1
251 136 1
251 164 1
251 199 1
251 240 1
251 266 1
251 393 1
251 417 1
251 461 1
252 106 1
252 132 1
252 176 1
252 193 1
252 234 1
252 263 1
252 386 1
252 429 1
252 457 1
253 111 1
253 133 1
253 166 1
253 196 1
253 239 1
253 264 1
253 391 1
253 432 1
253 458 1
254 97 1
254 138 1
254 167 1
254 201 1
254 225 1
254 269 1
254 396 1
254 418 1
254 459 1
255 98 1
255 141 1
255 169 1
255 204 1
255 226 1
255 267 1
255 389 1
255 419 1
255 462 1
256 99 1
256 139 1
256 172 1
256 197 1
256 227 1
256 270 1
256 392 1
256 422 1
256 463 1
257 115 1
257 142 1
257 156 1
257 213 1
257 230 1
257 254 1
257 408 1
257 420 1
257 447 1
258 118 1
258 143 1
258 149 1
258 216 1
258 228 1
258 255 1
258 410 1
258 423 1
258 448 1
259 116 1
259 144 1
259 152 1
259 218 1
259 231 1
259 256 1
259 413 1
259 425 1
259 433 1
260 121 1
260 130 1
260 157 1
260 219 1
260 236 1
260 242 1
260 414 1
260 421 1
260 435 1
261 122 1
261 135 1
261 160 1
261 209 1
261 237 1
261 247 1
261 402 1
261 427 1
261 441 1
262 119 1
262 129 1
262 154 1
262 221 1
262 233 1
262 241 1
262 411 1
262 428 1
262 434 1
263 124 1
263 131 1
263 155 1
263 222 1
263 229 1
263 243 1
263 415 1
263 424 1
263 438 1
264 125 1
264 137 1
264 145 1
264 210 1
264 235 1
264 249 1
264 403 1
264 430 1
264 444 1
265 117 1
265 134 1
265 158 1
265 223 1
265 232 1
265 246 1
265 416 1
265 426 1
265 436 1
266 123 1
266 140 1
266 146 1
266 211 1
266 238 1
266 252 1
266 406 1
266 431 1
266 437 1
267 127 1
267 136 1
267 150 1
267 212 1
267 240 1
267 248 1
267 407 1
267 417 1
267 442 1
268 120 1
268 132 1
268 159 1
268 224 1
268 234 1
268 244 1
268 401 1
268 429 1
268 439 1
269 126 1
269 133 1
269 147 1
269 214 1
269 239 1
269 245 1
269 404 1
269 432 1
269 440 1
270 128 1
270 138 1
270 148 1
270 215 1
270 225 1
270 250 1
270 409 1
270 418 1
270 445 1
271 113 1
271 141 1
271 151 1
271 217 1
271 226 1
271 253 1
271 412 1
271 419 1
271 443 1
272 114 1
272 139 1
272 153 1
272 220 1
272 227 1
272 251 1
272 405 1
272 422 1
272 446 1
273 156 1
273 165 1
273 183 1
273 254 1
273 271 1
273 285 1
273 447 1
273 464 1
273 475 1
274 149 1
274 168 1
274 185 1
274 255 1
274 272 1
274 283 1
274 448 1
274 449 1
274 478 1
275 152 1
275 170 1
275 188 1
275 256 1
275 257 1
275 286 1
275 433 1
275 450 1
275 479 1
276 157 1
276 171 1
276 184 1
276 242 1
276 259 1
276 288 1
276 435 1
276 454 1
276 465 1
277 160 1
277 161 1
277 190 1
277 247 1
277 265 1
277 278 1
277 441 1
277 460 1
277 468 1
278 154 1
278 173 1
278 181 1
278 241 1
278 258 1
278 287 1
278 434 1
278 451 1
278 480 1
279 155 1
279 174 1
279 186 1
279 243 1
279 262 1
279 273 1
279 438 1
279 452 1
279 466 1
280 145 1
280 162 1
280 191 1
280 249 1
280 268 1
280 276 1
280 444 1
280 453 1
280 471 1
281 158 1
281 175 1
281 189 1
281 246 1
281 260 1
281 274 1
281 436 1
281 455 1
281 467 1
282 146 1
282 163 1
282 192 1
282 252 1
282 261 1
282 279 1
282 437 1
282 456 1
282 473 1
283 150 1
283 164 1
283 178 1
283 248 1
283 266 1
283 284 1
283 442 1
283 461 1
283 469 1
284 159 1
284 176 1
284 187 1
284 244 1
284 263 1
284 275 1
284 439 1
284 457 1
284 470 1
285 147 1
285 166 1
285 177 1
285 245 1
285 264 1
285 281 1
285 440 1
285 458 1
285 476 1
286 148 1
286 167 1
286 179 1
286 250 1
286 269 1
286 277 1
286 445 1
286 459 1
286 472 1
287 151 1
287 169 1
287 182 1
287 253 1
287 267 1
287 280 1
287 443 1
287 462 1
287 474 1
288 153 1
288 172 1
288 180 1
288 251 1
288 270 1
288 282 1
288 446 1
288 463 1
288 477 1
