%%MatrixMarket matrix coordinate integer general
256 512 4096
1 1 1
1 33 1
1 41 1
1 49 1
1 257 1
1 289 1
1 297 1
1 305 1
1 321 1
1 353 1
1 361 1
1 369 1
1 385 1
1 417 1
1 425 1
1 433 1
2 2 1
2 34 1
2 42 1
2 50 1
2 258 1
2 290 1
2 298 1
2 306 1
2 322 1
2 354 1
2 362 1
2 370 1
2 386 1
2 418 1
2 426 1
2 434 1
3 3 1
3 35 1
3 43 1
3 51 1
3 259 1
3 291 1
3 299 1
3 307 1
3 323 1
3 355 1
3 363 1
3 371 1
3 387 1
3 419 1
3 427 1
3 435 1
4 4 1
4 36 1
4 44 1
4 52 1
4 260 1
4 292 1
4 300 1
4 308 1
4 324 1
4 356 1
4 364 1
4 372 1
4 388 1
4 420 1
4 428 1
4 436 1
5 5 1
5 37 1
5 45 1
5 53 1
5 261 1
5 293 1
5 301 1
5 309 1
5 325 1
5 357 1
5 365 1
5 373 1
5 389 1
5 421 1
5 429 1
5 437 1
6 6 1
6 38 1
6 46 1
6 54 1
6 262 1
6 294 1
6 302 1
6 310 1
6 326 1
6 358 1
6 366 1
6 374 1
6 390 1
6 422 1
6 430 1
6 438 1
7 7 1
7 39 1
7 47 1
7 55 1
7 263 1
7 295 1
7 303 1
7 311 1
7 327 1
7 359 1
7 367 1
7 375 1
7 391 1
7 423 1
7 431 1
7 439 1
8 8 1
8 40 1
8 48 1
8 56 1
8 264 1
8 296 1
8 304 1
8 312 1
8 328 1
8 360 1
8 368 1
8 376 1
8 392 1
8 424 1
8 432 1
8 440 1
9 9 1
9 33 1
9 41 1
9 57 1
9 265 1
9 289 1
9 297 1
9 313 1
9 329 1
9 353 1
9 361 1
9 377 1
9 393 1
9 417 1
9 425 1
9 441 1
10 10 1
10 34 1
10 42 1
10 58 1
10 266 1
10 290 1
10 298 1
10 314 1
10 330 1
10 354 1
10 362 1
10 378 1
10 394 1
10 418 1
10 426 1
10 442 1
11 11 1
11 35 1
11 43 1
11 59 1
11 267 1
11 291 1
11 299 1
11 315 1
11 331 1
11 355 1
11 363 1
11 379 1
11 395 1
11 419 1
11 427 1
11 443 1
12 12 1
12 36 1
12 44 1
12 60 1
12 268 1
12 292 1
12 300 1
12 316 1
12 332 1
12 356 1
12 364 1
12 380 1
12 396 1
12 420 1
12 428 1
12 444 1
13 13 1
13 37 1
13 45 1
13 61 1
13 269 1
13 293 1
13 301 1
13 317 1
13 333 1
13 357 1
13 365 1
13 381 1
13 397 1
13 421 1
13 429 1
13 445 1
14 14 1
14 38 1
14 46 1
14 62 1
14 270 1
14 294 1
14 302 1
14 318 1
14 334 1
14 358 1
14 366 1
14 382 1
14 398 1
14 422 1
14 430 1
14 446 1
15 15 1
15 39 1
15 47 1
15 63 1
15 271 1
15 295 1
15 303 1
15 319 1
15 335 1
15 359 1
15 367 1
15 383 1
15 399 1
15 423 1
15 431 1
15 447 1
16 16 1
16 40 1
16 48 1
16 64 1
16 272 1
16 296 1
16 304 1
16 320 1
16 336 1
16 360 1
16 368 1
16 384 1
16 400 1
16 424 1
16 432 1
16 448 1
17 17 1
17 33 1
17 49 1
17 57 1
17 273 1
17 289 1
17 305 1
17 313 1
17 337 1
17 353 1
17 369 1
17 377 1
17 401 1
17 417 1
17 433 1
17 441 1
18 18 1
18 34 1
18 50 1
18 58 1
18 274 1
18 290 1
18 306 1
18 314 1
18 338 1
18 354 1
18 370 1
18 378 1
18 402 1
18 418 1
18 434 1
18 442 1
19 19 1
19 35 1
19 51 1
19 59 1
19 275 1
19 291 1
19 307 1
19 315 1
19 339 1
19 355 1
19 371 1
19 379 1
19 403 1
19 419 1
19 435 1
19 443 1
20 20 1
20 36 1
20 52 1
20 60 1
20 276 1
20 292 1
20 308 1
20 316 1
20 340 1
20 356 1
20 372 1
20 380 1
20 404 1
20 420 1
20 436 1
20 444 1
21 21 1
21 37 1
21 53 1
21 61 1
21 277 1
21 293 1
21 309 1
21 317 1
21 341 1
21 357 1
21 373 1
21 381 1
21 405 1
21 421 1
21 437 1
21 445 1
22 22 1
22 38 1
22 54 1
22 62 1
22 278 1
22 294 1
22 310 1
22 318 1
22 342 1
22 358 1
22 374 1
22 382 1
22 406 1
22 422 1
22 438 1
22 446 1
23 23 1
23 39 1
23 55 1
23 63 1
23 279 1
23 295 1
23 311 1
23 319 1
23 343 1
23 359 1
23 375 1
23 383 1
23 407 1
23 423 1
23 439 1
23 447 1
24 24 1
24 40 1
24 56 1
24 64 1
24 280 1
24 296 1
24 312 1
24 320 1
24 344 1
24 360 1
24 376 1
24 384 1
24 408 1
24 424 1
24 440 1
24 448 1
25 25 1
25 41 1
25 49 1
25 57 1
25 281 1
25 297 1
25 305 1
25 313 1
25 345 1
25 361 1
25 369 1
25 377 1
25 409 1
25 425 1
25 433 1
25 441 1
26 26 1
26 42 1
26 50 1
26 58 1
26 282 1
26 298 1
26 306 1
26 314 1
26 346 1
26 362 1
26 370 1
26 378 1
26 410 1
26 426 1
26 434 1
26 442 1
27 27 1
27 43 1
27 51 1
27 59 1
27 283 1
27 299 1
27 307 1
27 315 1
27 347 1
27 363 1
27 371 1
27 379 1
27 411 1
27 427 1
27 435 1
27 443 1
28 28 1
28 44 1
28 52 1
28 60 1
28 284 1
28 300 1
28 308 1
28 316 1
28 348 1
28 364 1
28 372 1
28 380 1
28 412 1
28 428 1
28 436 1
28 444 1
29 29 1
29 45 1
29 53 1
29 61 1
29 285 1
29 301 1
29 309 1
29 317 1
29 349 1
29 365 1
29 373 1
29 381 1
29 413 1
29 429 1
29 437 1
29 445 1
30 30 1
30 46 1
30 54 1
30 62 1
30 286 1
30 302 1
30 310 1
30 318 1
30 350 1
30 366 1
30 374 1
30 382 1
30 414 1
30 430 1
30 438 1
30 446 1
31 31 1
31 47 1
31 55 1
31 63 1
31 287 1
31 303 1
31 311 1
31 319 1
31 351 1
31 367 1
31 375 1
31 383 1
31 415 1
31 431 1
31 439 1
31 447 1
32 32 1
32 48 1
32 56 1
32 64 1
32 288 1
32 304 1
32 312 1
32 320 1
32 352 1
32 368 1
32 376 1
32 384 1
32 416 1
32 432 1
32 440 1
32 448 1
33 65 1
33 97 1
33 105 1
33 113 1
33 257 1
33 289 1
33 297 1
33 305 1
33 321 1
33 353 1
33 361 1
33 369 1
33 449 1
33 481 1
33 489 1
33 497 1
34 66 1
34 98 1
34 106 1
34 114 1
34 258 1
34 290 1
34 298 1
34 306 1
34 322 1
34 354 1
34 362 1
34 370 1
34 450 1
34 482 1
34 490 1
34 498 1
35 67 1
35 99 1
35 107 1
35 115 1
35 259 1
35 291 1
35 299 1
35 307 1
35 323 1
35 355 1
35 363 1
35 371 1
35 451 1
35 483 1
35 491 1
35 499 1
36 68 1
36 100 1
36 108 1
36 116 1
36 260 1
36 292 1
36 300 1
36 308 1
36 324 1
36 356 1
36 364 1
36 372 1
36 452 1
36 484 1
36 492 1
36 500 1
37 69 1
37 101 1
37 109 1
37 117 1
37 261 1
37 293 1
37 301 1
37 309 1
37 325 1
37 357 1
37 365 1
37 373 1
37 453 1
37 485 1
37 493 1
37 501 1
38 70 1
38 102 1
38 110 1
38 118 1
38 262 1
38 294 1
38 302 1
38 310 1
38 326 1
38 358 1
38 366 1
38 374 1
38 454 1
38 486 1
38 494 1
38 502 1
39 71 1
39 103 1
39 111 1
39 119 1
39 263 1
39 295 1
39 303 1
39 311 1
39 327 1
39 359 1
39 367 1
39 375 1
39 455 1
39 487 1
39 495 1
39 503 1
40 72 1
40 104 1
40 112 1
40 120 1
40 264 1
40 296 1
40 304 1
40 312 1
40 328 1
40 360 1
40 368 1
40 376 1
40 456 1
40 488 1
40 496 1
40 504 1
41 73 1
41 97 1
41 105 1
41 121 1
41 265 1
41 289 1
41 297 1
41 313 1
41 329 1
41 353 1
41 361 1
41 377 1
41 457 1
41 481 1
41 489 1
41 505 1
42 74 1
42 98 1
42 106 1
42 122 1
42 266 1
42 290 1
42 298 1
42 314 1
42 330 1
42 354 1
42 362 1
42 378 1
42 458 1
42 482 1
42 490 1
42 506 1
43 75 1
43 99 1
43 107 1
43 123 1
43 267 1
43 291 1
43 299 1
43 315 1
43 331 1
43 355 1
43 363 1
43 379 1
43 459 1
43 483 1
43 491 1
43 507 1
44 76 1
44 100 1
44 108 1
44 124 1
44 268 1
44 292 1
44 300 1
44 316 1
44 332 1
44 356 1
44 364 1
44 380 1
44 460 1
44 484 1
44 492 1
44 508 1
45 77 1
45 101 1
45 109 1
45 125 1
45 269 1
45 293 1
45 301 1
45 317 1
45 333 1
45 357 1
45 365 1
45 381 1
45 461 1
45 485 1
45 493 1
45 509 1
46 78 1
46 102 1
46 110 1
46 126 1
46 270 1
46 294 1
46 302 1
46 318 1
46 334 1
46 358 1
46 366 1
46 382 1
46 462 1
46 486 1
46 494 1
46 510 1
47 79 1
47 103 1
47 111 1
47 127 1
47 271 1
47 295 1
47 303 1
47 319 1
47 335 1
47 359 1
47 367 1
47 383 1
47 463 1
47 487 1
47 495 1
47 511 1
48 80 1
48 104 1
48 112 1
48 128 1
48 272 1
48 296 1
48 304 1
48 320 1
48 336 1
48 360 1
48 368 1
48 384 1
48 464 1
48 488 1
48 496 1
48 512 1
49 81 1
49 97 1
49 113 1
49 121 1
49 273 1
49 289 1
49 305 1
49 313 1
49 337 1
49 353 1
49 369 1
49 377 1
49 465 1
49 481 1
49 497 1
49 505 1
50 82 1
50 98 1
50 114 1
50 122 1
50 274 1
50 290 1
50 306 1
50 314 1
50 338 1
50 354 1
50 370 1
50 378 1
50 466 1
50 482 1
50 498 1
50 506 1
51 83 1
51 99 1
51 115 1
51 123 1
51 275 1
51 291 1
51 307 1
51 315 1
51 339 1
51 355 1
51 371 1
51 379 1
51 467 1
51 483 1
51 499 1
51 507 1
52 84 1
52 100 1
52 116 1
52 124 1
52 276 1
52 292 1
52 308 1
52 316 1
52 340 1
52 356 1
52 372 1
52 380 1
52 468 1
52 484 1
52 500 1
52 508 1
53 85 1
53 101 1
53 117 1
53 125 1
53 277 1
53 293 1
53 309 1
53 317 1
53 341 1
53 357 1
53 373 1
53 381 1
53 469 1
53 485 1
53 501 1
53 509 1
54 86 1
54 102 1
54 118 1
54 126 1
54 278 1
54 294 1
54 310 1
54 318 1
54 342 1
54 358 1
54 374 1
54 382 1
54 470 1
54 486 1
54 502 1
54 510 1
55 87 1
55 103 1
55 119 1
55 127 1
55 279 1
55 295 1
55 311 1
55 319 1
55 343 1
55 359 1
55 375 1
55 383 1
55 471 1
55 487 1
55 503 1
55 511 1
56 88 1
56 104 1
56 120 1
56 128 1
56 280 1
56 296 1
56 312 1
56 320 1
56 344 1
56 360 1
56 376 1
56 384 1
56 472 1
56 488 1
56 504 1
56 512 1
57 89 1
57 105 1
57 113 1
57 121 1
57 281 1
57 297 1
57 305 1
57 313 1
57 345 1
57 361 1
57 369 1
57 377 1
57 473 1
57 489 1
57 497 1
57 505 1
58 90 1
58 106 1
58 114 1
58 122 1
58 282 1
58 298 1
58 306 1
58 314 1
58 346 1
58 362 1
58 370 1
58 378 1
58 474 1
58 490 1
58 498 1
58 506 1
59 91 1
59 107 1
59 115 1
59 123 1
59 283 1
59 299 1
59 307 1
59 315 1
59 347 1
59 363 1
59 371 1
59 379 1
59 475 1
59 491 1
59 499 1
59 507 1
60 92 1
60 108 1
60 116 1
60 124 1
60 284 1
60 300 1
60 308 1
60 316 1
60 348 1
60 364 1
60 372 1
60 380 1
60 476 1
60 492 1
60 500 1
60 508 1
61 93 1
61 109 1
61 117 1
61 125 1
61 285 1
61 301 1
61 309 1
61 317 1
61 349 1
61 365 1
61 373 1
61 381 1
61 477 1
61 493 1
61 501 1
61 509 1
62 94 1
62 110 1
62 118 1
62 126 1
62 286 1
62 302 1
62 310 1
62 318 1
62 350 1
62 366 1
62 374 1
62 382 1
62 478 1
62 494 1
62 502 1
62 510 1
63 95 1
63 111 1
63 119 1
63 127 1
63 287 1
63 303 1
63 311 1
63 319 1
63 351 1
63 367 1
63 375 1
63 383 1
63 479 1
63 495 1
63 503 1
63 511 1
64 96 1
64 112 1
64 120 1
64 128 1
64 288 1
64 304 1
64 312 1
64 320 1
64 352 1
64 368 1
64 376 1
64 384 1
64 480 1
64 496 1
64 504 1
64 512 1
65 129 1
65 161 1
65 169 1
65 177 1
65 257 1
65 289 1
65 297 1
65 305 1
65 385 1
65 417 1
65 425 1
65 433 1
65 449 1
65 481 1
65 489 1
65 497 1
66 130 1
66 162 1
66 170 1
66 178 1
66 258 1
66 290 1
66 298 1
66 306 1
66 386 1
66 418 1
66 426 1
66 434 1
66 450 1
66 482 1
66 490 1
66 498 1
67 131 1
67 163 1
67 171 1
67 179 1
67 259 1
67 291 1
67 299 1
67 307 1
67 387 1
67 419 1
67 427 1
67 435 1
67 451 1
67 483 1
67 491 1
67 499 1
68 132 1
68 164 1
68 172 1
68 180 1
68 260 1
68 292 1
68 300 1
68 308 1
68 388 1
68 420 1
68 428 1
68 436 1
68 452 1
68 484 1
68 492 1
68 500 1
69 133 1
69 165 1
69 173 1
69 181 1
69 261 1
69 293 1
69 301 1
69 309 1
69 389 1
69 421 1
69 429 1
69 437 1
69 453 1
69 485 1
69 493 1
69 501 1
70 134 1
70 166 1
70 174 1
70 182 1
70 262 1
70 294 1
70 302 1
70 310 1
70 390 1
70 422 1
70 430 1
70 438 1
70 454 1
70 486 1
70 494 1
70 502 1
71 135 1
71 167 1
71 175 1
71 183 1
71 263 1
71 295 1
71 303 1
71 311 1
71 391 1
71 423 1
71 431 1
71 439 1
71 455 1
71 487 1
71 495 1
71 503 1
72 136 1
72 168 1
72 176 1
72 184 1
72 264 1
72 296 1
72 304 1
72 312 1
72 392 1
72 424 1
72 432 1
72 440 1
72 456 1
72 488 1
72 496 1
72 504 1
73 137 1
73 161 1
73 169 1
73 185 1
73 265 1
73 289 1
73 297 1
73 313 1
73 393 1
73 417 1
73 425 1
73 441 1
73 457 1
73 481 1
73 489 1
73 505 1
74 138 1
74 162 1
74 170 1
74 186 1
74 266 1
74 290 1
74 298 1
74 314 1
74 394 1
74 418 1
74 426 1
74 442 1
74 458 1
74 482 1
74 490 1
74 506 1
75 139 1
75 163 1
75 171 1
75 187 1
75 267 1
75 291 1
75 299 1
75 315 1
75 395 1
75 419 1
75 427 1
75 443 1
75 459 1
75 483 1
75 491 1
75 507 1
76 140 1
76 164 1
76 172 1
76 188 1
76 268 1
76 292 1
76 300 1
76 316 1
76 396 1
76 420 1
76 428 1
76 444 1
76 460 1
76 484 1
76 492 1
76 508 1
77 141 1
77 165 1
77 173 1
77 189 1
77 269 1
77 293 1
77 301 1
77 317 1
77 397 1
77 421 1
77 429 1
77 445 1
77 461 1
77 485 1
77 493 1
77 509 1
78 142 1
78 166 1
78 174 1
78 190 1
78 270 1
78 294 1
78 302 1
78 318 1
78 398 1
78 422 1
78 430 1
78 446 1
78 462 1
78 486 1
78 494 1
78 510 1
79 143 1
79 167 1
79 175 1
79 191 1
79 271 1
79 295 1
79 303 1
79 319 1
79 399 1
79 423 1
79 431 1
79 447 1
79 463 1
79 487 1
79 495 1
79 511 1
80 144 1
80 168 1
80 176 1
80 192 1
80 272 1
80 296 1
80 304 1
80 320 1
80 400 1
80 424 1
80 432 1
80 448 1
80 464 1
80 488 1
80 496 1
80 512 1
81 145 1
81 161 1
81 177 1
81 185 1
81 273 1
81 289 1
81 305 1
81 313 1
81 401 1
81 417 1
81 433 1
81 441 1
81 465 1
81 481 1
81 497 1
81 505 1
82 146 1
82 162 1
82 178 1
82 186 1
82 274 1
82 290 1
82 306 1
82 314 1
82 402 1
82 418 1
82 434 1
82 442 1
82 466 1
82 482 1
82 498 1
82 506 1
83 147 1
83 163 1
83 179 1
83 187 1
83 275 1
83 291 1
83 307 1
83 315 1
83 403 1
83 419 1
83 435 1
83 443 1
83 467 1
83 483 1
83 499 1
83 507 1
84 148 1
84 164 1
84 180 1
84 188 1
84 276 1
84 292 1
84 308 1
84 316 1
84 404 1
84 420 1
84 436 1
84 444 1
84 468 1
84 484 1
84 500 1
84 508 1
85 149 1
85 165 1
85 181 1
85 189 1
85 277 1
85 293 1
85 309 1
85 317 1
85 405 1
85 421 1
85 437 1
85 445 1
85 469 1
85 485 1
85 501 1
85 509 1
86 150 1
86 166 1
86 182 1
86 190 1
86 278 1
86 294 1
86 310 1
86 318 1
86 406 1
86 422 1
86 438 1
86 446 1
86 470 1
86 486 1
86 502 1
86 510 1
87 151 1
87 167 1
87 183 1
87 191 1
87 279 1
87 295 1
87 311 1
87 319 1
87 407 1
87 423 1
87 439 1
87 447 1
87 471 1
87 487 1
87 503 1
87 511 1
88 152 1
88 168 1
88 184 1
88 192 1
88 280 1
88 296 1
88 312 1
88 320 1
88 408 1
88 424 1
88 440 1
88 448 1
88 472 1
88 488 1
88 504 1
88 512 1
89 153 1
89 169 1
89 177 1
89 185 1
89 281 1
89 297 1
89 305 1
89 313 1
89 409 1
89 425 1
89 433 1
89 441 1
89 473 1
89 489 1
89 497 1
89 505 1
90 154 1
90 170 1
90 178 1
90 186 1
90 282 1
90 298 1
90 306 1
90 314 1
90 410 1
90 426 1
90 434 1
90 442 1
90 474 1
90 490 1
90 498 1
90 506 1
91 155 1
91 171 1
91 179 1
91 187 1
91 283 1
91 299 1
91 307 1
91 315 1
91 411 1
91 427 1
91 435 1
91 443 1
91 475 1
91 491 1
91 499 1
91 507 1
92 156 1
92 172 1
92 180 1
92 188 1
92 284 1
92 300 1
92 308 1
92 316 1
92 412 1
92 428 1
92 436 1
92 444 1
92 476 1
92 492 1
92 500 1
92 508 1
93 157 1
93 173 1
93 181 1
93 189 1
93 285 1
93 301 1
93 309 1
93 317 1
93 413 1
93 429 1
93 437 1
93 445 1
93 477 1
93 493 1
93 501 1
93 509 1
94 158 1
94 174 1
94 182 1
94 190 1
94 286 1
94 302 1
94 310 1
94 318 1
94 414 1
94 430 1
94 438 1
94 446 1
94 478 1
94 494 1
94 502 1
94 510 1
95 159 1
95 175 1
95 183 1
95 191 1
95 287 1
95 303 1
95 311 1
95 319 1
95 415 1
95 431 1
95 439 1
95 447 1
95 479 1
95 495 1
95 503 1
95 511 1
96 160 1
96 176 1
96 184 1
96 192 1
96 288 1
96 304 1
96 312 1
96 320 1
96 416 1
96 432 1
96 440 1
96 448 1
96 480 1
96 496 1
96 504 1
96 512 1
97 193 1
97 225 1
97 233 1
97 241 1
97 321 1
97 353 1
97 361 1
97 369 1
97 385 1
97 417 1
97 425 1
97 433 1
97 449 1
97 481 1
97 489 1
97 497 1
98 194 1
98 226 1
98 234 1
98 242 1
98 322 1
98 354 1
98 362 1
98 370 1
98 386 1
98 418 1
98 426 1
98 434 1
98 450 1
98 482 1
98 490 1
98 498 1
99 195 1
99 227 1
99 235 1
99 243 1
99 323 1
99 355 1
99 363 1
99 371 1
99 387 1
99 419 1
99 427 1
99 435 1
99 451 1
99 483 1
99 491 1
99 499 1
100 196 1
100 228 1
100 236 1
100 244 1
100 324 1
100 356 1
100 364 1
100 372 1
100 388 1
100 420 1
100 428 1
100 436 1
100 452 1
100 484 1
100 492 1
100 500 1
101 197 1
101 229 1
101 237 1
101 245 1
101 325 1
101 357 1
101 365 1
101 373 1
101 389 1
101 421 1
101 429 1
101 437 1
101 453 1
101 485 1
101 493 1
101 501 1
102 198 1
102 230 1
102 238 1
102 246 1
102 326 1
102 358 1
102 366 1
102 374 1
102 390 1
102 422 1
102 430 1
102 438 1
102 454 1
102 486 1
102 494 1
102 502 1
103 199 1
103 231 1
103 239 1
103 247 1
103 327 1
103 359 1
103 367 1
103 375 1
103 391 1
103 423 1
103 431 1
103 439 1
103 455 1
103 487 1
103 495 1
103 503 1
104 200 1
104 232 1
104 240 1
104 248 1
104 328 1
104 360 1
104 368 1
104 376 1
104 392 1
104 424 1
104 432 1
104 440 1
104 456 1
104 488 1
104 496 1
104 504 1
105 201 1
105 225 1
105 233 1
105 249 1
105 329 1
105 353 1
105 361 1
105 377 1
105 393 1
105 417 1
105 425 1
105 441 1
105 457 1
105 481 1
105 489 1
105 505 1
106 202 1
106 226 1
106 234 1
106 250 1
106 330 1
106 354 1
106 362 1
106 378 1
106 394 1
106 418 1
106 426 1
106 442 1
106 458 1
106 482 1
106 490 1
106 506 1
107 203 1
107 227 1
107 235 1
107 251 1
107 331 1
107 355 1
107 363 1
107 379 1
107 395 1
107 419 1
107 427 1
107 443 1
107 459 1
107 483 1
107 491 1
107 507 1
108 204 1
108 228 1
108 236 1
108 252 1
108 332 1
108 356 1
108 364 1
108 380 1
108 396 1
108 420 1
108 428 1
108 444 1
108 460 1
108 484 1
108 492 1
108 508 1
109 205 1
109 229 1
109 237 1
109 253 1
109 333 1
109 357 1
109 365 1
109 381 1
109 397 1
109 421 1
109 429 1
109 445 1
109 461 1
109 485 1
109 493 1
109 509 1
110 206 1
110 230 1
110 238 1
110 254 1
110 334 1
110 358 1
110 366 1
110 382 1
110 398 1
110 422 1
110 430 1
110 446 1
110 462 1
110 486 1
110 494 1
110 510 1
111 207 1
111 231 1
111 239 1
111 255 1
111 335 1
111 359 1
111 367 1
111 383 1
111 399 1
111 423 1
111 431 1
111 447 1
111 463 1
111 487 1
111 495 1
111 511 1
112 208 1
112 232 1
112 240 1
112 256 1
112 336 1
112 360 1
112 368 1
112 384 1
112 400 1
112 424 1
112 432 1
112 448 1
112 464 1
112 488 1
112 496 1
112 512 1
113 209 1
113 225 1
113 241 1
113 249 1
113 337 1
113 353 1
113 369 1
113 377 1
113 401 1
113 417 1
113 433 1
113 441 1
113 465 1
113 481 1
113 497 1
113 505 1
114 210 1
114 226 1
114 242 1
114 250 1
114 338 1
114 354 1
114 370 1
114 378 1
114 402 1
114 418 1
114 434 1
114 442 1
114 466 1
114 482 1
114 498 1
114 506 1
115 211 1
115 227 1
115 243 1
115 251 1
115 339 1
115 355 1
115 371 1
115 379 1
115 403 1
115 419 1
115 435 1
115 443 1
115 467 1
115 483 1
115 499 1
115 507 1
116 212 1
116 228 1
116 244 1
116 252 1
116 340 1
116 356 1
116 372 1
116 380 1
116 404 1
116 420 1
116 436 1
116 444 1
116 468 1
116 484 1
116 500 1
116 508 1
117 213 1
117 229 1
117 245 1
117 253 1
117 341 1
117 357 1
117 373 1
117 381 1
117 405 1
117 421 1
117 437 1
117 445 1
117 469 1
117 485 1
117 501 1
117 509 1
118 214 1
118 230 1
118 246 1
118 254 1
118 342 1
118 358 1
118 374 1
118 382 1
118 406 1
118 422 1
118 438 1
118 446 1
118 470 1
118 486 1
118 502 1
118 510 1
119 215 1
119 231 1
119 247 1
119 255 1
119 343 1
119 359 1
119 375 1
119 383 1
119 407 1
119 423 1
119 439 1
119 447 1
119 471 1
119 487 1
119 503 1
119 511 1
120 216 1
120 232 1
120 248 1
120 256 1
120 344 1
120 360 1
120 376 1
120 384 1
120 408 1
120 424 1
120 440 1
120 448 1
120 472 1
120 488 1
120 504 1
120 512 1
121 217 1
121 233 1
121 241 1
121 249 1
121 345 1
121 361 1
121 369 1
121 377 1
121 409 1
121 425 1
121 433 1
121 441 1
121 473 1
121 489 1
121 497 1
121 505 1
122 218 1
122 234 1
122 242 1
122 250 1
122 346 1
122 362 1
122 370 1
122 378 1
122 410 1
122 426 1
122 434 1
122 442 1
122 474 1
122 490 1
122 498 1
122 506 1
123 219 1
123 235 1
123 243 1
123 251 1
123 347 1
123 363 1
123 371 1
123 379 1
123 411 1
123 427 1
123 435 1
123 443 1
123 475 1
123 491 1
123 499 1
123 507 1
124 220 1
124 236 1
124 244 1
124 252 1
124 348 1
124 364 1
124 372 1
124 380 1
124 412 1
124 428 1
124 436 1
124 444 1
124 476 1
124 492 1
124 500 1
124 508 1
125 221 1
125 237 1
125 245 1
125 253 1
125 349 1
125 365 1
125 373 1
125 381 1
125 413 1
125 429 1
125 437 1
125 445 1
125 477 1
125 493 1
125 501 1
125 509 1
126 222 1
126 238 1
126 246 1
126 254 1
126 350 1
126 366 1
126 374 1
126 382 1
126 414 1
126 430 1
126 438 1
126 446 1
126 478 1
126 494 1
126 502 1
126 510 1
127 223 1
127 239 1
127 247 1
127 255 1
127 351 1
127 367 1
127 375 1
127 383 1
127 415 1
127 431 1
127 439 1
127 447 1
127 479 1
127 495 1
127 503 1
127 511 1
128 224 1
128 240 1
128 248 1
128 256 1
128 352 1
128 368 1
128 376 1
128 384 1
128 416 1
128 432 1
128 440 1
128 448 1
128 480 1
128 496 1
128 504 1
128 512 1
129 1 1
129 36 1
129 48 1
129 59 1
129 194 1
129 230 1
129 235 1
129 253 1
129 323 1
129 359 1
129 366 1
129 380 1
129 390 1
129 418 1
129 431 1
129 448 1
130 2 1
130 38 1
130 43 1
130 61 1
130 196 1
130 225 1
130 237 1
130 255 1
130 328 1
130 357 1
130 364 1
130 378 1
130 385 1
130 420 1
130 432 1
130 443 1
131 3 1
131 39 1
131 46 1
131 60 1
131 197 1
131 232 1
131 233 1
131 254 1
131 324 1
131 353 1
131 365 1
131 383 1
131 392 1
131 421 1
131 428 1
131 442 1
132 4 1
132 33 1
132 45 1
132 63 1
132 198 1
132 226 1
132 239 1
132 256 1
132 327 1
132 355 1
132 362 1
132 377 1
132 386 1
132 422 1
132 427 1
132 445 1
133 5 1
133 40 1
133 41 1
133 62 1
133 199 1
133 227 1
133 234 1
133 249 1
133 322 1
133 358 1
133 363 1
133 381 1
133 387 1
133 423 1
133 430 1
133 444 1
134 6 1
134 34 1
134 47 1
134 64 1
134 193 1
134 228 1
134 240 1
134 251 1
134 325 1
134 360 1
134 361 1
134 382 1
134 388 1
134 417 1
134 429 1
134 447 1
135 7 1
135 35 1
135 42 1
135 57 1
135 200 1
135 229 1
135 236 1
135 250 1
135 321 1
135 356 1
135 368 1
135 379 1
135 389 1
135 424 1
135 425 1
135 446 1
136 8 1
136 37 1
136 44 1
136 58 1
136 195 1
136 231 1
136 238 1
136 252 1
136 326 1
136 354 1
136 367 1
136 384 1
136 391 1
136 419 1
136 426 1
136 441 1
137 14 1
137 36 1
137 48 1
137 56 1
137 201 1
137 230 1
137 235 1
137 243 1
137 333 1
137 359 1
137 366 1
137 374 1
137 396 1
137 418 1
137 431 1
137 439 1
138 9 1
138 38 1
138 43 1
138 51 1
138 202 1
138 225 1
138 237 1
138 245 1
138 331 1
138 357 1
138 364 1
138 372 1
138 398 1
138 420 1
138 432 1
138 440 1
139 13 1
139 39 1
139 46 1
139 54 1
139 207 1
139 232 1
139 233 1
139 241 1
139 330 1
139 353 1
139 365 1
139 373 1
139 395 1
139 421 1
139 428 1
139 436 1
140 10 1
140 33 1
140 45 1
140 53 1
140 204 1
140 226 1
140 239 1
140 247 1
140 336 1
140 355 1
140 362 1
140 370 1
140 393 1
140 422 1
140 427 1
140 435 1
141 15 1
141 40 1
141 41 1
141 49 1
141 208 1
141 227 1
141 234 1
141 242 1
141 329 1
141 358 1
141 363 1
141 371 1
141 397 1
141 423 1
141 430 1
141 438 1
142 12 1
142 34 1
142 47 1
142 55 1
142 206 1
142 228 1
142 240 1
142 248 1
142 335 1
142 360 1
142 361 1
142 369 1
142 394 1
142 417 1
142 429 1
142 437 1
143 16 1
143 35 1
143 42 1
143 50 1
143 203 1
143 229 1
143 236 1
143 244 1
143 334 1
143 356 1
143 368 1
143 376 1
143 399 1
143 424 1
143 425 1
143 433 1
144 11 1
144 37 1
144 44 1
144 52 1
144 205 1
144 231 1
144 238 1
144 246 1
144 332 1
144 354 1
144 367 1
144 375 1
144 400 1
144 419 1
144 426 1
144 434 1
145 22 1
145 48 1
145 56 1
145 59 1
145 209 1
145 235 1
145 243 1
145 253 1
145 341 1
145 366 1
145 374 1
145 380 1
145 404 1
145 431 1
145 439 1
145 448 1
146 17 1
146 43 1
146 51 1
146 61 1
146 210 1
146 237 1
146 245 1
146 255 1
146 339 1
146 364 1
146 372 1
146 378 1
146 406 1
146 432 1
146 440 1
146 443 1
147 21 1
147 46 1
147 54 1
147 60 1
147 215 1
147 233 1
147 241 1
147 254 1
147 338 1
147 365 1
147 373 1
147 383 1
147 403 1
147 428 1
147 436 1
147 442 1
148 18 1
148 45 1
148 53 1
148 63 1
148 212 1
148 239 1
148 247 1
148 256 1
148 344 1
148 362 1
148 370 1
148 377 1
148 401 1
148 427 1
148 435 1
148 445 1
149 23 1
149 41 1
149 49 1
149 62 1
149 216 1
149 234 1
149 242 1
149 249 1
149 337 1
149 363 1
149 371 1
149 381 1
149 405 1
149 430 1
149 438 1
149 444 1
150 20 1
150 47 1
150 55 1
150 64 1
150 214 1
150 240 1
150 248 1
150 251 1
150 343 1
150 361 1
150 369 1
150 382 1
150 402 1
150 429 1
150 437 1
150 447 1
151 24 1
151 42 1
151 50 1
151 57 1
151 211 1
151 236 1
151 244 1
151 250 1
151 342 1
151 368 1
151 376 1
151 379 1
151 407 1
151 425 1
151 433 1
151 446 1
152 19 1
152 44 1
152 52 1
152 58 1
152 213 1
152 238 1
152 246 1
152 252 1
152 340 1
152 367 1
152 375 1
152 384 1
152 408 1
152 426 1
152 434 1
152 441 1
153 31 1
153 36 1
153 56 1
153 59 1
153 224 1
153 230 1
153 243 1
153 253 1
153 345 1
153 359 1
153 374 1
153 380 1
153 413 1
153 418 1
153 439 1
153 448 1
154 32 1
154 38 1
154 51 1
154 61 1
154 219 1
154 225 1
154 245 1
154 255 1
154 350 1
154 357 1
154 372 1
154 378 1
154 415 1
154 420 1
154 440 1
154 443 1
155 25 1
155 39 1
155 54 1
155 60 1
155 218 1
155 232 1
155 241 1
155 254 1
155 347 1
155 353 1
155 373 1
155 383 1
155 414 1
155 421 1
155 436 1
155 442 1
156 27 1
156 33 1
156 53 1
156 63 1
156 221 1
156 226 1
156 247 1
156 256 1
156 348 1
156 355 1
156 370 1
156 377 1
156 416 1
156 422 1
156 435 1
156 445 1
157 26 1
157 40 1
157 49 1
157 62 1
157 220 1
157 227 1
157 242 1
157 249 1
157 352 1
157 358 1
157 371 1
157 381 1
157 409 1
157 423 1
157 438 1
157 444 1
158 29 1
158 34 1
158 55 1
158 64 1
158 223 1
158 228 1
158 248 1
158 251 1
158 346 1
158 360 1
158 369 1
158 382 1
158 411 1
158 417 1
158 437 1
158 447 1
159 28 1
159 35 1
159 50 1
159 57 1
159 222 1
159 229 1
159 244 1
159 250 1
159 351 1
159 356 1
159 376 1
159 379 1
159 410 1
159 424 1
159 433 1
159 446 1
160 30 1
160 37 1
160 52 1
160 58 1
160 217 1
160 231 1
160 246 1
160 252 1
160 349 1
160 354 1
160 375 1
160 384 1
160 412 1
160 419 1
160 434 1
160 441 1
161 65 1
161 100 1
161 112 1
161 123 1
161 194 1
161 230 1
161 235 1
161 253 1
161 323 1
161 359 1
161 366 1
161 380 1
161 456 1
161 485 1
161 492 1
161 506 1
162 66 1
162 102 1
162 107 1
162 125 1
162 196 1
162 225 1
162 237 1
162 255 1
162 328 1
162 357 1
162 364 1
162 378 1
162 455 1
162 483 1
162 490 1
162 505 1
163 67 1
163 103 1
163 110 1
163 124 1
163 197 1
163 232 1
163 233 1
163 254 1
163 324 1
163 353 1
163 365 1
163 383 1
163 450 1
163 486 1
163 491 1
163 509 1
164 68 1
164 97 1
164 109 1
164 127 1
164 198 1
164 226 1
164 239 1
164 256 1
164 327 1
164 355 1
164 362 1
164 377 1
164 453 1
164 488 1
164 489 1
164 510 1
165 69 1
165 104 1
165 105 1
165 126 1
165 199 1
165 227 1
165 234 1
165 249 1
165 322 1
165 358 1
165 363 1
165 381 1
165 449 1
165 484 1
165 496 1
165 507 1
166 70 1
166 98 1
166 111 1
166 128 1
166 193 1
166 228 1
166 240 1
166 251 1
166 325 1
166 360 1
166 361 1
166 382 1
166 451 1
166 487 1
166 494 1
166 508 1
167 71 1
167 99 1
167 106 1
167 121 1
167 200 1
167 229 1
167 236 1
167 250 1
167 321 1
167 356 1
167 368 1
167 379 1
167 454 1
167 482 1
167 495 1
167 512 1
168 72 1
168 101 1
168 108 1
168 122 1
168 195 1
168 231 1
168 238 1
168 252 1
168 326 1
168 354 1
168 367 1
168 384 1
168 452 1
168 481 1
168 493 1
168 511 1
169 78 1
169 100 1
169 112 1
169 120 1
169 201 1
169 230 1
169 235 1
169 243 1
169 333 1
169 359 1
169 366 1
169 374 1
169 459 1
169 485 1
169 492 1
169 500 1
170 73 1
170 102 1
170 107 1
170 115 1
170 202 1
170 225 1
170 237 1
170 245 1
170 331 1
170 357 1
170 364 1
170 372 1
170 464 1
170 483 1
170 490 1
170 498 1
171 77 1
171 103 1
171 110 1
171 118 1
171 207 1
171 232 1
171 233 1
171 241 1
171 330 1
171 353 1
171 365 1
171 373 1
171 457 1
171 486 1
171 491 1
171 499 1
172 74 1
172 97 1
172 109 1
172 117 1
172 204 1
172 226 1
172 239 1
172 247 1
172 336 1
172 355 1
172 362 1
172 370 1
172 463 1
172 488 1
172 489 1
172 497 1
173 79 1
173 104 1
173 105 1
173 113 1
173 208 1
173 227 1
173 234 1
173 242 1
173 329 1
173 358 1
173 363 1
173 371 1
173 462 1
173 484 1
173 496 1
173 504 1
174 76 1
174 98 1
174 111 1
174 119 1
174 206 1
174 228 1
174 240 1
174 248 1
174 335 1
174 360 1
174 361 1
174 369 1
174 461 1
174 487 1
174 494 1
174 502 1
175 80 1
175 99 1
175 106 1
175 114 1
175 203 1
175 229 1
175 236 1
175 244 1
175 334 1
175 356 1
175 368 1
175 376 1
175 460 1
175 482 1
175 495 1
175 503 1
176 75 1
176 101 1
176 108 1
176 116 1
176 205 1
176 231 1
176 238 1
176 246 1
176 332 1
176 354 1
176 367 1
176 375 1
176 458 1
176 481 1
176 493 1
176 501 1
177 86 1
177 112 1
177 120 1
177 123 1
177 209 1
177 235 1
177 243 1
177 253 1
177 341 1
177 366 1
177 374 1
177 380 1
177 467 1
177 492 1
177 500 1
177 506 1
178 81 1
178 107 1
178 115 1
178 125 1
178 210 1
178 237 1
178 245 1
178 255 1
178 339 1
178 364 1
178 372 1
178 378 1
178 472 1
178 490 1
178 498 1
178 505 1
179 85 1
179 110 1
179 118 1
179 124 1
179 215 1
179 233 1
179 241 1
179 254 1
179 338 1
179 365 1
179 373 1
179 383 1
179 465 1
179 491 1
179 499 1
179 509 1
180 82 1
180 109 1
180 117 1
180 127 1
180 212 1
180 239 1
180 247 1
180 256 1
180 344 1
180 362 1
180 370 1
180 377 1
180 471 1
180 489 1
180 497 1
180 510 1
181 87 1
181 105 1
181 113 1
181 126 1
181 216 1
181 234 1
181 242 1
181 249 1
181 337 1
181 363 1
181 371 1
181 381 1
181 470 1
181 496 1
181 504 1
181 507 1
182 84 1
182 111 1
182 119 1
182 128 1
182 214 1
182 240 1
182 248 1
182 251 1
182 343 1
182 361 1
182 369 1
182 382 1
182 469 1
182 494 1
182 502 1
182 508 1
183 88 1
183 106 1
183 114 1
183 121 1
183 211 1
183 236 1
183 244 1
183 250 1
183 342 1
183 368 1
183 376 1
183 379 1
183 468 1
183 495 1
183 503 1
183 512 1
184 83 1
184 108 1
184 116 1
184 122 1
184 213 1
184 238 1
184 246 1
184 252 1
184 340 1
184 367 1
184 375 1
184 384 1
184 466 1
184 493 1
184 501 1
184 511 1
185 95 1
185 100 1
185 120 1
185 123 1
185 224 1
185 230 1
185 243 1
185 253 1
185 345 1
185 359 1
185 374 1
185 380 1
185 478 1
185 485 1
185 500 1
185 506 1
186 96 1
186 102 1
186 115 1
186 125 1
186 219 1
186 225 1
186 245 1
186 255 1
186 350 1
186 357 1
186 372 1
186 378 1
186 476 1
186 483 1
186 498 1
186 505 1
187 89 1
187 103 1
187 118 1
187 124 1
187 218 1
187 232 1
187 241 1
187 254 1
187 347 1
187 353 1
187 373 1
187 383 1
187 480 1
187 486 1
187 499 1
187 509 1
188 91 1
188 97 1
188 117 1
188 127 1
188 221 1
188 226 1
188 247 1
188 256 1
188 348 1
188 355 1
188 370 1
188 377 1
188 474 1
188 488 1
188 497 1
188 510 1
189 90 1
189 104 1
189 113 1
189 126 1
189 220 1
189 227 1
189 242 1
189 249 1
189 352 1
189 358 1
189 371 1
189 381 1
189 479 1
189 484 1
189 504 1
189 507 1
190 93 1
190 98 1
190 119 1
190 128 1
190 223 1
190 228 1
190 248 1
190 251 1
190 346 1
190 360 1
190 369 1
190 382 1
190 473 1
190 487 1
190 502 1
190 508 1
191 92 1
191 99 1
191 114 1
191 121 1
191 222 1
191 229 1
191 244 1
191 250 1
191 351 1
191 356 1
191 376 1
191 379 1
191 477 1
191 482 1
191 503 1
191 512 1
192 94 1
192 101 1
192 116 1
192 122 1
192 217 1
192 231 1
192 246 1
192 252 1
192 349 1
192 354 1
192 375 1
192 384 1
192 475 1
192 481 1
192 501 1
192 511 1
193 129 1
193 164 1
193 176 1
193 187 1
193 194 1
193 230 1
193 235 1
193 253 1
193 390 1
193 418 1
193 431 1
193 448 1
193 456 1
193 485 1
193 492 1
193 506 1
194 130 1
194 166 1
194 171 1
194 189 1
194 196 1
194 225 1
194 237 1
194 255 1
194 385 1
194 420 1
194 432 1
194 443 1
194 455 1
194 483 1
194 490 1
194 505 1
195 131 1
195 167 1
195 174 1
195 188 1
195 197 1
195 232 1
195 233 1
195 254 1
195 392 1
195 421 1
195 428 1
195 442 1
195 450 1
195 486 1
195 491 1
195 509 1
196 132 1
196 161 1
196 173 1
196 191 1
196 198 1
196 226 1
196 239 1
196 256 1
196 386 1
196 422 1
196 427 1
196 445 1
196 453 1
196 488 1
196 489 1
196 510 1
197 133 1
197 168 1
197 169 1
197 190 1
197 199 1
197 227 1
197 234 1
197 249 1
197 387 1
197 423 1
197 430 1
197 444 1
197 449 1
197 484 1
197 496 1
197 507 1
198 134 1
198 162 1
198 175 1
198 192 1
198 193 1
198 228 1
198 240 1
198 251 1
198 388 1
198 417 1
198 429 1
198 447 1
198 451 1
198 487 1
198 494 1
198 508 1
199 135 1
199 163 1
199 170 1
199 185 1
199 200 1
199 229 1
199 236 1
199 250 1
199 389 1
199 424 1
199 425 1
199 446 1
199 454 1
199 482 1
199 495 1
199 512 1
200 136 1
200 165 1
200 172 1
200 186 1
200 195 1
200 231 1
200 238 1
200 252 1
200 391 1
200 419 1
200 426 1
200 441 1
200 452 1
200 481 1
200 493 1
200 511 1
201 142 1
201 164 1
201 176 1
201 184 1
201 201 1
201 230 1
201 235 1
201 243 1
201 396 1
201 418 1
201 431 1
201 439 1
201 459 1
201 485 1
201 492 1
201 500 1
202 137 1
202 166 1
202 171 1
202 179 1
202 202 1
202 225 1
202 237 1
202 245 1
202 398 1
202 420 1
202 432 1
202 440 1
202 464 1
202 483 1
202 490 1
202 498 1
203 141 1
203 167 1
203 174 1
203 182 1
203 207 1
203 232 1
203 233 1
203 241 1
203 395 1
203 421 1
203 428 1
203 436 1
203 457 1
203 486 1
203 491 1
203 499 1
204 138 1
204 161 1
204 173 1
204 181 1
204 204 1
204 226 1
204 239 1
204 247 1
204 393 1
204 422 1
204 427 1
204 435 1
204 463 1
204 488 1
204 489 1
204 497 1
205 143 1
205 168 1
205 169 1
205 177 1
205 208 1
205 227 1
205 234 1
205 242 1
205 397 1
205 423 1
205 430 1
205 438 1
205 462 1
205 484 1
205 496 1
205 504 1
206 140 1
206 162 1
206 175 1
206 183 1
206 206 1
206 228 1
206 240 1
206 248 1
206 394 1
206 417 1
206 429 1
206 437 1
206 461 1
206 487 1
206 494 1
206 502 1
207 144 1
207 163 1
207 170 1
207 178 1
207 203 1
207 229 1
207 236 1
207 244 1
207 399 1
207 424 1
207 425 1
207 433 1
207 460 1
207 482 1
207 495 1
207 503 1
208 139 1
208 165 1
208 172 1
208 180 1
208 205 1
208 231 1
208 238 1
208 246 1
208 400 1
208 419 1
208 426 1
208 434 1
208 458 1
208 481 1
208 493 1
208 501 1
209 150 1
209 176 1
209 184 1
209 187 1
209 209 1
209 235 1
209 243 1
209 253 1
209 404 1
209 431 1
209 439 1
209 448 1
209 467 1
209 492 1
209 500 1
209 506 1
210 145 1
210 171 1
210 179 1
210 189 1
210 210 1
210 237 1
210 245 1
210 255 1
210 406 1
210 432 1
210 440 1
210 443 1
210 472 1
210 490 1
210 498 1
210 505 1
211 149 1
211 174 1
211 182 1
211 188 1
211 215 1
211 233 1
211 241 1
211 254 1
211 403 1
211 428 1
211 436 1
211 442 1
211 465 1
211 491 1
211 499 1
211 509 1
212 146 1
212 173 1
212 181 1
212 191 1
212 212 1
212 239 1
212 247 1
212 256 1
212 401 1
212 427 1
212 435 1
212 445 1
212 471 1
212 489 1
212 497 1
212 510 1
213 151 1
213 169 1
213 177 1
213 190 1
213 216 1
213 234 1
213 242 1
213 249 1
213 405 1
213 430 1
213 438 1
213 444 1
213 470 1
213 496 1
213 504 1
213 507 1
214 148 1
214 175 1
214 183 1
214 192 1
214 214 1
214 240 1
214 248 1
214 251 1
214 402 1
214 429 1
214 437 1
214 447 1
214 469 1
214 494 1
214 502 1
214 508 1
215 152 1
215 170 1
215 178 1
215 185 1
215 211 1
215 236 1
215 244 1
215 250 1
215 407 1
215 425 1
215 433 1
215 446 1
215 468 1
215 495 1
215 503 1
215 512 1
216 147 1
216 172 1
216 180 1
216 186 1
216 213 1
216 238 1
216 246 1
216 252 1
216 408 1
216 426 1
216 434 1
216 441 1
216 466 1
216 493 1
216 501 1
216 511 1
217 159 1
217 164 1
217 184 1
217 187 1
217 224 1
217 230 1
217 243 1
217 253 1
217 413 1
217 418 1
217 439 1
217 448 1
217 478 1
217 485 1
217 500 1
217 506 1
218 160 1
218 166 1
218 179 1
218 189 1
218 219 1
218 225 1
218 245 1
218 255 1
218 415 1
218 420 1
218 440 1
218 443 1
218 476 1
218 483 1
218 498 1
218 505 1
219 153 1
219 167 1
219 182 1
219 188 1
219 218 1
219 232 1
219 241 1
219 254 1
219 414 1
219 421 1
219 436 1
219 442 1
219 480 1
219 486 1
219 499 1
219 509 1
220 155 1
220 161 1
220 181 1
220 191 1
220 221 1
220 226 1
220 247 1
220 256 1
220 416 1
220 422 1
220 435 1
220 445 1
220 474 1
220 488 1
220 497 1
220 510 1
221 154 1
221 168 1
221 177 1
221 190 1
221 220 1
221 227 1
221 242 1
221 249 1
221 409 1
221 423 1
221 438 1
221 444 1
221 479 1
221 484 1
221 504 1
221 507 1
222 157 1
222 162 1
222 183 1
222 192 1
222 223 1
222 228 1
222 248 1
222 251 1
222 411 1
222 417 1
222 437 1
222 447 1
222 473 1
222 487 1
222 502 1
222 508 1
223 156 1
223 163 1
223 178 1
223 185 1
223 222 1
223 229 1
223 244 1
223 250 1
223 410 1
223 424 1
223 433 1
223 446 1
223 477 1
223 482 1
223 503 1
223 512 1
224 158 1
224 165 1
224 180 1
224 186 1
224 217 1
224 231 1
224 246 1
224 252 1
224 412 1
224 419 1
224 434 1
224 441 1
224 475 1
224 481 1
224 501 1
224 511 1
225 259 1
225 295 1
225 302 1
225 316 1
225 323 1
225 359 1
225 366 1
225 380 1
225 390 1
225 418 1
225 431 1
225 448 1
225 456 1
225 485 1
225 492 1
225 506 1
226 264 1
226 293 1
226 300 1
226 314 1
226 328 1
226 357 1
226 364 1
226 378 1
226 385 1
226 420 1
226 432 1
226 443 1
226 455 1
226 483 1
226 490 1
226 505 1
227 260 1
227 289 1
227 301 1
227 319 1
227 324 1
227 353 1
227 365 1
227 383 1
227 392 1
227 421 1
227 428 1
227 442 1
227 450 1
227 486 1
227 491 1
227 509 1
228 263 1
228 291 1
228 298 1
228 313 1
228 327 1
228 355 1
228 362 1
228 377 1
228 386 1
228 422 1
228 427 1
228 445 1
228 453 1
228 488 1
228 489 1
228 510 1
229 258 1
229 294 1
229 299 1
229 317 1
229 322 1
229 358 1
229 363 1
229 381 1
229 387 1
229 423 1
229 430 1
229 444 1
229 449 1
229 484 1
229 496 1
229 507 1
230 261 1
230 296 1
230 297 1
230 318 1
230 325 1
230 360 1
230 361 1
230 382 1
230 388 1
230 417 1
230 429 1
230 447 1
230 451 1
230 487 1
230 494 1
230 508 1
231 257 1
231 292 1
231 304 1
231 315 1
231 321 1
231 356 1
231 368 1
231 379 1
231 389 1
231 424 1
231 425 1
231 446 1
231 454 1
231 482 1
231 495 1
231 512 1
232 262 1
232 290 1
232 303 1
232 320 1
232 326 1
232 354 1
232 367 1
232 384 1
232 391 1
232 419 1
232 426 1
232 441 1
232 452 1
232 481 1
232 493 1
232 511 1
233 269 1
233 295 1
233 302 1
233 310 1
233 333 1
233 359 1
233 366 1
233 374 1
233 396 1
233 418 1
233 431 1
233 439 1
233 459 1
233 485 1
233 492 1
233 500 1
234 267 1
234 293 1
234 300 1
234 308 1
234 331 1
234 357 1
234 364 1
234 372 1
234 398 1
234 420 1
234 432 1
234 440 1
234 464 1
234 483 1
234 490 1
234 498 1
235 266 1
235 289 1
235 301 1
235 309 1
235 330 1
235 353 1
235 365 1
235 373 1
235 395 1
235 421 1
235 428 1
235 436 1
235 457 1
235 486 1
235 491 1
235 499 1
236 272 1
236 291 1
236 298 1
236 306 1
236 336 1
236 355 1
236 362 1
236 370 1
236 393 1
236 422 1
236 427 1
236 435 1
236 463 1
236 488 1
236 489 1
236 497 1
237 265 1
237 294 1
237 299 1
237 307 1
237 329 1
237 358 1
237 363 1
237 371 1
237 397 1
237 423 1
237 430 1
237 438 1
237 462 1
237 484 1
237 496 1
237 504 1
238 271 1
238 296 1
238 297 1
238 305 1
238 335 1
238 360 1
238 361 1
238 369 1
238 394 1
238 417 1
238 429 1
238 437 1
238 461 1
238 487 1
238 494 1
238 502 1
239 270 1
239 292 1
239 304 1
239 312 1
239 334 1
239 356 1
239 368 1
239 376 1
239 399 1
239 424 1
239 425 1
239 433 1
239 460 1
239 482 1
239 495 1
239 503 1
240 268 1
240 290 1
240 303 1
240 311 1
240 332 1
240 354 1
240 367 1
240 375 1
240 400 1
240 419 1
240 426 1
240 434 1
240 458 1
240 481 1
240 493 1
240 501 1
241 277 1
241 302 1
241 310 1
241 316 1
241 341 1
241 366 1
241 374 1
241 380 1
241 404 1
241 431 1
241 439 1
241 448 1
241 467 1
241 492 1
241 500 1
241 506 1
242 275 1
242 300 1
242 308 1
242 314 1
242 339 1
242 364 1
242 372 1
242 378 1
242 406 1
242 432 1
242 440 1
242 443 1
242 472 1
242 490 1
242 498 1
242 505 1
243 274 1
243 301 1
243 309 1
243 319 1
243 338 1
243 365 1
243 373 1
243 383 1
243 403 1
243 428 1
243 436 1
243 442 1
243 465 1
243 491 1
243 499 1
243 509 1
244 280 1
244 298 1
244 306 1
244 313 1
244 344 1
244 362 1
244 370 1
244 377 1
244 401 1
244 427 1
244 435 1
244 445 1
244 471 1
244 489 1
244 497 1
244 510 1
245 273 1
245 299 1
245 307 1
245 317 1
245 337 1
245 363 1
245 371 1
245 381 1
245 405 1
245 430 1
245 438 1
245 444 1
245 470 1
245 496 1
245 504 1
245 507 1
246 279 1
246 297 1
246 305 1
246 318 1
246 343 1
246 361 1
246 369 1
246 382 1
246 402 1
246 429 1
246 437 1
246 447 1
246 469 1
246 494 1
246 502 1
246 508 1
247 278 1
247 304 1
247 312 1
247 315 1
247 342 1
247 368 1
247 376 1
247 379 1
247 407 1
247 425 1
247 433 1
247 446 1
247 468 1
247 495 1
247 503 1
247 512 1
248 276 1
248 303 1
248 311 1
248 320 1
248 340 1
248 367 1
248 375 1
248 384 1
248 408 1
248 426 1
248 434 1
248 441 1
248 466 1
248 493 1
248 501 1
248 511 1
249 281 1
249 295 1
249 310 1
249 316 1
249 345 1
249 359 1
249 374 1
249 380 1
249 413 1
249 418 1
249 439 1
249 448 1
249 478 1
249 485 1
249 500 1
249 506 1
250 286 1
250 293 1
250 308 1
250 314 1
250 350 1
250 357 1
250 372 1
250 378 1
250 415 1
250 420 1
250 440 1
250 443 1
250 476 1
250 483 1
250 498 1
250 505 1
251 283 1
251 289 1
251 309 1
251 319 1
251 347 1
251 353 1
251 373 1
251 383 1
251 414 1
251 421 1
251 436 1
251 442 1
251 480 1
251 486 1
251 499 1
251 509 1
252 284 1
252 291 1
252 306 1
252 313 1
252 348 1
252 355 1
252 370 1
252 377 1
252 416 1
252 422 1
252 435 1
252 445 1
252 474 1
252 488 1
252 497 1
252 510 1
253 288 1
253 294 1
253 307 1
253 317 1
253 352 1
253 358 1
253 371 1
253 381 1
253 409 1
253 423 1
253 438 1
253 444 1
253 479 1
253 484 1
253 504 1
253 507 1
254 282 1
254 296 1
254 305 1
254 318 1
254 346 1
254 360 1
254 369 1
254 382 1
254 411 1
254 417 1
254 437 1
254 447 1
254 473 1
254 487 1
254 502 1
254 508 1
255 287 1
255 292 1
255 312 1
255 315 1
255 351 1
255 356 1
255 376 1
255 379 1
255 410 1
255 424 1
255 433 1
255 446 1
255 477 1
255 482 1
255 503 1
255 512 1
256 285 1
256 290 1
256 311 1
256 320 1
256 349 1
256 354 1
256 375 1
256 384 1
256 412 1
256 419 1
256 434 1
256 441 1
256 475 1
256 481 1
256 501 1
256 511 1
