%%MatrixMarket matrix coordinate integer general
306 612 2754
1 1 1
1 42 1
1 72 1
1 307 1
1 348 1
1 378 1
1 409 1
1 450 1
1 480 1
2 2 1
2 43 1
2 73 1
2 308 1
2 349 1
2 379 1
2 410 1
2 451 1
2 481 1
3 3 1
3 44 1
3 74 1
3 309 1
3 350 1
3 380 1
3 411 1
3 452 1
3 482 1
4 4 1
4 45 1
4 75 1
4 310 1
4 351 1
4 381 1
4 412 1
4 453 1
4 483 1
5 5 1
5 46 1
5 76 1
5 311 1
5 352 1
5 382 1
5 413 1
5 454 1
5 484 1
6 6 1
6 47 1
6 77 1
6 312 1
6 353 1
6 383 1
6 414 1
6 455 1
6 485 1
7 7 1
7 48 1
7 78 1
7 313 1
7 354 1
7 384 1
7 415 1
7 456 1
7 486 1
8 8 1
8 49 1
8 79 1
8 314 1
8 355 1
8 385 1
8 416 1
8 457 1
8 487 1
9 9 1
9 50 1
9 80 1
9 315 1
9 356 1
9 386 1
9 417 1
9 458 1
9 488 1
10 10 1
10 51 1
10 81 1
10 316 1
10 357 1
10 387 1
10 418 1
10 459 1
10 489 1
11 11 1
11 35 1
11 82 1
11 317 1
11 341 1
11 388 1
11 419 1
11 443 1
11 490 1
12 12 1
12 36 1
12 83 1
12 318 1
12 342 1
12 389 1
12 420 1
12 444 1
12 491 1
13 13 1
13 37 1
13 84 1
13 319 1
13 343 1
13 390 1
13 421 1
13 445 1
13 492 1
14 14 1
14 38 1
14 85 1
14 320 1
14 344 1
14 391 1
14 422 1
14 446 1
14 493 1
15 15 1
15 39 1
15 69 1
15 321 1
15 345 1
15 375 1
15 423 1
15 447 1
15 477 1
16 16 1
16 40 1
16 70 1
16 322 1
16 346 1
16 376 1
16 424 1
16 448 1
16 478 1
17 17 1
17 41 1
17 71 1
17 323 1
17 347 1
17 377 1
17 425 1
17 449 1
17 479 1
18 1 1
18 57 1
18 88 1
18 307 1
18 363 1
18 394 1
18 409 1
18 465 1
18 496 1
19 2 1
19 58 1
19 89 1
19 308 1
19 364 1
19 395 1
19 410 1
19 466 1
19 497 1
20 3 1
20 59 1
20 90 1
20 309 1
20 365 1
20 396 1
20 411 1
20 467 1
20 498 1
21 4 1
21 60 1
21 91 1
21 310 1
21 366 1
21 397 1
21 412 1
21 468 1
21 499 1
22 5 1
22 61 1
22 92 1
22 311 1
22 367 1
22 398 1
22 413 1
22 469 1
22 500 1
23 6 1
23 62 1
23 93 1
23 312 1
23 368 1
23 399 1
23 414 1
23 470 1
23 501 1
24 7 1
24 63 1
24 94 1
24 313 1
24 369 1
24 400 1
24 415 1
24 471 1
24 502 1
25 8 1
25 64 1
25 95 1
25 314 1
25 370 1
25 401 1
25 416 1
25 472 1
25 503 1
26 9 1
26 65 1
26 96 1
26 315 1
26 371 1
26 402 1
26 417 1
26 473 1
26 504 1
27 10 1
27 66 1
27 97 1
27 316 1
27 372 1
27 403 1
27 418 1
27 474 1
27 505 1
28 11 1
28 67 1
28 98 1
28 317 1
28 373 1
28 404 1
28 419 1
28 475 1
28 506 1
29 12 1
29 68 1
29 99 1
29 318 1
29 374 1
29 405 1
29 420 1
29 476 1
29 507 1
30 13 1
30 52 1
30 100 1
30 319 1
30 358 1
30 406 1
30 421 1
30 460 1
30 508 1
31 14 1
31 53 1
31 101 1
31 320 1
31 359 1
31 407 1
31 422 1
31 461 1
31 509 1
32 15 1
32 54 1
32 102 1
32 321 1
32 360 1
32 408 1
32 423 1
32 462 1
32 510 1
33 16 1
33 55 1
33 86 1
33 322 1
33 361 1
33 392 1
33 424 1
33 463 1
33 494 1
34 17 1
34 56 1
34 87 1
34 323 1
34 362 1
34 393 1
34 425 1
34 464 1
34 495 1
35 33 1
35 42 1
35 57 1
35 339 1
35 348 1
35 363 1
35 441 1
35 450 1
35 465 1
36 34 1
36 43 1
36 58 1
36 340 1
36 349 1
36 364 1
36 442 1
36 451 1
36 466 1
37 18 1
37 44 1
37 59 1
37 324 1
37 350 1
37 365 1
37 426 1
37 452 1
37 467 1
38 19 1
38 45 1
38 60 1
38 325 1
38 351 1
38 366 1
38 427 1
38 453 1
38 468 1
39 20 1
39 46 1
39 61 1
39 326 1
39 352 1
39 367 1
39 428 1
39 454 1
39 469 1
40 21 1
40 47 1
40 62 1
40 327 1
40 353 1
40 368 1
40 429 1
40 455 1
40 470 1
41 22 1
41 48 1
41 63 1
41 328 1
41 354 1
41 369 1
41 430 1
41 456 1
41 471 1
42 23 1
42 49 1
42 64 1
42 329 1
42 355 1
42 370 1
42 431 1
42 457 1
42 472 1
43 24 1
43 50 1
43 65 1
43 330 1
43 356 1
43 371 1
43 432 1
43 458 1
43 473 1
44 25 1
44 51 1
44 66 1
44 331 1
44 357 1
44 372 1
44 433 1
44 459 1
44 474 1
45 26 1
45 35 1
45 67 1
45 332 1
45 341 1
45 373 1
45 434 1
45 443 1
45 475 1
46 27 1
46 36 1
46 68 1
46 333 1
46 342 1
46 374 1
46 435 1
46 444 1
46 476 1
47 28 1
47 37 1
47 52 1
47 334 1
47 343 1
47 358 1
47 436 1
47 445 1
47 460 1
48 29 1
48 38 1
48 53 1
48 335 1
48 344 1
48 359 1
48 437 1
48 446 1
48 461 1
49 30 1
49 39 1
49 54 1
49 336 1
49 345 1
49 360 1
49 438 1
49 447 1
49 462 1
50 31 1
50 40 1
50 55 1
50 337 1
50 346 1
50 361 1
50 439 1
50 448 1
50 463 1
51 32 1
51 41 1
51 56 1
51 338 1
51 347 1
51 362 1
51 440 1
51 449 1
51 464 1
52 103 1
52 144 1
52 174 1
52 307 1
52 348 1
52 378 1
52 511 1
52 552 1
52 582 1
53 104 1
53 145 1
53 175 1
53 308 1
53 349 1
53 379 1
53 512 1
53 553 1
53 583 1
54 105 1
54 146 1
54 176 1
54 309 1
54 350 1
54 380 1
54 513 1
54 554 1
54 584 1
55 106 1
55 147 1
55 177 1
55 310 1
55 351 1
55 381 1
55 514 1
55 555 1
55 585 1
56 107 1
56 148 1
56 178 1
56 311 1
56 352 1
56 382 1
56 515 1
56 556 1
56 586 1
57 108 1
57 149 1
57 179 1
57 312 1
57 353 1
57 383 1
57 516 1
57 557 1
57 587 1
58 109 1
58 150 1
58 180 1
58 313 1
58 354 1
58 384 1
58 517 1
58 558 1
58 588 1
59 110 1
59 151 1
59 181 1
59 314 1
59 355 1
59 385 1
59 518 1
59 559 1
59 589 1
60 111 1
60 152 1
60 182 1
60 315 1
60 356 1
60 386 1
60 519 1
60 560 1
60 590 1
61 112 1
61 153 1
61 183 1
61 316 1
61 357 1
61 387 1
61 520 1
61 561 1
61 591 1
62 113 1
62 137 1
62 184 1
62 317 1
62 341 1
62 388 1
62 521 1
62 545 1
62 592 1
63 114 1
63 138 1
63 185 1
63 318 1
63 342 1
63 389 1
63 522 1
63 546 1
63 593 1
64 115 1
64 139 1
64 186 1
64 319 1
64 343 1
64 390 1
64 523 1
64 547 1
64 594 1
65 116 1
65 140 1
65 187 1
65 320 1
65 344 1
65 391 1
65 524 1
65 548 1
65 595 1
66 117 1
66 141 1
66 171 1
66 321 1
66 345 1
66 375 1
66 525 1
66 549 1
66 579 1
67 118 1
67 142 1
67 172 1
67 322 1
67 346 1
67 376 1
67 526 1
67 550 1
67 580 1
68 119 1
68 143 1
68 173 1
68 323 1
68 347 1
68 377 1
68 527 1
68 551 1
68 581 1
69 103 1
69 159 1
69 190 1
69 307 1
69 363 1
69 394 1
69 511 1
69 567 1
69 598 1
70 104 1
70 160 1
70 191 1
70 308 1
70 364 1
70 395 1
70 512 1
70 568 1
70 599 1
71 105 1
71 161 1
71 192 1
71 309 1
71 365 1
71 396 1
71 513 1
71 569 1
71 600 1
72 106 1
72 162 1
72 193 1
72 310 1
72 366 1
72 397 1
72 514 1
72 570 1
72 601 1
73 107 1
73 163 1
73 194 1
73 311 1
73 367 1
73 398 1
73 515 1
73 571 1
73 602 1
74 108 1
74 164 1
74 195 1
74 312 1
74 368 1
74 399 1
74 516 1
74 572 1
74 603 1
75 109 1
75 165 1
75 196 1
75 313 1
75 369 1
75 400 1
75 517 1
75 573 1
75 604 1
76 110 1
76 166 1
76 197 1
76 314 1
76 370 1
76 401 1
76 518 1
76 574 1
76 605 1
77 111 1
77 167 1
77 198 1
77 315 1
77 371 1
77 402 1
77 519 1
77 575 1
77 606 1
78 112 1
78 168 1
78 199 1
78 316 1
78 372 1
78 403 1
78 520 1
78 576 1
78 607 1
79 113 1
79 169 1
79 200 1
79 317 1
79 373 1
79 404 1
79 521 1
79 577 1
79 608 1
80 114 1
80 170 1
80 201 1
80 318 1
80 374 1
80 405 1
80 522 1
80 578 1
80 609 1
81 115 1
81 154 1
81 202 1
81 319 1
81 358 1
81 406 1
81 523 1
81 562 1
81 610 1
82 116 1
82 155 1
82 203 1
82 320 1
82 359 1
82 407 1
82 524 1
82 563 1
82 611 1
83 117 1
83 156 1
83 204 1
83 321 1
83 360 1
83 408 1
83 525 1
83 564 1
83 612 1
84 118 1
84 157 1
84 188 1
84 322 1
84 361 1
84 392 1
84 526 1
84 565 1
84 596 1
85 119 1
85 158 1
85 189 1
85 323 1
85 362 1
85 393 1
85 527 1
85 566 1
85 597 1
86 135 1
86 144 1
86 159 1
86 339 1
86 348 1
86 363 1
86 543 1
86 552 1
86 567 1
87 136 1
87 145 1
87 160 1
87 340 1
87 349 1
87 364 1
87 544 1
87 553 1
87 568 1
88 120 1
88 146 1
88 161 1
88 324 1
88 350 1
88 365 1
88 528 1
88 554 1
88 569 1
89 121 1
89 147 1
89 162 1
89 325 1
89 351 1
89 366 1
89 529 1
89 555 1
89 570 1
90 122 1
90 148 1
90 163 1
90 326 1
90 352 1
90 367 1
90 530 1
90 556 1
90 571 1
91 123 1
91 149 1
91 164 1
91 327 1
91 353 1
91 368 1
91 531 1
91 557 1
91 572 1
92 124 1
92 150 1
92 165 1
92 328 1
92 354 1
92 369 1
92 532 1
92 558 1
92 573 1
93 125 1
93 151 1
93 166 1
93 329 1
93 355 1
93 370 1
93 533 1
93 559 1
93 574 1
94 126 1
94 152 1
94 167 1
94 330 1
94 356 1
94 371 1
94 534 1
94 560 1
94 575 1
95 127 1
95 153 1
95 168 1
95 331 1
95 357 1
95 372 1
95 535 1
95 561 1
95 576 1
96 128 1
96 137 1
96 169 1
96 332 1
96 341 1
96 373 1
96 536 1
96 545 1
96 577 1
97 129 1
97 138 1
97 170 1
97 333 1
97 342 1
97 374 1
97 537 1
97 546 1
97 578 1
98 130 1
98 139 1
98 154 1
98 334 1
98 343 1
98 358 1
98 538 1
98 547 1
98 562 1
99 131 1
99 140 1
99 155 1
99 335 1
99 344 1
99 359 1
99 539 1
99 548 1
99 563 1
100 132 1
100 141 1
100 156 1
100 336 1
100 345 1
100 360 1
100 540 1
100 549 1
100 564 1
101 133 1
101 142 1
101 157 1
101 337 1
101 346 1
101 361 1
101 541 1
101 550 1
101 565 1
102 134 1
102 143 1
102 158 1
102 338 1
102 347 1
102 362 1
102 542 1
102 551 1
102 566 1
103 205 1
103 246 1
103 276 1
103 409 1
103 450 1
103 480 1
103 511 1
103 552 1
103 582 1
104 206 1
104 247 1
104 277 1
104 410 1
104 451 1
104 481 1
104 512 1
104 553 1
104 583 1
105 207 1
105 248 1
105 278 1
105 411 1
105 452 1
105 482 1
105 513 1
105 554 1
105 584 1
106 208 1
106 249 1
106 279 1
106 412 1
106 453 1
106 483 1
106 514 1
106 555 1
106 585 1
107 209 1
107 250 1
107 280 1
107 413 1
107 454 1
107 484 1
107 515 1
107 556 1
107 586 1
108 210 1
108 251 1
108 281 1
108 414 1
108 455 1
108 485 1
108 516 1
108 557 1
108 587 1
109 211 1
109 252 1
109 282 1
109 415 1
109 456 1
109 486 1
109 517 1
109 558 1
109 588 1
110 212 1
110 253 1
110 283 1
110 416 1
110 457 1
110 487 1
110 518 1
110 559 1
110 589 1
111 213 1
111 254 1
111 284 1
111 417 1
111 458 1
111 488 1
111 519 1
111 560 1
111 590 1
112 214 1
112 255 1
112 285 1
112 418 1
112 459 1
112 489 1
112 520 1
112 561 1
112 591 1
113 215 1
113 239 1
113 286 1
113 419 1
113 443 1
113 490 1
113 521 1
113 545 1
113 592 1
114 216 1
114 240 1
114 287 1
114 420 1
114 444 1
114 491 1
114 522 1
114 546 1
114 593 1
115 217 1
115 241 1
115 288 1
115 421 1
115 445 1
115 492 1
115 523 1
115 547 1
115 594 1
116 218 1
116 242 1
116 289 1
116 422 1
116 446 1
116 493 1
116 524 1
116 548 1
116 595 1
117 219 1
117 243 1
117 273 1
117 423 1
117 447 1
117 477 1
117 525 1
117 549 1
117 579 1
118 220 1
118 244 1
118 274 1
118 424 1
118 448 1
118 478 1
118 526 1
118 550 1
118 580 1
119 221 1
119 245 1
119 275 1
119 425 1
119 449 1
119 479 1
119 527 1
119 551 1
119 581 1
120 205 1
120 261 1
120 292 1
120 409 1
120 465 1
120 496 1
120 511 1
120 567 1
120 598 1
121 206 1
121 262 1
121 293 1
121 410 1
121 466 1
121 497 1
121 512 1
121 568 1
121 599 1
122 207 1
122 263 1
122 294 1
122 411 1
122 467 1
122 498 1
122 513 1
122 569 1
122 600 1
123 208 1
123 264 1
123 295 1
123 412 1
123 468 1
123 499 1
123 514 1
123 570 1
123 601 1
124 209 1
124 265 1
124 296 1
124 413 1
124 469 1
124 500 1
124 515 1
124 571 1
124 602 1
125 210 1
125 266 1
125 297 1
125 414 1
125 470 1
125 501 1
125 516 1
125 572 1
125 603 1
126 211 1
126 267 1
126 298 1
126 415 1
126 471 1
126 502 1
126 517 1
126 573 1
126 604 1
127 212 1
127 268 1
127 299 1
127 416 1
127 472 1
127 503 1
127 518 1
127 574 1
127 605 1
128 213 1
128 269 1
128 300 1
128 417 1
128 473 1
128 504 1
128 519 1
128 575 1
128 606 1
129 214 1
129 270 1
129 301 1
129 418 1
129 474 1
129 505 1
129 520 1
129 576 1
129 607 1
130 215 1
130 271 1
130 302 1
130 419 1
130 475 1
130 506 1
130 521 1
130 577 1
130 608 1
131 216 1
131 272 1
131 303 1
131 420 1
131 476 1
131 507 1
131 522 1
131 578 1
131 609 1
132 217 1
132 256 1
132 304 1
132 421 1
132 460 1
132 508 1
132 523 1
132 562 1
132 610 1
133 218 1
133 257 1
133 305 1
133 422 1
133 461 1
133 509 1
133 524 1
133 563 1
133 611 1
134 219 1
134 258 1
134 306 1
134 423 1
134 462 1
134 510 1
134 525 1
134 564 1
134 612 1
135 220 1
135 259 1
135 290 1
135 424 1
135 463 1
135 494 1
135 526 1
135 565 1
135 596 1
136 221 1
136 260 1
136 291 1
136 425 1
136 464 1
136 495 1
136 527 1
136 566 1
136 597 1
137 237 1
137 246 1
137 261 1
137 441 1
137 450 1
137 465 1
137 543 1
137 552 1
137 567 1
138 238 1
138 247 1
138 262 1
138 442 1
138 451 1
138 466 1
138 544 1
138 553 1
138 568 1
139 222 1
139 248 1
139 263 1
139 426 1
139 452 1
139 467 1
139 528 1
139 554 1
139 569 1
140 223 1
140 249 1
140 264 1
140 427 1
140 453 1
140 468 1
140 529 1
140 555 1
140 570 1
141 224 1
141 250 1
141 265 1
141 428 1
141 454 1
141 469 1
141 530 1
141 556 1
141 571 1
142 225 1
142 251 1
142 266 1
142 429 1
142 455 1
142 470 1
142 531 1
142 557 1
142 572 1
143 226 1
143 252 1
143 267 1
143 430 1
143 456 1
143 471 1
143 532 1
143 558 1
143 573 1
144 227 1
144 253 1
144 268 1
144 431 1
144 457 1
144 472 1
144 533 1
144 559 1
144 574 1
145 228 1
145 254 1
145 269 1
145 432 1
145 458 1
145 473 1
145 534 1
145 560 1
145 575 1
146 229 1
146 255 1
146 270 1
146 433 1
146 459 1
146 474 1
146 535 1
146 561 1
146 576 1
147 230 1
147 239 1
147 271 1
147 434 1
147 443 1
147 475 1
147 536 1
147 545 1
147 577 1
148 231 1
148 240 1
148 272 1
148 435 1
148 444 1
148 476 1
148 537 1
148 546 1
148 578 1
149 232 1
149 241 1
149 256 1
149 436 1
149 445 1
149 460 1
149 538 1
149 547 1
149 562 1
150 233 1
150 242 1
150 257 1
150 437 1
150 446 1
150 461 1
150 539 1
150 548 1
150 563 1
151 234 1
151 243 1
151 258 1
151 438 1
151 447 1
151 462 1
151 540 1
151 549 1
151 564 1
152 235 1
152 244 1
152 259 1
152 439 1
152 448 1
152 463 1
152 541 1
152 550 1
152 565 1
153 236 1
153 245 1
153 260 1
153 440 1
153 449 1
153 464 1
153 542 1
153 551 1
153 566 1
154 1 1
154 18 1
154 52 1
154 206 1
154 223 1
154 257 1
154 419 1
154 436 1
154 470 1
155 2 1
155 19 1
155 53 1
155 207 1
155 224 1
155 258 1
155 420 1
155 437 1
155 471 1
156 3 1
156 20 1
156 54 1
156 208 1
156 225 1
156 259 1
156 421 1
156 438 1
156 472 1
157 4 1
157 21 1
157 55 1
157 209 1
157 226 1
157 260 1
157 422 1
157 439 1
157 473 1
158 5 1
158 22 1
158 56 1
158 210 1
158 227 1
158 261 1
158 423 1
158 440 1
158 474 1
159 6 1
159 23 1
159 57 1
159 211 1
159 228 1
159 262 1
159 424 1
159 441 1
159 475 1
160 7 1
160 24 1
160 58 1
160 212 1
160 229 1
160 263 1
160 425 1
160 442 1
160 476 1
161 8 1
161 25 1
161 59 1
161 213 1
161 230 1
161 264 1
161 409 1
161 426 1
161 460 1
162 9 1
162 26 1
162 60 1
162 214 1
162 231 1
162 265 1
162 410 1
162 427 1
162 461 1
163 10 1
163 27 1
163 61 1
163 215 1
163 232 1
163 266 1
163 411 1
163 428 1
163 462 1
164 11 1
164 28 1
164 62 1
164 216 1
164 233 1
164 267 1
164 412 1
164 429 1
164 463 1
165 12 1
165 29 1
165 63 1
165 217 1
165 234 1
165 268 1
165 413 1
165 430 1
165 464 1
166 13 1
166 30 1
166 64 1
166 218 1
166 235 1
166 269 1
166 414 1
166 431 1
166 465 1
167 14 1
167 31 1
167 65 1
167 219 1
167 236 1
167 270 1
167 415 1
167 432 1
167 466 1
168 15 1
168 32 1
168 66 1
168 220 1
168 237 1
168 271 1
168 416 1
168 433 1
168 467 1
169 16 1
169 33 1
169 67 1
169 221 1
169 238 1
169 272 1
169 417 1
169 434 1
169 468 1
170 17 1
170 34 1
170 68 1
170 205 1
170 222 1
170 256 1
170 418 1
170 435 1
170 469 1
171 1 1
171 35 1
171 69 1
171 206 1
171 240 1
171 274 1
171 419 1
171 453 1
171 487 1
172 2 1
172 36 1
172 70 1
172 207 1
172 241 1
172 275 1
172 420 1
172 454 1
172 488 1
173 3 1
173 37 1
173 71 1
173 208 1
173 242 1
173 276 1
173 421 1
173 455 1
173 489 1
174 4 1
174 38 1
174 72 1
174 209 1
174 243 1
174 277 1
174 422 1
174 456 1
174 490 1
175 5 1
175 39 1
175 73 1
175 210 1
175 244 1
175 278 1
175 423 1
175 457 1
175 491 1
176 6 1
176 40 1
176 74 1
176 211 1
176 245 1
176 279 1
176 424 1
176 458 1
176 492 1
177 7 1
177 41 1
177 75 1
177 212 1
177 246 1
177 280 1
177 425 1
177 459 1
177 493 1
178 8 1
178 42 1
178 76 1
178 213 1
178 247 1
178 281 1
178 409 1
178 443 1
178 477 1
179 9 1
179 43 1
179 77 1
179 214 1
179 248 1
179 282 1
179 410 1
179 444 1
179 478 1
180 10 1
180 44 1
180 78 1
180 215 1
180 249 1
180 283 1
180 411 1
180 445 1
180 479 1
181 11 1
181 45 1
181 79 1
181 216 1
181 250 1
181 284 1
181 412 1
181 446 1
181 480 1
182 12 1
182 46 1
182 80 1
182 217 1
182 251 1
182 285 1
182 413 1
182 447 1
182 481 1
183 13 1
183 47 1
183 81 1
183 218 1
183 252 1
183 286 1
183 414 1
183 448 1
183 482 1
184 14 1
184 48 1
184 82 1
184 219 1
184 253 1
184 287 1
184 415 1
184 449 1
184 483 1
185 15 1
185 49 1
185 83 1
185 220 1
185 254 1
185 288 1
185 416 1
185 450 1
185 484 1
186 16 1
186 50 1
186 84 1
186 221 1
186 255 1
186 289 1
186 417 1
186 451 1
186 485 1
187 17 1
187 51 1
187 85 1
187 205 1
187 239 1
187 273 1
187 418 1
187 452 1
187 486 1
188 18 1
188 35 1
188 86 1
188 223 1
188 240 1
188 291 1
188 436 1
188 453 1
188 504 1
189 19 1
189 36 1
189 87 1
189 224 1
189 241 1
189 292 1
189 437 1
189 454 1
189 505 1
190 20 1
190 37 1
190 88 1
190 225 1
190 242 1
190 293 1
190 438 1
190 455 1
190 506 1
191 21 1
191 38 1
191 89 1
191 226 1
191 243 1
191 294 1
191 439 1
191 456 1
191 507 1
192 22 1
192 39 1
192 90 1
192 227 1
192 244 1
192 295 1
192 440 1
192 457 1
192 508 1
193 23 1
193 40 1
193 91 1
193 228 1
193 245 1
193 296 1
193 441 1
193 458 1
193 509 1
194 24 1
194 41 1
194 92 1
194 229 1
194 246 1
194 297 1
194 442 1
194 459 1
194 510 1
195 25 1
195 42 1
195 93 1
195 230 1
195 247 1
195 298 1
195 426 1
195 443 1
195 494 1
196 26 1
196 43 1
196 94 1
196 231 1
196 248 1
196 299 1
196 427 1
196 444 1
196 495 1
197 27 1
197 44 1
197 95 1
197 232 1
197 249 1
197 300 1
197 428 1
197 445 1
197 496 1
198 28 1
198 45 1
198 96 1
198 233 1
198 250 1
198 301 1
198 429 1
198 446 1
198 497 1
199 29 1
199 46 1
199 97 1
199 234 1
199 251 1
199 302 1
199 430 1
199 447 1
199 498 1
200 30 1
200 47 1
200 98 1
200 235 1
200 252 1
200 303 1
200 431 1
200 448 1
200 499 1
201 31 1
201 48 1
201 99 1
201 236 1
201 253 1
201 304 1
201 432 1
201 449 1
201 500 1
202 32 1
202 49 1
202 100 1
202 237 1
202 254 1
202 305 1
202 433 1
202 450 1
202 501 1
203 33 1
203 50 1
203 101 1
203 238 1
203 255 1
203 306 1
203 434 1
203 451 1
203 502 1
204 34 1
204 51 1
204 102 1
204 222 1
204 239 1
204 290 1
204 435 1
204 452 1
204 503 1
205 103 1
205 120 1
205 154 1
205 206 1
205 223 1
205 257 1
205 523 1
205 540 1
205 574 1
206 104 1
206 121 1
206 155 1
206 207 1
206 224 1
206 258 1
206 524 1
206 541 1
206 575 1
207 105 1
207 122 1
207 156 1
207 208 1
207 225 1
207 259 1
207 525 1
207 542 1
207 576 1
208 106 1
208 123 1
208 157 1
208 209 1
208 226 1
208 260 1
208 526 1
208 543 1
208 577 1
209 107 1
209 124 1
209 158 1
209 210 1
209 227 1
209 261 1
209 527 1
209 544 1
209 578 1
210 108 1
210 125 1
210 159 1
210 211 1
210 228 1
210 262 1
210 511 1
210 528 1
210 562 1
211 109 1
211 126 1
211 160 1
211 212 1
211 229 1
211 263 1
211 512 1
211 529 1
211 563 1
212 110 1
212 127 1
212 161 1
212 213 1
212 230 1
212 264 1
212 513 1
212 530 1
212 564 1
213 111 1
213 128 1
213 162 1
213 214 1
213 231 1
213 265 1
213 514 1
213 531 1
213 565 1
214 112 1
214 129 1
214 163 1
214 215 1
214 232 1
214 266 1
214 515 1
214 532 1
214 566 1
215 113 1
215 130 1
215 164 1
215 216 1
215 233 1
215 267 1
215 516 1
215 533 1
215 567 1
216 114 1
216 131 1
216 165 1
216 217 1
216 234 1
216 268 1
216 517 1
216 534 1
216 568 1
217 115 1
217 132 1
217 166 1
217 218 1
217 235 1
217 269 1
217 518 1
217 535 1
217 569 1
218 116 1
218 133 1
218 167 1
218 219 1
218 236 1
218 270 1
218 519 1
218 536 1
218 570 1
219 117 1
219 134 1
219 168 1
219 220 1
219 237 1
219 271 1
219 520 1
219 537 1
219 571 1
220 118 1
220 135 1
220 169 1
220 221 1
220 238 1
220 272 1
220 521 1
220 538 1
220 572 1
221 119 1
221 136 1
221 170 1
221 205 1
221 222 1
221 256 1
221 522 1
221 539 1
221 573 1
222 103 1
222 137 1
222 171 1
222 206 1
222 240 1
222 274 1
222 523 1
222 557 1
222 591 1
223 104 1
223 138 1
223 172 1
223 207 1
223 241 1
223 275 1
223 524 1
223 558 1
223 592 1
224 105 1
224 139 1
224 173 1
224 208 1
224 242 1
224 276 1
224 525 1
224 559 1
224 593 1
225 106 1
225 140 1
225 174 1
225 209 1
225 243 1
225 277 1
225 526 1
225 560 1
225 594 1
226 107 1
226 141 1
226 175 1
226 210 1
226 244 1
226 278 1
226 527 1
226 561 1
226 595 1
227 108 1
227 142 1
227 176 1
227 211 1
227 245 1
227 279 1
227 511 1
227 545 1
227 579 1
228 109 1
228 143 1
228 177 1
228 212 1
228 246 1
228 280 1
228 512 1
228 546 1
228 580 1
229 110 1
229 144 1
229 178 1
229 213 1
229 247 1
229 281 1
229 513 1
229 547 1
229 581 1
230 111 1
230 145 1
230 179 1
230 214 1
230 248 1
230 282 1
230 514 1
230 548 1
230 582 1
231 112 1
231 146 1
231 180 1
231 215 1
231 249 1
231 283 1
231 515 1
231 549 1
231 583 1
232 113 1
232 147 1
232 181 1
232 216 1
232 250 1
232 284 1
232 516 1
232 550 1
232 584 1
233 114 1
233 148 1
233 182 1
233 217 1
233 251 1
233 285 1
233 517 1
233 551 1
233 585 1
234 115 1
234 149 1
234 183 1
234 218 1
234 252 1
234 286 1
234 518 1
234 552 1
234 586 1
235 116 1
235 150 1
235 184 1
235 219 1
235 253 1
235 287 1
235 519 1
235 553 1
235 587 1
236 117 1
236 151 1
236 185 1
236 220 1
236 254 1
236 288 1
236 520 1
236 554 1
236 588 1
237 118 1
237 152 1
237 186 1
237 221 1
237 255 1
237 289 1
237 521 1
237 555 1
237 589 1
238 119 1
238 153 1
238 187 1
238 205 1
238 239 1
238 273 1
238 522 1
238 556 1
238 590 1
239 120 1
239 137 1
239 188 1
239 223 1
239 240 1
239 291 1
239 540 1
239 557 1
239 608 1
240 121 1
240 138 1
240 189 1
240 224 1
240 241 1
240 292 1
240 541 1
240 558 1
240 609 1
241 122 1
241 139 1
241 190 1
241 225 1
241 242 1
241 293 1
241 542 1
241 559 1
241 610 1
242 123 1
242 140 1
242 191 1
242 226 1
242 243 1
242 294 1
242 543 1
242 560 1
242 611 1
243 124 1
243 141 1
243 192 1
243 227 1
243 244 1
243 295 1
243 544 1
243 561 1
243 612 1
244 125 1
244 142 1
244 193 1
244 228 1
244 245 1
244 296 1
244 528 1
244 545 1
244 596 1
245 126 1
245 143 1
245 194 1
245 229 1
245 246 1
245 297 1
245 529 1
245 546 1
245 597 1
246 127 1
246 144 1
246 195 1
246 230 1
246 247 1
246 298 1
246 530 1
246 547 1
246 598 1
247 128 1
247 145 1
247 196 1
247 231 1
247 248 1
247 299 1
247 531 1
247 548 1
247 599 1
248 129 1
248 146 1
248 197 1
248 232 1
248 249 1
248 300 1
248 532 1
248 549 1
248 600 1
249 130 1
249 147 1
249 198 1
249 233 1
249 250 1
249 301 1
249 533 1
249 550 1
249 601 1
250 131 1
250 148 1
250 199 1
250 234 1
250 251 1
250 302 1
250 534 1
250 551 1
250 602 1
251 132 1
251 149 1
251 200 1
251 235 1
251 252 1
251 303 1
251 535 1
251 552 1
251 603 1
252 133 1
252 150 1
252 201 1
252 236 1
252 253 1
252 304 1
252 536 1
252 553 1
252 604 1
253 134 1
253 151 1
253 202 1
253 237 1
253 254 1
253 305 1
253 537 1
253 554 1
253 605 1
254 135 1
254 152 1
254 203 1
254 238 1
254 255 1
254 306 1
254 538 1
254 555 1
254 606 1
255 136 1
255 153 1
255 204 1
255 222 1
255 239 1
255 290 1
255 539 1
255 556 1
255 607 1
256 308 1
256 325 1
256 359 1
256 419 1
256 436 1
256 470 1
256 523 1
256 540 1
256 574 1
257 309 1
257 326 1
257 360 1
257 420 1
257 437 1
257 471 1
257 524 1
257 541 1
257 575 1
258 310 1
258 327 1
258 361 1
258 421 1
258 438 1
258 472 1
258 525 1
258 542 1
258 576 1
259 311 1
259 328 1
259 362 1
259 422 1
259 439 1
259 473 1
259 526 1
259 543 1
259 577 1
260 312 1
260 329 1
260 363 1
260 423 1
260 440 1
260 474 1
260 527 1
260 544 1
260 578 1
261 313 1
261 330 1
261 364 1
261 424 1
261 441 1
261 475 1
261 511 1
261 528 1
261 562 1
262 314 1
262 331 1
262 365 1
262 425 1
262 442 1
262 476 1
262 512 1
262 529 1
262 563 1
263 315 1
263 332 1
263 366 1
263 409 1
263 426 1
263 460 1
263 513 1
263 530 1
263 564 1
264 316 1
264 333 1
264 367 1
264 410 1
264 427 1
264 461 1
264 514 1
264 531 1
264 565 1
265 317 1
265 334 1
265 368 1
265 411 1
265 428 1
265 462 1
265 515 1
265 532 1
265 566 1
266 318 1
266 335 1
266 369 1
266 412 1
266 429 1
266 463 1
266 516 1
266 533 1
266 567 1
267 319 1
267 336 1
267 370 1
267 413 1
267 430 1
267 464 1
267 517 1
267 534 1
267 568 1
268 320 1
268 337 1
268 371 1
268 414 1
268 431 1
268 465 1
268 518 1
268 535 1
268 569 1
269 321 1
269 338 1
269 372 1
269 415 1
269 432 1
269 466 1
269 519 1
269 536 1
269 570 1
270 322 1
270 339 1
270 373 1
270 416 1
270 433 1
270 467 1
270 520 1
270 537 1
270 571 1
271 323 1
271 340 1
271 374 1
271 417 1
271 434 1
271 468 1
271 521 1
271 538 1
271 572 1
272 307 1
272 324 1
272 358 1
272 418 1
272 435 1
272 469 1
272 522 1
272 539 1
272 573 1
273 308 1
273 342 1
273 376 1
273 419 1
273 453 1
273 487 1
273 523 1
273 557 1
273 591 1
274 309 1
274 343 1
274 377 1
274 420 1
274 454 1
274 488 1
274 524 1
274 558 1
274 592 1
275 310 1
275 344 1
275 378 1
275 421 1
275 455 1
275 489 1
275 525 1
275 559 1
275 593 1
276 311 1
276 345 1
276 379 1
276 422 1
276 456 1
276 490 1
276 526 1
276 560 1
276 594 1
277 312 1
277 346 1
277 380 1
277 423 1
277 457 1
277 491 1
277 527 1
277 561 1
277 595 1
278 313 1
278 347 1
278 381 1
278 424 1
278 458 1
278 492 1
278 511 1
278 545 1
278 579 1
279 314 1
279 348 1
279 382 1
279 425 1
279 459 1
279 493 1
279 512 1
279 546 1
279 580 1
280 315 1
280 349 1
280 383 1
280 409 1
280 443 1
280 477 1
280 513 1
280 547 1
280 581 1
281 316 1
281 350 1
281 384 1
281 410 1
281 444 1
281 478 1
281 514 1
281 548 1
281 582 1
282 317 1
282 351 1
282 385 1
282 411 1
282 445 1
282 479 1
282 515 1
282 549 1
282 583 1
283 318 1
283 352 1
283 386 1
283 412 1
283 446 1
283 480 1
283 516 1
283 550 1
283 584 1
284 319 1
284 353 1
284 387 1
284 413 1
284 447 1
284 481 1
284 517 1
284 551 1
284 585 1
285 320 1
285 354 1
285 388 1
285 414 1
285 448 1
285 482 1
285 518 1
285 552 1
285 586 1
286 321 1
286 355 1
286 389 1
286 415 1
286 449 1
286 483 1
286 519 1
286 553 1
286 587 1
287 322 1
287 356 1
287 390 1
287 416 1
287 450 1
287 484 1
287 520 1
287 554 1
287 588 1
288 323 1
288 357 1
288 391 1
288 417 1
288 451 1
288 485 1
288 521 1
288 555 1
288 589 1
289 307 1
289 341 1
289 375 1
289 418 1
289 452 1
289 486 1
289 522 1
289 556 1
289 590 1
290 325 1
290 342 1
290 393 1
290 436 1
290 453 1
290 504 1
290 540 1
290 557 1
290 608 1
291 326 1
291 343 1
291 394 1
291 437 1
291 454 1
291 505 1
291 541 1
291 558 1
291 609 1
292 327 1
292 344 1
292 395 1
292 438 1
292 455 1
292 506 1
292 542 1
292 559 1
292 610 1
293 328 1
293 345 1
293 396 1
293 439 1
293 456 1
293 507 1
293 543 1
293 560 1
293 611 1
294 329 1
294 346 1
294 397 1
294 440 1
294 457 1
294 508 1
294 544 1
294 561 1
294 612 1
295 330 1
295 347 1
295 398 1
295 441 1
295 458 1
295 509 1
295 528 1
295 545 1
295 596 1
296 331 1
296 348 1
296 399 1
296 442 1
296 459 1
296 510 1
296 529 1
296 546 1
296 597 1
297 332 1
297 349 1
297 400 1
297 426 1
297 443 1
297 494 1
297 530 1
297 547 1
297 598 1
298 333 1
298 350 1
298 401 1
298 427 1
298 444 1
298 495 1
298 531 1
298 548 1
298 599 1
299 334 1
299 351 1
299 402 1
299 428 1
299 445 1
299 496 1
299 532 1
299 549 1
299 600 1
300 335 1
300 352 1
300 403 1
300 429 1
300 446 1
300 497 1
300 533 1
300 550 1
300 601 1
301 336 1
301 353 1
301 404 1
301 430 1
301 447 1
301 498 1
301 534 1
301 551 1
301 602 1
302 337 1
302 354 1
302 405 1
302 431 1
302 448 1
302 499 1
302 535 1
302 552 1
302 603 1
303 338 1
303 355 1
303 406 1
303 432 1
303 449 1
303 500 1
303 536 1
303 553 1
303 604 1
304 339 1
304 356 1
304 407 1
304 433 1
304 450 1
304 501 1
304 537 1
304 554 1
304 605 1
305 340 1
305 357 1
305 408 1
305 434 1
305 451 1
305 502 1
305 538 1
305 555 1
305 606 1
306 324 1
306 341 1
306 392 1
306 435 1
306 452 1
306 503 1
306 539 1
306 556 1
306 607 1
