%%MatrixMarket matrix coordinate integer general
288 576 2592
1 1 1
1 43 1
1 86 1
1 289 1
1 331 1
1 374 1
1 385 1
1 427 1
1 470 1
2 2 1
2 46 1
2 84 1
2 290 1
2 334 1
2 372 1
2 386 1
2 430 1
2 468 1
3 3 1
3 47 1
3 87 1
3 291 1
3 335 1
3 375 1
3 387 1
3 431 1
3 471 1
4 4 1
4 33 1
4 92 1
4 292 1
4 321 1
4 380 1
4 388 1
4 417 1
4 476 1
5 5 1
5 36 1
5 93 1
5 293 1
5 324 1
5 381 1
5 389 1
5 420 1
5 477 1
6 6 1
6 48 1
6 89 1
6 294 1
6 336 1
6 377 1
6 390 1
6 432 1
6 473 1
7 7 1
7 34 1
7 85 1
7 295 1
7 322 1
7 373 1
7 391 1
7 418 1
7 469 1
8 8 1
8 39 1
8 91 1
8 296 1
8 327 1
8 379 1
8 392 1
8 423 1
8 475 1
9 9 1
9 35 1
9 88 1
9 297 1
9 323 1
9 376 1
9 393 1
9 419 1
9 472 1
10 10 1
10 41 1
10 94 1
10 298 1
10 329 1
10 382 1
10 394 1
10 425 1
10 478 1
11 11 1
11 37 1
11 96 1
11 299 1
11 325 1
11 384 1
11 395 1
11 421 1
11 480 1
12 12 1
12 38 1
12 90 1
12 300 1
12 326 1
12 378 1
12 396 1
12 422 1
12 474 1
13 13 1
13 44 1
13 95 1
13 301 1
13 332 1
13 383 1
13 397 1
13 428 1
13 479 1
14 14 1
14 40 1
14 81 1
14 302 1
14 328 1
14 369 1
14 398 1
14 424 1
14 465 1
15 15 1
15 42 1
15 82 1
15 303 1
15 330 1
15 370 1
15 399 1
15 426 1
15 466 1
16 16 1
16 45 1
16 83 1
16 304 1
16 333 1
16 371 1
16 400 1
16 429 1
16 467 1
17 1 1
17 59 1
17 76 1
17 289 1
17 347 1
17 364 1
17 385 1
17 443 1
17 460 1
18 2 1
18 62 1
18 69 1
18 290 1
18 350 1
18 357 1
18 386 1
18 446 1
18 453 1
19 3 1
19 63 1
19 72 1
19 291 1
19 351 1
19 360 1
19 387 1
19 447 1
19 456 1
20 4 1
20 49 1
20 77 1
20 292 1
20 337 1
20 365 1
20 388 1
20 433 1
20 461 1
21 5 1
21 52 1
21 80 1
21 293 1
21 340 1
21 368 1
21 389 1
21 436 1
21 464 1
22 6 1
22 64 1
22 74 1
22 294 1
22 352 1
22 362 1
22 390 1
22 448 1
22 458 1
23 7 1
23 50 1
23 75 1
23 295 1
23 338 1
23 363 1
23 391 1
23 434 1
23 459 1
24 8 1
24 55 1
24 65 1
24 296 1
24 343 1
24 353 1
24 392 1
24 439 1
24 449 1
25 9 1
25 51 1
25 78 1
25 297 1
25 339 1
25 366 1
25 393 1
25 435 1
25 462 1
26 10 1
26 57 1
26 66 1
26 298 1
26 345 1
26 354 1
26 394 1
26 441 1
26 450 1
27 11 1
27 53 1
27 70 1
27 299 1
27 341 1
27 358 1
27 395 1
27 437 1
27 454 1
28 12 1
28 54 1
28 79 1
28 300 1
28 342 1
28 367 1
28 396 1
28 438 1
28 463 1
29 13 1
29 60 1
29 67 1
29 301 1
29 348 1
29 355 1
29 397 1
29 444 1
29 451 1
30 14 1
30 56 1
30 68 1
30 302 1
30 344 1
30 356 1
30 398 1
30 440 1
30 452 1
31 15 1
31 58 1
31 71 1
31 303 1
31 346 1
31 359 1
31 399 1
31 442 1
31 455 1
32 16 1
32 61 1
32 73 1
32 304 1
32 349 1
32 361 1
32 400 1
32 445 1
32 457 1
33 31 1
33 43 1
33 76 1
33 319 1
33 331 1
33 364 1
33 415 1
33 427 1
33 460 1
34 32 1
34 46 1
34 69 1
34 320 1
34 334 1
34 357 1
34 416 1
34 430 1
34 453 1
35 17 1
35 47 1
35 72 1
35 305 1
35 335 1
35 360 1
35 401 1
35 431 1
35 456 1
36 19 1
36 33 1
36 77 1
36 307 1
36 321 1
36 365 1
36 403 1
36 417 1
36 461 1
37 25 1
37 36 1
37 80 1
37 313 1
37 324 1
37 368 1
37 409 1
37 420 1
37 464 1
38 18 1
38 48 1
38 74 1
38 306 1
38 336 1
38 362 1
38 402 1
38 432 1
38 458 1
39 22 1
39 34 1
39 75 1
39 310 1
39 322 1
39 363 1
39 406 1
39 418 1
39 459 1
40 28 1
40 39 1
40 65 1
40 316 1
40 327 1
40 353 1
40 412 1
40 423 1
40 449 1
41 20 1
41 35 1
41 78 1
41 308 1
41 323 1
41 366 1
41 404 1
41 419 1
41 462 1
42 21 1
42 41 1
42 66 1
42 309 1
42 329 1
42 354 1
42 405 1
42 425 1
42 450 1
43 26 1
43 37 1
43 70 1
43 314 1
43 325 1
43 358 1
43 410 1
43 421 1
43 454 1
44 23 1
44 38 1
44 79 1
44 311 1
44 326 1
44 367 1
44 407 1
44 422 1
44 463 1
45 24 1
45 44 1
45 67 1
45 312 1
45 332 1
45 355 1
45 408 1
45 428 1
45 451 1
46 29 1
46 40 1
46 68 1
46 317 1
46 328 1
46 356 1
46 413 1
46 424 1
46 452 1
47 27 1
47 42 1
47 71 1
47 315 1
47 330 1
47 359 1
47 411 1
47 426 1
47 455 1
48 30 1
48 45 1
48 73 1
48 318 1
48 333 1
48 361 1
48 414 1
48 429 1
48 457 1
49 97 1
49 139 1
49 182 1
49 289 1
49 331 1
49 374 1
49 481 1
49 523 1
49 566 1
50 98 1
50 142 1
50 180 1
50 290 1
50 334 1
50 372 1
50 482 1
50 526 1
50 564 1
51 99 1
51 143 1
51 183 1
51 291 1
51 335 1
51 375 1
51 483 1
51 527 1
51 567 1
52 100 1
52 129 1
52 188 1
52 292 1
52 321 1
52 380 1
52 484 1
52 513 1
52 572 1
53 101 1
53 132 1
53 189 1
53 293 1
53 324 1
53 381 1
53 485 1
53 516 1
53 573 1
54 102 1
54 144 1
54 185 1
54 294 1
54 336 1
54 377 1
54 486 1
54 528 1
54 569 1
55 103 1
55 130 1
55 181 1
55 295 1
55 322 1
55 373 1
55 487 1
55 514 1
55 565 1
56 104 1
56 135 1
56 187 1
56 296 1
56 327 1
56 379 1
56 488 1
56 519 1
56 571 1
57 105 1
57 131 1
57 184 1
57 297 1
57 323 1
57 376 1
57 489 1
57 515 1
57 568 1
58 106 1
58 137 1
58 190 1
58 298 1
58 329 1
58 382 1
58 490 1
58 521 1
58 574 1
59 107 1
59 133 1
59 192 1
59 299 1
59 325 1
59 384 1
59 491 1
59 517 1
59 576 1
60 108 1
60 134 1
60 186 1
60 300 1
60 326 1
60 378 1
60 492 1
60 518 1
60 570 1
61 109 1
61 140 1
61 191 1
61 301 1
61 332 1
61 383 1
61 493 1
61 524 1
61 575 1
62 110 1
62 136 1
62 177 1
62 302 1
62 328 1
62 369 1
62 494 1
62 520 1
62 561 1
63 111 1
63 138 1
63 178 1
63 303 1
63 330 1
63 370 1
63 495 1
63 522 1
63 562 1
64 112 1
64 141 1
64 179 1
64 304 1
64 333 1
64 371 1
64 496 1
64 525 1
64 563 1
65 97 1
65 155 1
65 172 1
65 289 1
65 347 1
65 364 1
65 481 1
65 539 1
65 556 1
66 98 1
66 158 1
66 165 1
66 290 1
66 350 1
66 357 1
66 482 1
66 542 1
66 549 1
67 99 1
67 159 1
67 168 1
67 291 1
67 351 1
67 360 1
67 483 1
67 543 1
67 552 1
68 100 1
68 145 1
68 173 1
68 292 1
68 337 1
68 365 1
68 484 1
68 529 1
68 557 1
69 101 1
69 148 1
69 176 1
69 293 1
69 340 1
69 368 1
69 485 1
69 532 1
69 560 1
70 102 1
70 160 1
70 170 1
70 294 1
70 352 1
70 362 1
70 486 1
70 544 1
70 554 1
71 103 1
71 146 1
71 171 1
71 295 1
71 338 1
71 363 1
71 487 1
71 530 1
71 555 1
72 104 1
72 151 1
72 161 1
72 296 1
72 343 1
72 353 1
72 488 1
72 535 1
72 545 1
73 105 1
73 147 1
73 174 1
73 297 1
73 339 1
73 366 1
73 489 1
73 531 1
73 558 1
74 106 1
74 153 1
74 162 1
74 298 1
74 345 1
74 354 1
74 490 1
74 537 1
74 546 1
75 107 1
75 149 1
75 166 1
75 299 1
75 341 1
75 358 1
75 491 1
75 533 1
75 550 1
76 108 1
76 150 1
76 175 1
76 300 1
76 342 1
76 367 1
76 492 1
76 534 1
76 559 1
77 109 1
77 156 1
77 163 1
77 301 1
77 348 1
77 355 1
77 493 1
77 540 1
77 547 1
78 110 1
78 152 1
78 164 1
78 302 1
78 344 1
78 356 1
78 494 1
78 536 1
78 548 1
79 111 1
79 154 1
79 167 1
79 303 1
79 346 1
79 359 1
79 495 1
79 538 1
79 551 1
80 112 1
80 157 1
80 169 1
80 304 1
80 349 1
80 361 1
80 496 1
80 541 1
80 553 1
81 127 1
81 139 1
81 172 1
81 319 1
81 331 1
81 364 1
81 511 1
81 523 1
81 556 1
82 128 1
82 142 1
82 165 1
82 320 1
82 334 1
82 357 1
82 512 1
82 526 1
82 549 1
83 113 1
83 143 1
83 168 1
83 305 1
83 335 1
83 360 1
83 497 1
83 527 1
83 552 1
84 115 1
84 129 1
84 173 1
84 307 1
84 321 1
84 365 1
84 499 1
84 513 1
84 557 1
85 121 1
85 132 1
85 176 1
85 313 1
85 324 1
85 368 1
85 505 1
85 516 1
85 560 1
86 114 1
86 144 1
86 170 1
86 306 1
86 336 1
86 362 1
86 498 1
86 528 1
86 554 1
87 118 1
87 130 1
87 171 1
87 310 1
87 322 1
87 363 1
87 502 1
87 514 1
87 555 1
88 124 1
88 135 1
88 161 1
88 316 1
88 327 1
88 353 1
88 508 1
88 519 1
88 545 1
89 116 1
89 131 1
89 174 1
89 308 1
89 323 1
89 366 1
89 500 1
89 515 1
89 558 1
90 117 1
90 137 1
90 162 1
90 309 1
90 329 1
90 354 1
90 501 1
90 521 1
90 546 1
91 122 1
91 133 1
91 166 1
91 314 1
91 325 1
91 358 1
91 506 1
91 517 1
91 550 1
92 119 1
92 134 1
92 175 1
92 311 1
92 326 1
92 367 1
92 503 1
92 518 1
92 559 1
93 120 1
93 140 1
93 163 1
93 312 1
93 332 1
93 355 1
93 504 1
93 524 1
93 547 1
94 125 1
94 136 1
94 164 1
94 317 1
94 328 1
94 356 1
94 509 1
94 520 1
94 548 1
95 123 1
95 138 1
95 167 1
95 315 1
95 330 1
95 359 1
95 507 1
95 522 1
95 551 1
96 126 1
96 141 1
96 169 1
96 318 1
96 333 1
96 361 1
96 510 1
96 525 1
96 553 1
97 193 1
97 235 1
97 278 1
97 385 1
97 427 1
97 470 1
97 481 1
97 523 1
97 566 1
98 194 1
98 238 1
98 276 1
98 386 1
98 430 1
98 468 1
98 482 1
98 526 1
98 564 1
99 195 1
99 239 1
99 279 1
99 387 1
99 431 1
99 471 1
99 483 1
99 527 1
99 567 1
100 196 1
100 225 1
100 284 1
100 388 1
100 417 1
100 476 1
100 484 1
100 513 1
100 572 1
101 197 1
101 228 1
101 285 1
101 389 1
101 420 1
101 477 1
101 485 1
101 516 1
101 573 1
102 198 1
102 240 1
102 281 1
102 390 1
102 432 1
102 473 1
102 486 1
102 528 1
102 569 1
103 199 1
103 226 1
103 277 1
103 391 1
103 418 1
103 469 1
103 487 1
103 514 1
103 565 1
104 200 1
104 231 1
104 283 1
104 392 1
104 423 1
104 475 1
104 488 1
104 519 1
104 571 1
105 201 1
105 227 1
105 280 1
105 393 1
105 419 1
105 472 1
105 489 1
105 515 1
105 568 1
106 202 1
106 233 1
106 286 1
106 394 1
106 425 1
106 478 1
106 490 1
106 521 1
106 574 1
107 203 1
107 229 1
107 288 1
107 395 1
107 421 1
107 480 1
107 491 1
107 517 1
107 576 1
108 204 1
108 230 1
108 282 1
108 396 1
108 422 1
108 474 1
108 492 1
108 518 1
108 570 1
109 205 1
109 236 1
109 287 1
109 397 1
109 428 1
109 479 1
109 493 1
109 524 1
109 575 1
110 206 1
110 232 1
110 273 1
110 398 1
110 424 1
110 465 1
110 494 1
110 520 1
110 561 1
111 207 1
111 234 1
111 274 1
111 399 1
111 426 1
111 466 1
111 495 1
111 522 1
111 562 1
112 208 1
112 237 1
112 275 1
112 400 1
112 429 1
112 467 1
112 496 1
112 525 1
112 563 1
113 193 1
113 251 1
113 268 1
113 385 1
113 443 1
113 460 1
113 481 1
113 539 1
113 556 1
114 194 1
114 254 1
114 261 1
114 386 1
114 446 1
114 453 1
114 482 1
114 542 1
114 549 1
115 195 1
115 255 1
115 264 1
115 387 1
115 447 1
115 456 1
115 483 1
115 543 1
115 552 1
116 196 1
116 241 1
116 269 1
116 388 1
116 433 1
116 461 1
116 484 1
116 529 1
116 557 1
117 197 1
117 244 1
117 272 1
117 389 1
117 436 1
117 464 1
117 485 1
117 532 1
117 560 1
118 198 1
118 256 1
118 266 1
118 390 1
118 448 1
118 458 1
118 486 1
118 544 1
118 554 1
119 199 1
119 242 1
119 267 1
119 391 1
119 434 1
119 459 1
119 487 1
119 530 1
119 555 1
120 200 1
120 247 1
120 257 1
120 392 1
120 439 1
120 449 1
120 488 1
120 535 1
120 545 1
121 201 1
121 243 1
121 270 1
121 393 1
121 435 1
121 462 1
121 489 1
121 531 1
121 558 1
122 202 1
122 249 1
122 258 1
122 394 1
122 441 1
122 450 1
122 490 1
122 537 1
122 546 1
123 203 1
123 245 1
123 262 1
123 395 1
123 437 1
123 454 1
123 491 1
123 533 1
123 550 1
124 204 1
124 246 1
124 271 1
124 396 1
124 438 1
124 463 1
124 492 1
124 534 1
124 559 1
125 205 1
125 252 1
125 259 1
125 397 1
125 444 1
125 451 1
125 493 1
125 540 1
125 547 1
126 206 1
126 248 1
126 260 1
126 398 1
126 440 1
126 452 1
126 494 1
126 536 1
126 548 1
127 207 1
127 250 1
127 263 1
127 399 1
127 442 1
127 455 1
127 495 1
127 538 1
127 551 1
128 208 1
128 253 1
128 265 1
128 400 1
128 445 1
128 457 1
128 496 1
128 541 1
128 553 1
129 223 1
129 235 1
129 268 1
129 415 1
129 427 1
129 460 1
129 511 1
129 523 1
129 556 1
130 224 1
130 238 1
130 261 1
130 416 1
130 430 1
130 453 1
130 512 1
130 526 1
130 549 1
131 209 1
131 239 1
131 264 1
131 401 1
131 431 1
131 456 1
131 497 1
131 527 1
131 552 1
132 211 1
132 225 1
132 269 1
132 403 1
132 417 1
132 461 1
132 499 1
132 513 1
132 557 1
133 217 1
133 228 1
133 272 1
133 409 1
133 420 1
133 464 1
133 505 1
133 516 1
133 560 1
134 210 1
134 240 1
134 266 1
134 402 1
134 432 1
134 458 1
134 498 1
134 528 1
134 554 1
135 214 1
135 226 1
135 267 1
135 406 1
135 418 1
135 459 1
135 502 1
135 514 1
135 555 1
136 220 1
136 231 1
136 257 1
136 412 1
136 423 1
136 449 1
136 508 1
136 519 1
136 545 1
137 212 1
137 227 1
137 270 1
137 404 1
137 419 1
137 462 1
137 500 1
137 515 1
137 558 1
138 213 1
138 233 1
138 258 1
138 405 1
138 425 1
138 450 1
138 501 1
138 521 1
138 546 1
139 218 1
139 229 1
139 262 1
139 410 1
139 421 1
139 454 1
139 506 1
139 517 1
139 550 1
140 215 1
140 230 1
140 271 1
140 407 1
140 422 1
140 463 1
140 503 1
140 518 1
140 559 1
141 216 1
141 236 1
141 259 1
141 408 1
141 428 1
141 451 1
141 504 1
141 524 1
141 547 1
142 221 1
142 232 1
142 260 1
142 413 1
142 424 1
142 452 1
142 509 1
142 520 1
142 548 1
143 219 1
143 234 1
143 263 1
143 411 1
143 426 1
143 455 1
143 507 1
143 522 1
143 551 1
144 222 1
144 237 1
144 265 1
144 414 1
144 429 1
144 457 1
144 510 1
144 525 1
144 553 1
145 1 1
145 17 1
145 49 1
145 295 1
145 311 1
145 343 1
145 393 1
145 409 1
145 441 1
146 2 1
146 18 1
146 50 1
146 297 1
146 313 1
146 345 1
146 396 1
146 412 1
146 444 1
147 3 1
147 19 1
147 51 1
147 300 1
147 316 1
147 348 1
147 389 1
147 405 1
147 437 1
148 4 1
148 20 1
148 52 1
148 296 1
148 312 1
148 344 1
148 394 1
148 410 1
148 442 1
149 5 1
149 21 1
149 53 1
149 302 1
149 318 1
149 350 1
149 399 1
149 415 1
149 447 1
150 6 1
150 22 1
150 54 1
150 293 1
150 309 1
150 341 1
150 392 1
150 408 1
150 440 1
151 7 1
151 23 1
151 55 1
151 298 1
151 314 1
151 346 1
151 397 1
151 413 1
151 445 1
152 8 1
152 24 1
152 56 1
152 303 1
152 319 1
152 351 1
152 400 1
152 416 1
152 448 1
153 9 1
153 25 1
153 57 1
153 301 1
153 317 1
153 349 1
153 395 1
153 411 1
153 443 1
154 10 1
154 26 1
154 58 1
154 304 1
154 320 1
154 352 1
154 385 1
154 401 1
154 433 1
155 11 1
155 27 1
155 59 1
155 290 1
155 306 1
155 338 1
155 387 1
155 403 1
155 435 1
156 12 1
156 28 1
156 60 1
156 299 1
156 315 1
156 347 1
156 398 1
156 414 1
156 446 1
157 13 1
157 29 1
157 61 1
157 289 1
157 305 1
157 337 1
157 386 1
157 402 1
157 434 1
158 14 1
158 30 1
158 62 1
158 291 1
158 307 1
158 339 1
158 390 1
158 406 1
158 438 1
159 15 1
159 31 1
159 63 1
159 294 1
159 310 1
159 342 1
159 388 1
159 404 1
159 436 1
160 16 1
160 32 1
160 64 1
160 292 1
160 308 1
160 340 1
160 391 1
160 407 1
160 439 1
161 1 1
161 33 1
161 65 1
161 295 1
161 327 1
161 359 1
161 393 1
161 425 1
161 457 1
162 2 1
162 34 1
162 66 1
162 297 1
162 329 1
162 361 1
162 396 1
162 428 1
162 460 1
163 3 1
163 35 1
163 67 1
163 300 1
163 332 1
163 364 1
163 389 1
163 421 1
163 453 1
164 4 1
164 36 1
164 68 1
164 296 1
164 328 1
164 360 1
164 394 1
164 426 1
164 458 1
165 5 1
165 37 1
165 69 1
165 302 1
165 334 1
165 366 1
165 399 1
165 431 1
165 463 1
166 6 1
166 38 1
166 70 1
166 293 1
166 325 1
166 357 1
166 392 1
166 424 1
166 456 1
167 7 1
167 39 1
167 71 1
167 298 1
167 330 1
167 362 1
167 397 1
167 429 1
167 461 1
168 8 1
168 40 1
168 72 1
168 303 1
168 335 1
168 367 1
168 400 1
168 432 1
168 464 1
169 9 1
169 41 1
169 73 1
169 301 1
169 333 1
169 365 1
169 395 1
169 427 1
169 459 1
170 10 1
170 42 1
170 74 1
170 304 1
170 336 1
170 368 1
170 385 1
170 417 1
170 449 1
171 11 1
171 43 1
171 75 1
171 290 1
171 322 1
171 354 1
171 387 1
171 419 1
171 451 1
172 12 1
172 44 1
172 76 1
172 299 1
172 331 1
172 363 1
172 398 1
172 430 1
172 462 1
173 13 1
173 45 1
173 77 1
173 289 1
173 321 1
173 353 1
173 386 1
173 418 1
173 450 1
174 14 1
174 46 1
174 78 1
174 291 1
174 323 1
174 355 1
174 390 1
174 422 1
174 454 1
175 15 1
175 47 1
175 79 1
175 294 1
175 326 1
175 358 1
175 388 1
175 420 1
175 452 1
176 16 1
176 48 1
176 80 1
176 292 1
176 324 1
176 356 1
176 391 1
176 423 1
176 455 1
177 17 1
177 33 1
177 81 1
177 311 1
177 327 1
177 375 1
177 409 1
177 425 1
177 473 1
178 18 1
178 34 1
178 82 1
178 313 1
178 329 1
178 377 1
178 412 1
178 428 1
178 476 1
179 19 1
179 35 1
179 83 1
179 316 1
179 332 1
179 380 1
179 405 1
179 421 1
179 469 1
180 20 1
180 36 1
180 84 1
180 312 1
180 328 1
180 376 1
180 410 1
180 426 1
180 474 1
181 21 1
181 37 1
181 85 1
181 318 1
181 334 1
181 382 1
181 415 1
181 431 1
181 479 1
182 22 1
182 38 1
182 86 1
182 309 1
182 325 1
182 373 1
182 408 1
182 424 1
182 472 1
183 23 1
183 39 1
183 87 1
183 314 1
183 330 1
183 378 1
183 413 1
183 429 1
183 477 1
184 24 1
184 40 1
184 88 1
184 319 1
184 335 1
184 383 1
184 416 1
184 432 1
184 480 1
185 25 1
185 41 1
185 89 1
185 317 1
185 333 1
185 381 1
185 411 1
185 427 1
185 475 1
186 26 1
186 42 1
186 90 1
186 320 1
186 336 1
186 384 1
186 401 1
186 417 1
186 465 1
187 27 1
187 43 1
187 91 1
187 306 1
187 322 1
187 370 1
187 403 1
187 419 1
187 467 1
188 28 1
188 44 1
188 92 1
188 315 1
188 331 1
188 379 1
188 414 1
188 430 1
188 478 1
189 29 1
189 45 1
189 93 1
189 305 1
189 321 1
189 369 1
189 402 1
189 418 1
189 466 1
190 30 1
190 46 1
190 94 1
190 307 1
190 323 1
190 371 1
190 406 1
190 422 1
190 470 1
191 31 1
191 47 1
191 95 1
191 310 1
191 326 1
191 374 1
191 404 1
191 420 1
191 468 1
192 32 1
192 48 1
192 96 1
192 308 1
192 324 1
192 372 1
192 407 1
192 423 1
192 471 1
193 99 1
193 115 1
193 147 1
193 295 1
193 311 1
193 343 1
193 491 1
193 507 1
193 539 1
194 102 1
194 118 1
194 150 1
194 297 1
194 313 1
194 345 1
194 494 1
194 510 1
194 542 1
195 100 1
195 116 1
195 148 1
195 300 1
195 316 1
195 348 1
195 495 1
195 511 1
195 543 1
196 105 1
196 121 1
196 153 1
196 296 1
196 312 1
196 344 1
196 481 1
196 497 1
196 529 1
197 106 1
197 122 1
197 154 1
197 302 1
197 318 1
197 350 1
197 484 1
197 500 1
197 532 1
198 103 1
198 119 1
198 151 1
198 293 1
198 309 1
198 341 1
198 496 1
198 512 1
198 544 1
199 108 1
199 124 1
199 156 1
199 298 1
199 314 1
199 346 1
199 482 1
199 498 1
199 530 1
200 109 1
200 125 1
200 157 1
200 303 1
200 319 1
200 351 1
200 487 1
200 503 1
200 535 1
201 101 1
201 117 1
201 149 1
201 301 1
201 317 1
201 349 1
201 483 1
201 499 1
201 531 1
202 107 1
202 123 1
202 155 1
202 304 1
202 320 1
202 352 1
202 489 1
202 505 1
202 537 1
203 111 1
203 127 1
203 159 1
203 290 1
203 306 1
203 338 1
203 485 1
203 501 1
203 533 1
204 104 1
204 120 1
204 152 1
204 299 1
204 315 1
204 347 1
204 486 1
204 502 1
204 534 1
205 110 1
205 126 1
205 158 1
205 289 1
205 305 1
205 337 1
205 492 1
205 508 1
205 540 1
206 112 1
206 128 1
206 160 1
206 291 1
206 307 1
206 339 1
206 488 1
206 504 1
206 536 1
207 97 1
207 113 1
207 145 1
207 294 1
207 310 1
207 342 1
207 490 1
207 506 1
207 538 1
208 98 1
208 114 1
208 146 1
208 292 1
208 308 1
208 340 1
208 493 1
208 509 1
208 541 1
209 99 1
209 131 1
209 163 1
209 295 1
209 327 1
209 359 1
209 491 1
209 523 1
209 555 1
210 102 1
210 134 1
210 166 1
210 297 1
210 329 1
210 361 1
210 494 1
210 526 1
210 558 1
211 100 1
211 132 1
211 164 1
211 300 1
211 332 1
211 364 1
211 495 1
211 527 1
211 559 1
212 105 1
212 137 1
212 169 1
212 296 1
212 328 1
212 360 1
212 481 1
212 513 1
212 545 1
213 106 1
213 138 1
213 170 1
213 302 1
213 334 1
213 366 1
213 484 1
213 516 1
213 548 1
214 103 1
214 135 1
214 167 1
214 293 1
214 325 1
214 357 1
214 496 1
214 528 1
214 560 1
215 108 1
215 140 1
215 172 1
215 298 1
215 330 1
215 362 1
215 482 1
215 514 1
215 546 1
216 109 1
216 141 1
216 173 1
216 303 1
216 335 1
216 367 1
216 487 1
216 519 1
216 551 1
217 101 1
217 133 1
217 165 1
217 301 1
217 333 1
217 365 1
217 483 1
217 515 1
217 547 1
218 107 1
218 139 1
218 171 1
218 304 1
218 336 1
218 368 1
218 489 1
218 521 1
218 553 1
219 111 1
219 143 1
219 175 1
219 290 1
219 322 1
219 354 1
219 485 1
219 517 1
219 549 1
220 104 1
220 136 1
220 168 1
220 299 1
220 331 1
220 363 1
220 486 1
220 518 1
220 550 1
221 110 1
221 142 1
221 174 1
221 289 1
221 321 1
221 353 1
221 492 1
221 524 1
221 556 1
222 112 1
222 144 1
222 176 1
222 291 1
222 323 1
222 355 1
222 488 1
222 520 1
222 552 1
223 97 1
223 129 1
223 161 1
223 294 1
223 326 1
223 358 1
223 490 1
223 522 1
223 554 1
224 98 1
224 130 1
224 162 1
224 292 1
224 324 1
224 356 1
224 493 1
224 525 1
224 557 1
225 115 1
225 131 1
225 179 1
225 311 1
225 327 1
225 375 1
225 507 1
225 523 1
225 571 1
226 118 1
226 134 1
226 182 1
226 313 1
226 329 1
226 377 1
226 510 1
226 526 1
226 574 1
227 116 1
227 132 1
227 180 1
227 316 1
227 332 1
227 380 1
227 511 1
227 527 1
227 575 1
228 121 1
228 137 1
228 185 1
228 312 1
228 328 1
228 376 1
228 497 1
228 513 1
228 561 1
229 122 1
229 138 1
229 186 1
229 318 1
229 334 1
229 382 1
229 500 1
229 516 1
229 564 1
230 119 1
230 135 1
230 183 1
230 309 1
230 325 1
230 373 1
230 512 1
230 528 1
230 576 1
231 124 1
231 140 1
231 188 1
231 314 1
231 330 1
231 378 1
231 498 1
231 514 1
231 562 1
232 125 1
232 141 1
232 189 1
232 319 1
232 335 1
232 383 1
232 503 1
232 519 1
232 567 1
233 117 1
233 133 1
233 181 1
233 317 1
233 333 1
233 381 1
233 499 1
233 515 1
233 563 1
234 123 1
234 139 1
234 187 1
234 320 1
234 336 1
234 384 1
234 505 1
234 521 1
234 569 1
235 127 1
235 143 1
235 191 1
235 306 1
235 322 1
235 370 1
235 501 1
235 517 1
235 565 1
236 120 1
236 136 1
236 184 1
236 315 1
236 331 1
236 379 1
236 502 1
236 518 1
236 566 1
237 126 1
237 142 1
237 190 1
237 305 1
237 321 1
237 369 1
237 508 1
237 524 1
237 572 1
238 128 1
238 144 1
238 192 1
238 307 1
238 323 1
238 371 1
238 504 1
238 520 1
238 568 1
239 113 1
239 129 1
239 177 1
239 310 1
239 326 1
239 374 1
239 506 1
239 522 1
239 570 1
240 114 1
240 130 1
240 178 1
240 308 1
240 324 1
240 372 1
240 509 1
240 525 1
240 573 1
241 199 1
241 215 1
241 247 1
241 393 1
241 409 1
241 441 1
241 491 1
241 507 1
241 539 1
242 201 1
242 217 1
242 249 1
242 396 1
242 412 1
242 444 1
242 494 1
242 510 1
242 542 1
243 204 1
243 220 1
243 252 1
243 389 1
243 405 1
243 437 1
243 495 1
243 511 1
243 543 1
244 200 1
244 216 1
244 248 1
244 394 1
244 410 1
244 442 1
244 481 1
244 497 1
244 529 1
245 206 1
245 222 1
245 254 1
245 399 1
245 415 1
245 447 1
245 484 1
245 500 1
245 532 1
246 197 1
246 213 1
246 245 1
246 392 1
246 408 1
246 440 1
246 496 1
246 512 1
246 544 1
247 202 1
247 218 1
247 250 1
247 397 1
247 413 1
247 445 1
247 482 1
247 498 1
247 530 1
248 207 1
248 223 1
248 255 1
248 400 1
248 416 1
248 448 1
248 487 1
248 503 1
248 535 1
249 205 1
249 221 1
249 253 1
249 395 1
249 411 1
249 443 1
249 483 1
249 499 1
249 531 1
250 208 1
250 224 1
250 256 1
250 385 1
250 401 1
250 433 1
250 489 1
250 505 1
250 537 1
251 194 1
251 210 1
251 242 1
251 387 1
251 403 1
251 435 1
251 485 1
251 501 1
251 533 1
252 203 1
252 219 1
252 251 1
252 398 1
252 414 1
252 446 1
252 486 1
252 502 1
252 534 1
253 193 1
253 209 1
253 241 1
253 386 1
253 402 1
253 434 1
253 492 1
253 508 1
253 540 1
254 195 1
254 211 1
254 243 1
254 390 1
254 406 1
254 438 1
254 488 1
254 504 1
254 536 1
255 198 1
255 214 1
255 246 1
255 388 1
255 404 1
255 436 1
255 490 1
255 506 1
255 538 1
256 196 1
256 212 1
256 244 1
256 391 1
256 407 1
256 439 1
256 493 1
256 509 1
256 541 1
257 199 1
257 231 1
257 263 1
257 393 1
257 425 1
257 457 1
257 491 1
257 523 1
257 555 1
258 201 1
258 233 1
258 265 1
258 396 1
258 428 1
258 460 1
258 494 1
258 526 1
258 558 1
259 204 1
259 236 1
259 268 1
259 389 1
259 421 1
259 453 1
259 495 1
259 527 1
259 559 1
260 200 1
260 232 1
260 264 1
260 394 1
260 426 1
260 458 1
260 481 1
260 513 1
260 545 1
261 206 1
261 238 1
261 270 1
261 399 1
261 431 1
261 463 1
261 484 1
261 516 1
261 548 1
262 197 1
262 229 1
262 261 1
262 392 1
262 424 1
262 456 1
262 496 1
262 528 1
262 560 1
263 202 1
263 234 1
263 266 1
263 397 1
263 429 1
263 461 1
263 482 1
263 514 1
263 546 1
264 207 1
264 239 1
264 271 1
264 400 1
264 432 1
264 464 1
264 487 1
264 519 1
264 551 1
265 205 1
265 237 1
265 269 1
265 395 1
265 427 1
265 459 1
265 483 1
265 515 1
265 547 1
266 208 1
266 240 1
266 272 1
266 385 1
266 417 1
266 449 1
266 489 1
266 521 1
266 553 1
267 194 1
267 226 1
267 258 1
267 387 1
267 419 1
267 451 1
267 485 1
267 517 1
267 549 1
268 203 1
268 235 1
268 267 1
268 398 1
268 430 1
268 462 1
268 486 1
268 518 1
268 550 1
269 193 1
269 225 1
269 257 1
269 386 1
269 418 1
269 450 1
269 492 1
269 524 1
269 556 1
270 195 1
270 227 1
270 259 1
270 390 1
270 422 1
270 454 1
270 488 1
270 520 1
270 552 1
271 198 1
271 230 1
271 262 1
271 388 1
271 420 1
271 452 1
271 490 1
271 522 1
271 554 1
272 196 1
272 228 1
272 260 1
272 391 1
272 423 1
272 455 1
272 493 1
272 525 1
272 557 1
273 215 1
273 231 1
273 279 1
273 409 1
273 425 1
273 473 1
273 507 1
273 523 1
273 571 1
274 217 1
274 233 1
274 281 1
274 412 1
274 428 1
274 476 1
274 510 1
274 526 1
274 574 1
275 220 1
275 236 1
275 284 1
275 405 1
275 421 1
275 469 1
275 511 1
275 527 1
275 575 1
276 216 1
276 232 1
276 280 1
276 410 1
276 426 1
276 474 1
276 497 1
276 513 1
276 561 1
277 222 1
277 238 1
277 286 1
277 415 1
277 431 1
277 479 1
277 500 1
277 516 1
277 564 1
278 213 1
278 229 1
278 277 1
278 408 1
278 424 1
278 472 1
278 512 1
278 528 1
278 576 1
279 218 1
279 234 1
279 282 1
279 413 1
279 429 1
279 477 1
279 498 1
279 514 1
279 562 1
280 223 1
280 239 1
280 287 1
280 416 1
280 432 1
280 480 1
280 503 1
280 519 1
280 567 1
281 221 1
281 237 1
281 285 1
281 411 1
281 427 1
281 475 1
281 499 1
281 515 1
281 563 1
282 224 1
282 240 1
282 288 1
282 401 1
282 417 1
282 465 1
282 505 1
282 521 1
282 569 1
283 210 1
283 226 1
283 274 1
283 403 1
283 419 1
283 467 1
283 501 1
283 517 1
283 565 1
284 219 1
284 235 1
284 283 1
284 414 1
284 430 1
284 478 1
284 502 1
284 518 1
284 566 1
285 209 1
285 225 1
285 273 1
285 402 1
285 418 1
285 466 1
285 508 1
285 524 1
285 572 1
286 211 1
286 227 1
286 275 1
286 406 1
286 422 1
286 470 1
286 504 1
286 520 1
286 568 1
287 214 1
287 230 1
287 278 1
287 404 1
287 420 1
287 468 1
287 506 1
287 522 1
287 570 1
288 212 1
288 228 1
288 276 1
288 407 1
288 423 1
288 471 1
288 509 1
288 525 1
288 573 1
