%%MatrixMarket matrix coordinate integer general
96 192 1536
1 1 1
1 13 1
1 16 1
1 19 1
1 97 1
1 109 1
1 112 1
1 115 1
1 121 1
1 133 1
1 136 1
1 139 1
1 145 1
1 157 1
1 160 1
1 163 1
2 2 1
2 14 1
2 17 1
2 20 1
2 98 1
2 110 1
2 113 1
2 116 1
2 122 1
2 134 1
2 137 1
2 140 1
2 146 1
2 158 1
2 161 1
2 164 1
3 3 1
3 15 1
3 18 1
3 21 1
3 99 1
3 111 1
3 114 1
3 117 1
3 123 1
3 135 1
3 138 1
3 141 1
3 147 1
3 159 1
3 162 1
3 165 1
4 4 1
4 13 1
4 16 1
4 22 1
4 100 1
4 109 1
4 112 1
4 118 1
4 124 1
4 133 1
4 136 1
4 142 1
4 148 1
4 157 1
4 160 1
4 166 1
5 5 1
5 14 1
5 17 1
5 23 1
5 101 1
5 110 1
5 113 1
5 119 1
5 125 1
5 134 1
5 137 1
5 143 1
5 149 1
5 158 1
5 161 1
5 167 1
6 6 1
6 15 1
6 18 1
6 24 1
6 102 1
6 111 1
6 114 1
6 120 1
6 126 1
6 135 1
6 138 1
6 144 1
6 150 1
6 159 1
6 162 1
6 168 1
7 7 1
7 13 1
7 19 1
7 22 1
7 103 1
7 109 1
7 115 1
7 118 1
7 127 1
7 133 1
7 139 1
7 142 1
7 151 1
7 157 1
7 163 1
7 166 1
8 8 1
8 14 1
8 20 1
8 23 1
8 104 1
8 110 1
8 116 1
8 119 1
8 128 1
8 134 1
8 140 1
8 143 1
8 152 1
8 158 1
8 164 1
8 167 1
9 9 1
9 15 1
9 21 1
9 24 1
9 105 1
9 111 1
9 117 1
9 120 1
9 129 1
9 135 1
9 141 1
9 144 1
9 153 1
9 159 1
9 165 1
9 168 1
10 10 1
10 16 1
10 19 1
10 22 1
10 106 1
10 112 1
10 115 1
10 118 1
10 130 1
10 136 1
10 139 1
10 142 1
10 154 1
10 160 1
10 163 1
10 166 1
11 11 1
11 17 1
11 20 1
11 23 1
11 107 1
11 113 1
11 116 1
11 119 1
11 131 1
11 137 1
11 140 1
11 143 1
11 155 1
11 161 1
11 164 1
11 167 1
12 12 1
12 18 1
12 21 1
12 24 1
12 108 1
12 114 1
12 117 1
12 120 1
12 132 1
12 138 1
12 141 1
12 144 1
12 156 1
12 162 1
12 165 1
12 168 1
13 25 1
13 37 1
13 40 1
13 43 1
13 97 1
13 109 1
13 112 1
13 115 1
13 121 1
13 133 1
13 136 1
13 139 1
13 169 1
13 181 1
13 184 1
13 187 1
14 26 1
14 38 1
14 41 1
14 44 1
14 98 1
14 110 1
14 113 1
14 116 1
14 122 1
14 134 1
14 137 1
14 140 1
14 170 1
14 182 1
14 185 1
14 188 1
15 27 1
15 39 1
15 42 1
15 45 1
15 99 1
15 111 1
15 114 1
15 117 1
15 123 1
15 135 1
15 138 1
15 141 1
15 171 1
15 183 1
15 186 1
15 189 1
16 28 1
16 37 1
16 40 1
16 46 1
16 100 1
16 109 1
16 112 1
16 118 1
16 124 1
16 133 1
16 136 1
16 142 1
16 172 1
16 181 1
16 184 1
16 190 1
17 29 1
17 38 1
17 41 1
17 47 1
17 101 1
17 110 1
17 113 1
17 119 1
17 125 1
17 134 1
17 137 1
17 143 1
17 173 1
17 182 1
17 185 1
17 191 1
18 30 1
18 39 1
18 42 1
18 48 1
18 102 1
18 111 1
18 114 1
18 120 1
18 126 1
18 135 1
18 138 1
18 144 1
18 174 1
18 183 1
18 186 1
18 192 1
19 31 1
19 37 1
19 43 1
19 46 1
19 103 1
19 109 1
19 115 1
19 118 1
19 127 1
19 133 1
19 139 1
19 142 1
19 175 1
19 181 1
19 187 1
19 190 1
20 32 1
20 38 1
20 44 1
20 47 1
20 104 1
20 110 1
20 116 1
20 119 1
20 128 1
20 134 1
20 140 1
20 143 1
20 176 1
20 182 1
20 188 1
20 191 1
21 33 1
21 39 1
21 45 1
21 48 1
21 105 1
21 111 1
21 117 1
21 120 1
21 129 1
21 135 1
21 141 1
21 144 1
21 177 1
21 183 1
21 189 1
21 192 1
22 34 1
22 40 1
22 43 1
22 46 1
22 106 1
22 112 1
22 115 1
22 118 1
22 130 1
22 136 1
22 139 1
22 142 1
22 178 1
22 184 1
22 187 1
22 190 1
23 35 1
23 41 1
23 44 1
23 47 1
23 107 1
23 113 1
23 116 1
23 119 1
23 131 1
23 137 1
23 140 1
23 143 1
23 179 1
23 185 1
23 188 1
23 191 1
24 36 1
24 42 1
24 45 1
24 48 1
24 108 1
24 114 1
24 117 1
24 120 1
24 132 1
24 138 1
24 141 1
24 144 1
24 180 1
24 186 1
24 189 1
24 192 1
25 49 1
25 61 1
25 64 1
25 67 1
25 97 1
25 109 1
25 112 1
25 115 1
25 145 1
25 157 1
25 160 1
25 163 1
25 169 1
25 181 1
25 184 1
25 187 1
26 50 1
26 62 1
26 65 1
26 68 1
26 98 1
26 110 1
26 113 1
26 116 1
26 146 1
26 158 1
26 161 1
26 164 1
26 170 1
26 182 1
26 185 1
26 188 1
27 51 1
27 63 1
27 66 1
27 69 1
27 99 1
27 111 1
27 114 1
27 117 1
27 147 1
27 159 1
27 162 1
27 165 1
27 171 1
27 183 1
27 186 1
27 189 1
28 52 1
28 61 1
28 64 1
28 70 1
28 100 1
28 109 1
28 112 1
28 118 1
28 148 1
28 157 1
28 160 1
28 166 1
28 172 1
28 181 1
28 184 1
28 190 1
29 53 1
29 62 1
29 65 1
29 71 1
29 101 1
29 110 1
29 113 1
29 119 1
29 149 1
29 158 1
29 161 1
29 167 1
29 173 1
29 182 1
29 185 1
29 191 1
30 54 1
30 63 1
30 66 1
30 72 1
30 102 1
30 111 1
30 114 1
30 120 1
30 150 1
30 159 1
30 162 1
30 168 1
30 174 1
30 183 1
30 186 1
30 192 1
31 55 1
31 61 1
31 67 1
31 70 1
31 103 1
31 109 1
31 115 1
31 118 1
31 151 1
31 157 1
31 163 1
31 166 1
31 175 1
31 181 1
31 187 1
31 190 1
32 56 1
32 62 1
32 68 1
32 71 1
32 104 1
32 110 1
32 116 1
32 119 1
32 152 1
32 158 1
32 164 1
32 167 1
32 176 1
32 182 1
32 188 1
32 191 1
33 57 1
33 63 1
33 69 1
33 72 1
33 105 1
33 111 1
33 117 1
33 120 1
33 153 1
33 159 1
33 165 1
33 168 1
33 177 1
33 183 1
33 189 1
33 192 1
34 58 1
34 64 1
34 67 1
34 70 1
34 106 1
34 112 1
34 115 1
34 118 1
34 154 1
34 160 1
34 163 1
34 166 1
34 178 1
34 184 1
34 187 1
34 190 1
35 59 1
35 65 1
35 68 1
35 71 1
35 107 1
35 113 1
35 116 1
35 119 1
35 155 1
35 161 1
35 164 1
35 167 1
35 179 1
35 185 1
35 188 1
35 191 1
36 60 1
36 66 1
36 69 1
36 72 1
36 108 1
36 114 1
36 117 1
36 120 1
36 156 1
36 162 1
36 165 1
36 168 1
36 180 1
36 186 1
36 189 1
36 192 1
37 73 1
37 85 1
37 88 1
37 91 1
37 121 1
37 133 1
37 136 1
37 139 1
37 145 1
37 157 1
37 160 1
37 163 1
37 169 1
37 181 1
37 184 1
37 187 1
38 74 1
38 86 1
38 89 1
38 92 1
38 122 1
38 134 1
38 137 1
38 140 1
38 146 1
38 158 1
38 161 1
38 164 1
38 170 1
38 182 1
38 185 1
38 188 1
39 75 1
39 87 1
39 90 1
39 93 1
39 123 1
39 135 1
39 138 1
39 141 1
39 147 1
39 159 1
39 162 1
39 165 1
39 171 1
39 183 1
39 186 1
39 189 1
40 76 1
40 85 1
40 88 1
40 94 1
40 124 1
40 133 1
40 136 1
40 142 1
40 148 1
40 157 1
40 160 1
40 166 1
40 172 1
40 181 1
40 184 1
40 190 1
41 77 1
41 86 1
41 89 1
41 95 1
41 125 1
41 134 1
41 137 1
41 143 1
41 149 1
41 158 1
41 161 1
41 167 1
41 173 1
41 182 1
41 185 1
41 191 1
42 78 1
42 87 1
42 90 1
42 96 1
42 126 1
42 135 1
42 138 1
42 144 1
42 150 1
42 159 1
42 162 1
42 168 1
42 174 1
42 183 1
42 186 1
42 192 1
43 79 1
43 85 1
43 91 1
43 94 1
43 127 1
43 133 1
43 139 1
43 142 1
43 151 1
43 157 1
43 163 1
43 166 1
43 175 1
43 181 1
43 187 1
43 190 1
44 80 1
44 86 1
44 92 1
44 95 1
44 128 1
44 134 1
44 140 1
44 143 1
44 152 1
44 158 1
44 164 1
44 167 1
44 176 1
44 182 1
44 188 1
44 191 1
45 81 1
45 87 1
45 93 1
45 96 1
45 129 1
45 135 1
45 141 1
45 144 1
45 153 1
45 159 1
45 165 1
45 168 1
45 177 1
45 183 1
45 189 1
45 192 1
46 82 1
46 88 1
46 91 1
46 94 1
46 130 1
46 136 1
46 139 1
46 142 1
46 154 1
46 160 1
46 163 1
46 166 1
46 178 1
46 184 1
46 187 1
46 190 1
47 83 1
47 89 1
47 92 1
47 95 1
47 131 1
47 137 1
47 140 1
47 143 1
47 155 1
47 161 1
47 164 1
47 167 1
47 179 1
47 185 1
47 188 1
47 191 1
48 84 1
48 90 1
48 93 1
48 96 1
48 132 1
48 138 1
48 141 1
48 144 1
48 156 1
48 162 1
48 165 1
48 168 1
48 180 1
48 186 1
48 189 1
48 192 1
49 1 1
49 15 1
49 20 1
49 23 1
49 97 1
49 111 1
49 116 1
49 119 1
49 121 1
49 135 1
49 140 1
49 143 1
49 170 1
49 181 1
49 189 1
49 192 1
50 2 1
50 13 1
50 21 1
50 24 1
50 98 1
50 109 1
50 117 1
50 120 1
50 122 1
50 133 1
50 141 1
50 144 1
50 171 1
50 182 1
50 187 1
50 190 1
51 3 1
51 14 1
51 19 1
51 22 1
51 99 1
51 110 1
51 115 1
51 118 1
51 123 1
51 134 1
51 139 1
51 142 1
51 169 1
51 183 1
51 188 1
51 191 1
52 4 1
52 18 1
52 20 1
52 23 1
52 100 1
52 114 1
52 116 1
52 119 1
52 124 1
52 138 1
52 140 1
52 143 1
52 173 1
52 184 1
52 189 1
52 192 1
53 5 1
53 16 1
53 21 1
53 24 1
53 101 1
53 112 1
53 117 1
53 120 1
53 125 1
53 136 1
53 141 1
53 144 1
53 174 1
53 185 1
53 187 1
53 190 1
54 6 1
54 17 1
54 19 1
54 22 1
54 102 1
54 113 1
54 115 1
54 118 1
54 126 1
54 137 1
54 139 1
54 142 1
54 172 1
54 186 1
54 188 1
54 191 1
55 9 1
55 15 1
55 18 1
55 20 1
55 105 1
55 111 1
55 114 1
55 116 1
55 129 1
55 135 1
55 138 1
55 140 1
55 175 1
55 181 1
55 184 1
55 189 1
56 7 1
56 13 1
56 16 1
56 21 1
56 103 1
56 109 1
56 112 1
56 117 1
56 127 1
56 133 1
56 136 1
56 141 1
56 176 1
56 182 1
56 185 1
56 187 1
57 8 1
57 14 1
57 17 1
57 19 1
57 104 1
57 110 1
57 113 1
57 115 1
57 128 1
57 134 1
57 137 1
57 139 1
57 177 1
57 183 1
57 186 1
57 188 1
58 12 1
58 15 1
58 18 1
58 23 1
58 108 1
58 111 1
58 114 1
58 119 1
58 132 1
58 135 1
58 138 1
58 143 1
58 178 1
58 181 1
58 184 1
58 192 1
59 10 1
59 13 1
59 16 1
59 24 1
59 106 1
59 109 1
59 112 1
59 120 1
59 130 1
59 133 1
59 136 1
59 144 1
59 179 1
59 182 1
59 185 1
59 190 1
60 11 1
60 14 1
60 17 1
60 22 1
60 107 1
60 110 1
60 113 1
60 118 1
60 131 1
60 134 1
60 137 1
60 142 1
60 180 1
60 183 1
60 186 1
60 191 1
61 25 1
61 39 1
61 44 1
61 47 1
61 97 1
61 111 1
61 116 1
61 119 1
61 145 1
61 159 1
61 164 1
61 167 1
61 170 1
61 181 1
61 189 1
61 192 1
62 26 1
62 37 1
62 45 1
62 48 1
62 98 1
62 109 1
62 117 1
62 120 1
62 146 1
62 157 1
62 165 1
62 168 1
62 171 1
62 182 1
62 187 1
62 190 1
63 27 1
63 38 1
63 43 1
63 46 1
63 99 1
63 110 1
63 115 1
63 118 1
63 147 1
63 158 1
63 163 1
63 166 1
63 169 1
63 183 1
63 188 1
63 191 1
64 28 1
64 42 1
64 44 1
64 47 1
64 100 1
64 114 1
64 116 1
64 119 1
64 148 1
64 162 1
64 164 1
64 167 1
64 173 1
64 184 1
64 189 1
64 192 1
65 29 1
65 40 1
65 45 1
65 48 1
65 101 1
65 112 1
65 117 1
65 120 1
65 149 1
65 160 1
65 165 1
65 168 1
65 174 1
65 185 1
65 187 1
65 190 1
66 30 1
66 41 1
66 43 1
66 46 1
66 102 1
66 113 1
66 115 1
66 118 1
66 150 1
66 161 1
66 163 1
66 166 1
66 172 1
66 186 1
66 188 1
66 191 1
67 33 1
67 39 1
67 42 1
67 44 1
67 105 1
67 111 1
67 114 1
67 116 1
67 153 1
67 159 1
67 162 1
67 164 1
67 175 1
67 181 1
67 184 1
67 189 1
68 31 1
68 37 1
68 40 1
68 45 1
68 103 1
68 109 1
68 112 1
68 117 1
68 151 1
68 157 1
68 160 1
68 165 1
68 176 1
68 182 1
68 185 1
68 187 1
69 32 1
69 38 1
69 41 1
69 43 1
69 104 1
69 110 1
69 113 1
69 115 1
69 152 1
69 158 1
69 161 1
69 163 1
69 177 1
69 183 1
69 186 1
69 188 1
70 36 1
70 39 1
70 42 1
70 47 1
70 108 1
70 111 1
70 114 1
70 119 1
70 156 1
70 159 1
70 162 1
70 167 1
70 178 1
70 181 1
70 184 1
70 192 1
71 34 1
71 37 1
71 40 1
71 48 1
71 106 1
71 109 1
71 112 1
71 120 1
71 154 1
71 157 1
71 160 1
71 168 1
71 179 1
71 182 1
71 185 1
71 190 1
72 35 1
72 38 1
72 41 1
72 46 1
72 107 1
72 110 1
72 113 1
72 118 1
72 155 1
72 158 1
72 161 1
72 166 1
72 180 1
72 183 1
72 186 1
72 191 1
73 49 1
73 63 1
73 68 1
73 71 1
73 121 1
73 135 1
73 140 1
73 143 1
73 145 1
73 159 1
73 164 1
73 167 1
73 170 1
73 181 1
73 189 1
73 192 1
74 50 1
74 61 1
74 69 1
74 72 1
74 122 1
74 133 1
74 141 1
74 144 1
74 146 1
74 157 1
74 165 1
74 168 1
74 171 1
74 182 1
74 187 1
74 190 1
75 51 1
75 62 1
75 67 1
75 70 1
75 123 1
75 134 1
75 139 1
75 142 1
75 147 1
75 158 1
75 163 1
75 166 1
75 169 1
75 183 1
75 188 1
75 191 1
76 52 1
76 66 1
76 68 1
76 71 1
76 124 1
76 138 1
76 140 1
76 143 1
76 148 1
76 162 1
76 164 1
76 167 1
76 173 1
76 184 1
76 189 1
76 192 1
77 53 1
77 64 1
77 69 1
77 72 1
77 125 1
77 136 1
77 141 1
77 144 1
77 149 1
77 160 1
77 165 1
77 168 1
77 174 1
77 185 1
77 187 1
77 190 1
78 54 1
78 65 1
78 67 1
78 70 1
78 126 1
78 137 1
78 139 1
78 142 1
78 150 1
78 161 1
78 163 1
78 166 1
78 172 1
78 186 1
78 188 1
78 191 1
79 57 1
79 63 1
79 66 1
79 68 1
79 129 1
79 135 1
79 138 1
79 140 1
79 153 1
79 159 1
79 162 1
79 164 1
79 175 1
79 181 1
79 184 1
79 189 1
80 55 1
80 61 1
80 64 1
80 69 1
80 127 1
80 133 1
80 136 1
80 141 1
80 151 1
80 157 1
80 160 1
80 165 1
80 176 1
80 182 1
80 185 1
80 187 1
81 56 1
81 62 1
81 65 1
81 67 1
81 128 1
81 134 1
81 137 1
81 139 1
81 152 1
81 158 1
81 161 1
81 163 1
81 177 1
81 183 1
81 186 1
81 188 1
82 60 1
82 63 1
82 66 1
82 71 1
82 132 1
82 135 1
82 138 1
82 143 1
82 156 1
82 159 1
82 162 1
82 167 1
82 178 1
82 181 1
82 184 1
82 192 1
83 58 1
83 61 1
83 64 1
83 72 1
83 130 1
83 133 1
83 136 1
83 144 1
83 154 1
83 157 1
83 160 1
83 168 1
83 179 1
83 182 1
83 185 1
83 190 1
84 59 1
84 62 1
84 65 1
84 70 1
84 131 1
84 134 1
84 137 1
84 142 1
84 155 1
84 158 1
84 161 1
84 166 1
84 180 1
84 183 1
84 186 1
84 191 1
85 73 1
85 87 1
85 92 1
85 95 1
85 97 1
85 111 1
85 116 1
85 119 1
85 121 1
85 135 1
85 140 1
85 143 1
85 145 1
85 159 1
85 164 1
85 167 1
86 74 1
86 85 1
86 93 1
86 96 1
86 98 1
86 109 1
86 117 1
86 120 1
86 122 1
86 133 1
86 141 1
86 144 1
86 146 1
86 157 1
86 165 1
86 168 1
87 75 1
87 86 1
87 91 1
87 94 1
87 99 1
87 110 1
87 115 1
87 118 1
87 123 1
87 134 1
87 139 1
87 142 1
87 147 1
87 158 1
87 163 1
87 166 1
88 76 1
88 90 1
88 92 1
88 95 1
88 100 1
88 114 1
88 116 1
88 119 1
88 124 1
88 138 1
88 140 1
88 143 1
88 148 1
88 162 1
88 164 1
88 167 1
89 77 1
89 88 1
89 93 1
89 96 1
89 101 1
89 112 1
89 117 1
89 120 1
89 125 1
89 136 1
89 141 1
89 144 1
89 149 1
89 160 1
89 165 1
89 168 1
90 78 1
90 89 1
90 91 1
90 94 1
90 102 1
90 113 1
90 115 1
90 118 1
90 126 1
90 137 1
90 139 1
90 142 1
90 150 1
90 161 1
90 163 1
90 166 1
91 81 1
91 87 1
91 90 1
91 92 1
91 105 1
91 111 1
91 114 1
91 116 1
91 129 1
91 135 1
91 138 1
91 140 1
91 153 1
91 159 1
91 162 1
91 164 1
92 79 1
92 85 1
92 88 1
92 93 1
92 103 1
92 109 1
92 112 1
92 117 1
92 127 1
92 133 1
92 136 1
92 141 1
92 151 1
92 157 1
92 160 1
92 165 1
93 80 1
93 86 1
93 89 1
93 91 1
93 104 1
93 110 1
93 113 1
93 115 1
93 128 1
93 134 1
93 137 1
93 139 1
93 152 1
93 158 1
93 161 1
93 163 1
94 84 1
94 87 1
94 90 1
94 95 1
94 108 1
94 111 1
94 114 1
94 119 1
94 132 1
94 135 1
94 138 1
94 143 1
94 156 1
94 159 1
94 162 1
94 167 1
95 82 1
95 85 1
95 88 1
95 96 1
95 106 1
95 109 1
95 112 1
95 120 1
95 130 1
95 133 1
95 136 1
95 144 1
95 154 1
95 157 1
95 160 1
95 168 1
96 83 1
96 86 1
96 89 1
96 94 1
96 107 1
96 110 1
96 113 1
96 118 1
96 131 1
96 134 1
96 137 1
96 142 1
96 155 1
96 158 1
96 161 1
96 166 1
