%%MatrixMarket matrix coordinate integer general
324 648 2916
1 1 1
1 55 1
1 73 1
1 109 1
1 163 1
1 181 1
1 325 1
1 379 1
1 397 1
2 2 1
2 56 1
2 74 1
2 110 1
2 164 1
2 182 1
2 326 1
2 380 1
2 398 1
3 3 1
3 57 1
3 75 1
3 111 1
3 165 1
3 183 1
3 327 1
3 381 1
3 399 1
4 4 1
4 58 1
4 76 1
4 112 1
4 166 1
4 184 1
4 328 1
4 382 1
4 400 1
5 5 1
5 59 1
5 77 1
5 113 1
5 167 1
5 185 1
5 329 1
5 383 1
5 401 1
6 6 1
6 60 1
6 78 1
6 114 1
6 168 1
6 186 1
6 330 1
6 384 1
6 402 1
7 7 1
7 61 1
7 79 1
7 115 1
7 169 1
7 187 1
7 331 1
7 385 1
7 403 1
8 8 1
8 62 1
8 80 1
8 116 1
8 170 1
8 188 1
8 332 1
8 386 1
8 404 1
9 9 1
9 63 1
9 81 1
9 117 1
9 171 1
9 189 1
9 333 1
9 387 1
9 405 1
10 10 1
10 64 1
10 82 1
10 118 1
10 172 1
10 190 1
10 334 1
10 388 1
10 406 1
11 11 1
11 65 1
11 83 1
11 119 1
11 173 1
11 191 1
11 335 1
11 389 1
11 407 1
12 12 1
12 66 1
12 84 1
12 120 1
12 174 1
12 192 1
12 336 1
12 390 1
12 408 1
13 13 1
13 67 1
13 85 1
13 121 1
13 175 1
13 193 1
13 337 1
13 391 1
13 409 1
14 14 1
14 68 1
14 86 1
14 122 1
14 176 1
14 194 1
14 338 1
14 392 1
14 410 1
15 15 1
15 69 1
15 87 1
15 123 1
15 177 1
15 195 1
15 339 1
15 393 1
15 411 1
16 16 1
16 70 1
16 88 1
16 124 1
16 178 1
16 196 1
16 340 1
16 394 1
16 412 1
17 17 1
17 71 1
17 89 1
17 125 1
17 179 1
17 197 1
17 341 1
17 395 1
17 413 1
18 18 1
18 72 1
18 90 1
18 126 1
18 180 1
18 198 1
18 342 1
18 396 1
18 414 1
19 19 1
19 55 1
19 91 1
19 127 1
19 163 1
19 199 1
19 343 1
19 379 1
19 415 1
20 20 1
20 56 1
20 92 1
20 128 1
20 164 1
20 200 1
20 344 1
20 380 1
20 416 1
21 21 1
21 57 1
21 93 1
21 129 1
21 165 1
21 201 1
21 345 1
21 381 1
21 417 1
22 22 1
22 58 1
22 94 1
22 130 1
22 166 1
22 202 1
22 346 1
22 382 1
22 418 1
23 23 1
23 59 1
23 95 1
23 131 1
23 167 1
23 203 1
23 347 1
23 383 1
23 419 1
24 24 1
24 60 1
24 96 1
24 132 1
24 168 1
24 204 1
24 348 1
24 384 1
24 420 1
25 25 1
25 61 1
25 97 1
25 133 1
25 169 1
25 205 1
25 349 1
25 385 1
25 421 1
26 26 1
26 62 1
26 98 1
26 134 1
26 170 1
26 206 1
26 350 1
26 386 1
26 422 1
27 27 1
27 63 1
27 99 1
27 135 1
27 171 1
27 207 1
27 351 1
27 387 1
27 423 1
28 28 1
28 64 1
28 100 1
28 136 1
28 172 1
28 208 1
28 352 1
28 388 1
28 424 1
29 29 1
29 65 1
29 101 1
29 137 1
29 173 1
29 209 1
29 353 1
29 389 1
29 425 1
30 30 1
30 66 1
30 102 1
30 138 1
30 174 1
30 210 1
30 354 1
30 390 1
30 426 1
31 31 1
31 67 1
31 103 1
31 139 1
31 175 1
31 211 1
31 355 1
31 391 1
31 427 1
32 32 1
32 68 1
32 104 1
32 140 1
32 176 1
32 212 1
32 356 1
32 392 1
32 428 1
33 33 1
33 69 1
33 105 1
33 141 1
33 177 1
33 213 1
33 357 1
33 393 1
33 429 1
34 34 1
34 70 1
34 106 1
34 142 1
34 178 1
34 214 1
34 358 1
34 394 1
34 430 1
35 35 1
35 71 1
35 107 1
35 143 1
35 179 1
35 215 1
35 359 1
35 395 1
35 431 1
36 36 1
36 72 1
36 108 1
36 144 1
36 180 1
36 216 1
36 360 1
36 396 1
36 432 1
37 37 1
37 73 1
37 91 1
37 145 1
37 181 1
37 199 1
37 361 1
37 397 1
37 415 1
38 38 1
38 74 1
38 92 1
38 146 1
38 182 1
38 200 1
38 362 1
38 398 1
38 416 1
39 39 1
39 75 1
39 93 1
39 147 1
39 183 1
39 201 1
39 363 1
39 399 1
39 417 1
40 40 1
40 76 1
40 94 1
40 148 1
40 184 1
40 202 1
40 364 1
40 400 1
40 418 1
41 41 1
41 77 1
41 95 1
41 149 1
41 185 1
41 203 1
41 365 1
41 401 1
41 419 1
42 42 1
42 78 1
42 96 1
42 150 1
42 186 1
42 204 1
42 366 1
42 402 1
42 420 1
43 43 1
43 79 1
43 97 1
43 151 1
43 187 1
43 205 1
43 367 1
43 403 1
43 421 1
44 44 1
44 80 1
44 98 1
44 152 1
44 188 1
44 206 1
44 368 1
44 404 1
44 422 1
45 45 1
45 81 1
45 99 1
45 153 1
45 189 1
45 207 1
45 369 1
45 405 1
45 423 1
46 46 1
46 82 1
46 100 1
46 154 1
46 190 1
46 208 1
46 370 1
46 406 1
46 424 1
47 47 1
47 83 1
47 101 1
47 155 1
47 191 1
47 209 1
47 371 1
47 407 1
47 425 1
48 48 1
48 84 1
48 102 1
48 156 1
48 192 1
48 210 1
48 372 1
48 408 1
48 426 1
49 49 1
49 85 1
49 103 1
49 157 1
49 193 1
49 211 1
49 373 1
49 409 1
49 427 1
50 50 1
50 86 1
50 104 1
50 158 1
50 194 1
50 212 1
50 374 1
50 410 1
50 428 1
51 51 1
51 87 1
51 105 1
51 159 1
51 195 1
51 213 1
51 375 1
51 411 1
51 429 1
52 52 1
52 88 1
52 106 1
52 160 1
52 196 1
52 214 1
52 376 1
52 412 1
52 430 1
53 53 1
53 89 1
53 107 1
53 161 1
53 197 1
53 215 1
53 377 1
53 413 1
53 431 1
54 54 1
54 90 1
54 108 1
54 162 1
54 198 1
54 216 1
54 378 1
54 414 1
54 432 1
55 1 1
55 55 1
55 73 1
55 217 1
55 271 1
55 289 1
55 433 1
55 487 1
55 505 1
56 2 1
56 56 1
56 74 1
56 218 1
56 272 1
56 290 1
56 434 1
56 488 1
56 506 1
57 3 1
57 57 1
57 75 1
57 219 1
57 273 1
57 291 1
57 435 1
57 489 1
57 507 1
58 4 1
58 58 1
58 76 1
58 220 1
58 274 1
58 292 1
58 436 1
58 490 1
58 508 1
59 5 1
59 59 1
59 77 1
59 221 1
59 275 1
59 293 1
59 437 1
59 491 1
59 509 1
60 6 1
60 60 1
60 78 1
60 222 1
60 276 1
60 294 1
60 438 1
60 492 1
60 510 1
61 7 1
61 61 1
61 79 1
61 223 1
61 277 1
61 295 1
61 439 1
61 493 1
61 511 1
62 8 1
62 62 1
62 80 1
62 224 1
62 278 1
62 296 1
62 440 1
62 494 1
62 512 1
63 9 1
63 63 1
63 81 1
63 225 1
63 279 1
63 297 1
63 441 1
63 495 1
63 513 1
64 10 1
64 64 1
64 82 1
64 226 1
64 280 1
64 298 1
64 442 1
64 496 1
64 514 1
65 11 1
65 65 1
65 83 1
65 227 1
65 281 1
65 299 1
65 443 1
65 497 1
65 515 1
66 12 1
66 66 1
66 84 1
66 228 1
66 282 1
66 300 1
66 444 1
66 498 1
66 516 1
67 13 1
67 67 1
67 85 1
67 229 1
67 283 1
67 301 1
67 445 1
67 499 1
67 517 1
68 14 1
68 68 1
68 86 1
68 230 1
68 284 1
68 302 1
68 446 1
68 500 1
68 518 1
69 15 1
69 69 1
69 87 1
69 231 1
69 285 1
69 303 1
69 447 1
69 501 1
69 519 1
70 16 1
70 70 1
70 88 1
70 232 1
70 286 1
70 304 1
70 448 1
70 502 1
70 520 1
71 17 1
71 71 1
71 89 1
71 233 1
71 287 1
71 305 1
71 449 1
71 503 1
71 521 1
72 18 1
72 72 1
72 90 1
72 234 1
72 288 1
72 306 1
72 450 1
72 504 1
72 522 1
73 19 1
73 55 1
73 91 1
73 235 1
73 271 1
73 307 1
73 451 1
73 487 1
73 523 1
74 20 1
74 56 1
74 92 1
74 236 1
74 272 1
74 308 1
74 452 1
74 488 1
74 524 1
75 21 1
75 57 1
75 93 1
75 237 1
75 273 1
75 309 1
75 453 1
75 489 1
75 525 1
76 22 1
76 58 1
76 94 1
76 238 1
76 274 1
76 310 1
76 454 1
76 490 1
76 526 1
77 23 1
77 59 1
77 95 1
77 239 1
77 275 1
77 311 1
77 455 1
77 491 1
77 527 1
78 24 1
78 60 1
78 96 1
78 240 1
78 276 1
78 312 1
78 456 1
78 492 1
78 528 1
79 25 1
79 61 1
79 97 1
79 241 1
79 277 1
79 313 1
79 457 1
79 493 1
79 529 1
80 26 1
80 62 1
80 98 1
80 242 1
80 278 1
80 314 1
80 458 1
80 494 1
80 530 1
81 27 1
81 63 1
81 99 1
81 243 1
81 279 1
81 315 1
81 459 1
81 495 1
81 531 1
82 28 1
82 64 1
82 100 1
82 244 1
82 280 1
82 316 1
82 460 1
82 496 1
82 532 1
83 29 1
83 65 1
83 101 1
83 245 1
83 281 1
83 317 1
83 461 1
83 497 1
83 533 1
84 30 1
84 66 1
84 102 1
84 246 1
84 282 1
84 318 1
84 462 1
84 498 1
84 534 1
85 31 1
85 67 1
85 103 1
85 247 1
85 283 1
85 319 1
85 463 1
85 499 1
85 535 1
86 32 1
86 68 1
86 104 1
86 248 1
86 284 1
86 320 1
86 464 1
86 500 1
86 536 1
87 33 1
87 69 1
87 105 1
87 249 1
87 285 1
87 321 1
87 465 1
87 501 1
87 537 1
88 34 1
88 70 1
88 106 1
88 250 1
88 286 1
88 322 1
88 466 1
88 502 1
88 538 1
89 35 1
89 71 1
89 107 1
89 251 1
89 287 1
89 323 1
89 467 1
89 503 1
89 539 1
90 36 1
90 72 1
90 108 1
90 252 1
90 288 1
90 324 1
90 468 1
90 504 1
90 540 1
91 37 1
91 73 1
91 91 1
91 253 1
91 289 1
91 307 1
91 469 1
91 505 1
91 523 1
92 38 1
92 74 1
92 92 1
92 254 1
92 290 1
92 308 1
92 470 1
92 506 1
92 524 1
93 39 1
93 75 1
93 93 1
93 255 1
93 291 1
93 309 1
93 471 1
93 507 1
93 525 1
94 40 1
94 76 1
94 94 1
94 256 1
94 292 1
94 310 1
94 472 1
94 508 1
94 526 1
95 41 1
95 77 1
95 95 1
95 257 1
95 293 1
95 311 1
95 473 1
95 509 1
95 527 1
96 42 1
96 78 1
96 96 1
96 258 1
96 294 1
96 312 1
96 474 1
96 510 1
96 528 1
97 43 1
97 79 1
97 97 1
97 259 1
97 295 1
97 313 1
97 475 1
97 511 1
97 529 1
98 44 1
98 80 1
98 98 1
98 260 1
98 296 1
98 314 1
98 476 1
98 512 1
98 530 1
99 45 1
99 81 1
99 99 1
99 261 1
99 297 1
99 315 1
99 477 1
99 513 1
99 531 1
100 46 1
100 82 1
100 100 1
100 262 1
100 298 1
100 316 1
100 478 1
100 514 1
100 532 1
101 47 1
101 83 1
101 101 1
101 263 1
101 299 1
101 317 1
101 479 1
101 515 1
101 533 1
102 48 1
102 84 1
102 102 1
102 264 1
102 300 1
102 318 1
102 480 1
102 516 1
102 534 1
103 49 1
103 85 1
103 103 1
103 265 1
103 301 1
103 319 1
103 481 1
103 517 1
103 535 1
104 50 1
104 86 1
104 104 1
104 266 1
104 302 1
104 320 1
104 482 1
104 518 1
104 536 1
105 51 1
105 87 1
105 105 1
105 267 1
105 303 1
105 321 1
105 483 1
105 519 1
105 537 1
106 52 1
106 88 1
106 106 1
106 268 1
106 304 1
106 322 1
106 484 1
106 520 1
106 538 1
107 53 1
107 89 1
107 107 1
107 269 1
107 305 1
107 323 1
107 485 1
107 521 1
107 539 1
108 54 1
108 90 1
108 108 1
108 270 1
108 306 1
108 324 1
108 486 1
108 522 1
108 540 1
109 109 1
109 163 1
109 181 1
109 217 1
109 271 1
109 289 1
109 541 1
109 595 1
109 613 1
110 110 1
110 164 1
110 182 1
110 218 1
110 272 1
110 290 1
110 542 1
110 596 1
110 614 1
111 111 1
111 165 1
111 183 1
111 219 1
111 273 1
111 291 1
111 543 1
111 597 1
111 615 1
112 112 1
112 166 1
112 184 1
112 220 1
112 274 1
112 292 1
112 544 1
112 598 1
112 616 1
113 113 1
113 167 1
113 185 1
113 221 1
113 275 1
113 293 1
113 545 1
113 599 1
113 617 1
114 114 1
114 168 1
114 186 1
114 222 1
114 276 1
114 294 1
114 546 1
114 600 1
114 618 1
115 115 1
115 169 1
115 187 1
115 223 1
115 277 1
115 295 1
115 547 1
115 601 1
115 619 1
116 116 1
116 170 1
116 188 1
116 224 1
116 278 1
116 296 1
116 548 1
116 602 1
116 620 1
117 117 1
117 171 1
117 189 1
117 225 1
117 279 1
117 297 1
117 549 1
117 603 1
117 621 1
118 118 1
118 172 1
118 190 1
118 226 1
118 280 1
118 298 1
118 550 1
118 604 1
118 622 1
119 119 1
119 173 1
119 191 1
119 227 1
119 281 1
119 299 1
119 551 1
119 605 1
119 623 1
120 120 1
120 174 1
120 192 1
120 228 1
120 282 1
120 300 1
120 552 1
120 606 1
120 624 1
121 121 1
121 175 1
121 193 1
121 229 1
121 283 1
121 301 1
121 553 1
121 607 1
121 625 1
122 122 1
122 176 1
122 194 1
122 230 1
122 284 1
122 302 1
122 554 1
122 608 1
122 626 1
123 123 1
123 177 1
123 195 1
123 231 1
123 285 1
123 303 1
123 555 1
123 609 1
123 627 1
124 124 1
124 178 1
124 196 1
124 232 1
124 286 1
124 304 1
124 556 1
124 610 1
124 628 1
125 125 1
125 179 1
125 197 1
125 233 1
125 287 1
125 305 1
125 557 1
125 611 1
125 629 1
126 126 1
126 180 1
126 198 1
126 234 1
126 288 1
126 306 1
126 558 1
126 612 1
126 630 1
127 127 1
127 163 1
127 199 1
127 235 1
127 271 1
127 307 1
127 559 1
127 595 1
127 631 1
128 128 1
128 164 1
128 200 1
128 236 1
128 272 1
128 308 1
128 560 1
128 596 1
128 632 1
129 129 1
129 165 1
129 201 1
129 237 1
129 273 1
129 309 1
129 561 1
129 597 1
129 633 1
130 130 1
130 166 1
130 202 1
130 238 1
130 274 1
130 310 1
130 562 1
130 598 1
130 634 1
131 131 1
131 167 1
131 203 1
131 239 1
131 275 1
131 311 1
131 563 1
131 599 1
131 635 1
132 132 1
132 168 1
132 204 1
132 240 1
132 276 1
132 312 1
132 564 1
132 600 1
132 636 1
133 133 1
133 169 1
133 205 1
133 241 1
133 277 1
133 313 1
133 565 1
133 601 1
133 637 1
134 134 1
134 170 1
134 206 1
134 242 1
134 278 1
134 314 1
134 566 1
134 602 1
134 638 1
135 135 1
135 171 1
135 207 1
135 243 1
135 279 1
135 315 1
135 567 1
135 603 1
135 639 1
136 136 1
136 172 1
136 208 1
136 244 1
136 280 1
136 316 1
136 568 1
136 604 1
136 640 1
137 137 1
137 173 1
137 209 1
137 245 1
137 281 1
137 317 1
137 569 1
137 605 1
137 641 1
138 138 1
138 174 1
138 210 1
138 246 1
138 282 1
138 318 1
138 570 1
138 606 1
138 642 1
139 139 1
139 175 1
139 211 1
139 247 1
139 283 1
139 319 1
139 571 1
139 607 1
139 643 1
140 140 1
140 176 1
140 212 1
140 248 1
140 284 1
140 320 1
140 572 1
140 608 1
140 644 1
141 141 1
141 177 1
141 213 1
141 249 1
141 285 1
141 321 1
141 573 1
141 609 1
141 645 1
142 142 1
142 178 1
142 214 1
142 250 1
142 286 1
142 322 1
142 574 1
142 610 1
142 646 1
143 143 1
143 179 1
143 215 1
143 251 1
143 287 1
143 323 1
143 575 1
143 611 1
143 647 1
144 144 1
144 180 1
144 216 1
144 252 1
144 288 1
144 324 1
144 576 1
144 612 1
144 648 1
145 145 1
145 181 1
145 199 1
145 253 1
145 289 1
145 307 1
145 577 1
145 613 1
145 631 1
146 146 1
146 182 1
146 200 1
146 254 1
146 290 1
146 308 1
146 578 1
146 614 1
146 632 1
147 147 1
147 183 1
147 201 1
147 255 1
147 291 1
147 309 1
147 579 1
147 615 1
147 633 1
148 148 1
148 184 1
148 202 1
148 256 1
148 292 1
148 310 1
148 580 1
148 616 1
148 634 1
149 149 1
149 185 1
149 203 1
149 257 1
149 293 1
149 311 1
149 581 1
149 617 1
149 635 1
150 150 1
150 186 1
150 204 1
150 258 1
150 294 1
150 312 1
150 582 1
150 618 1
150 636 1
151 151 1
151 187 1
151 205 1
151 259 1
151 295 1
151 313 1
151 583 1
151 619 1
151 637 1
152 152 1
152 188 1
152 206 1
152 260 1
152 296 1
152 314 1
152 584 1
152 620 1
152 638 1
153 153 1
153 189 1
153 207 1
153 261 1
153 297 1
153 315 1
153 585 1
153 621 1
153 639 1
154 154 1
154 190 1
154 208 1
154 262 1
154 298 1
154 316 1
154 586 1
154 622 1
154 640 1
155 155 1
155 191 1
155 209 1
155 263 1
155 299 1
155 317 1
155 587 1
155 623 1
155 641 1
156 156 1
156 192 1
156 210 1
156 264 1
156 300 1
156 318 1
156 588 1
156 624 1
156 642 1
157 157 1
157 193 1
157 211 1
157 265 1
157 301 1
157 319 1
157 589 1
157 625 1
157 643 1
158 158 1
158 194 1
158 212 1
158 266 1
158 302 1
158 320 1
158 590 1
158 626 1
158 644 1
159 159 1
159 195 1
159 213 1
159 267 1
159 303 1
159 321 1
159 591 1
159 627 1
159 645 1
160 160 1
160 196 1
160 214 1
160 268 1
160 304 1
160 322 1
160 592 1
160 628 1
160 646 1
161 161 1
161 197 1
161 215 1
161 269 1
161 305 1
161 323 1
161 593 1
161 629 1
161 647 1
162 162 1
162 198 1
162 216 1
162 270 1
162 306 1
162 324 1
162 594 1
162 630 1
162 648 1
163 1 1
163 71 1
163 79 1
163 112 1
163 169 1
163 193 1
163 223 1
163 273 1
163 296 1
164 2 1
164 72 1
164 82 1
164 120 1
164 177 1
164 198 1
164 232 1
164 282 1
164 290 1
165 3 1
165 55 1
165 76 1
165 116 1
165 166 1
165 189 1
165 220 1
165 277 1
165 301 1
166 4 1
166 61 1
166 85 1
166 117 1
166 175 1
166 197 1
166 229 1
166 278 1
166 302 1
167 5 1
167 56 1
167 78 1
167 124 1
167 174 1
167 182 1
167 234 1
167 286 1
167 293 1
168 6 1
168 64 1
168 87 1
168 110 1
168 180 1
168 190 1
168 221 1
168 272 1
168 294 1
169 7 1
169 57 1
169 80 1
169 121 1
169 170 1
169 194 1
169 224 1
169 274 1
169 297 1
170 8 1
170 58 1
170 81 1
170 122 1
170 171 1
170 181 1
170 225 1
170 283 1
170 305 1
171 9 1
171 67 1
171 89 1
171 109 1
171 179 1
171 187 1
171 233 1
171 284 1
171 291 1
172 10 1
172 59 1
172 83 1
172 126 1
172 178 1
172 185 1
172 218 1
172 288 1
172 298 1
173 11 1
173 60 1
173 84 1
173 113 1
173 164 1
173 186 1
173 226 1
173 275 1
173 299 1
174 12 1
174 69 1
174 90 1
174 114 1
174 172 1
174 195 1
174 227 1
174 276 1
174 300 1
175 13 1
175 62 1
175 86 1
175 125 1
175 176 1
175 183 1
175 230 1
175 279 1
175 289 1
176 14 1
176 63 1
176 73 1
176 111 1
176 163 1
176 184 1
176 217 1
176 287 1
176 295 1
177 15 1
177 65 1
177 88 1
177 118 1
177 167 1
177 191 1
177 222 1
177 280 1
177 303 1
178 16 1
178 66 1
178 74 1
178 119 1
178 168 1
178 192 1
178 231 1
178 281 1
178 304 1
179 17 1
179 68 1
179 75 1
179 115 1
179 165 1
179 188 1
179 219 1
179 271 1
179 292 1
180 18 1
180 70 1
180 77 1
180 123 1
180 173 1
180 196 1
180 228 1
180 285 1
180 306 1
181 20 1
181 71 1
181 93 1
181 138 1
181 169 1
181 206 1
181 250 1
181 273 1
181 310 1
182 19 1
182 72 1
182 95 1
182 130 1
182 177 1
182 214 1
182 241 1
182 282 1
182 324 1
183 36 1
183 55 1
183 97 1
183 141 1
183 166 1
183 211 1
183 246 1
183 277 1
183 314 1
184 30 1
184 61 1
184 98 1
184 132 1
184 175 1
184 212 1
184 245 1
184 278 1
184 315 1
185 35 1
185 56 1
185 100 1
185 133 1
185 174 1
185 216 1
185 237 1
185 286 1
185 308 1
186 27 1
186 64 1
186 101 1
186 127 1
186 180 1
186 203 1
186 251 1
186 272 1
186 316 1
187 34 1
187 57 1
187 94 1
187 137 1
187 170 1
187 207 1
187 249 1
187 274 1
187 319 1
188 33 1
188 58 1
188 103 1
188 136 1
188 171 1
188 215 1
188 240 1
188 283 1
188 320 1
189 24 1
189 67 1
189 104 1
189 128 1
189 179 1
189 201 1
189 239 1
189 284 1
189 307 1
190 32 1
190 59 1
190 96 1
190 129 1
190 178 1
190 200 1
190 235 1
190 288 1
190 311 1
191 31 1
191 60 1
191 105 1
191 143 1
191 164 1
191 208 1
191 248 1
191 275 1
191 312 1
192 22 1
192 69 1
192 106 1
192 135 1
192 172 1
192 209 1
192 247 1
192 276 1
192 321 1
193 29 1
193 62 1
193 99 1
193 131 1
193 176 1
193 199 1
193 244 1
193 279 1
193 323 1
194 28 1
194 63 1
194 107 1
194 144 1
194 163 1
194 205 1
194 236 1
194 287 1
194 309 1
195 26 1
195 65 1
195 102 1
195 140 1
195 167 1
195 204 1
195 243 1
195 280 1
195 317 1
196 25 1
196 66 1
196 108 1
196 139 1
196 168 1
196 213 1
196 242 1
196 281 1
196 318 1
197 23 1
197 68 1
197 91 1
197 142 1
197 165 1
197 202 1
197 252 1
197 271 1
197 313 1
198 21 1
198 70 1
198 92 1
198 134 1
198 173 1
198 210 1
198 238 1
198 285 1
198 322 1
199 53 1
199 79 1
199 93 1
199 151 1
199 193 1
199 206 1
199 255 1
199 296 1
199 310 1
200 54 1
200 82 1
200 95 1
200 159 1
200 198 1
200 214 1
200 264 1
200 290 1
200 324 1
201 37 1
201 76 1
201 97 1
201 148 1
201 189 1
201 211 1
201 259 1
201 301 1
201 314 1
202 43 1
202 85 1
202 98 1
202 157 1
202 197 1
202 212 1
202 260 1
202 302 1
202 315 1
203 38 1
203 78 1
203 100 1
203 156 1
203 182 1
203 216 1
203 268 1
203 293 1
203 308 1
204 46 1
204 87 1
204 101 1
204 162 1
204 190 1
204 203 1
204 254 1
204 294 1
204 316 1
205 39 1
205 80 1
205 94 1
205 152 1
205 194 1
205 207 1
205 256 1
205 297 1
205 319 1
206 40 1
206 81 1
206 103 1
206 153 1
206 181 1
206 215 1
206 265 1
206 305 1
206 320 1
207 49 1
207 89 1
207 104 1
207 161 1
207 187 1
207 201 1
207 266 1
207 291 1
207 307 1
208 41 1
208 83 1
208 96 1
208 160 1
208 185 1
208 200 1
208 270 1
208 298 1
208 311 1
209 42 1
209 84 1
209 105 1
209 146 1
209 186 1
209 208 1
209 257 1
209 299 1
209 312 1
210 51 1
210 90 1
210 106 1
210 154 1
210 195 1
210 209 1
210 258 1
210 300 1
210 321 1
211 44 1
211 86 1
211 99 1
211 158 1
211 183 1
211 199 1
211 261 1
211 289 1
211 323 1
212 45 1
212 73 1
212 107 1
212 145 1
212 184 1
212 205 1
212 269 1
212 295 1
212 309 1
213 47 1
213 88 1
213 102 1
213 149 1
213 191 1
213 204 1
213 262 1
213 303 1
213 317 1
214 48 1
214 74 1
214 108 1
214 150 1
214 192 1
214 213 1
214 263 1
214 304 1
214 318 1
215 50 1
215 75 1
215 91 1
215 147 1
215 188 1
215 202 1
215 253 1
215 292 1
215 313 1
216 52 1
216 77 1
216 92 1
216 155 1
216 196 1
216 210 1
216 267 1
216 306 1
216 322 1
217 1 1
217 71 1
217 79 1
217 331 1
217 381 1
217 404 1
217 553 1
217 602 1
217 626 1
218 2 1
218 72 1
218 82 1
218 340 1
218 390 1
218 398 1
218 551 1
218 600 1
218 624 1
219 3 1
219 55 1
219 76 1
219 328 1
219 385 1
219 409 1
219 549 1
219 607 1
219 629 1
220 4 1
220 61 1
220 85 1
220 337 1
220 386 1
220 410 1
220 557 1
220 608 1
220 615 1
221 5 1
221 56 1
221 78 1
221 342 1
221 394 1
221 401 1
221 555 1
221 605 1
221 628 1
222 6 1
222 64 1
222 87 1
222 329 1
222 380 1
222 402 1
222 556 1
222 606 1
222 614 1
223 7 1
223 57 1
223 80 1
223 332 1
223 382 1
223 405 1
223 554 1
223 603 1
223 613 1
224 8 1
224 58 1
224 81 1
224 333 1
224 391 1
224 413 1
224 541 1
224 611 1
224 619 1
225 9 1
225 67 1
225 89 1
225 341 1
225 392 1
225 399 1
225 547 1
225 597 1
225 620 1
226 10 1
226 59 1
226 83 1
226 326 1
226 396 1
226 406 1
226 552 1
226 609 1
226 630 1
227 11 1
227 60 1
227 84 1
227 334 1
227 383 1
227 407 1
227 558 1
227 610 1
227 617 1
228 12 1
228 69 1
228 90 1
228 335 1
228 384 1
228 408 1
228 545 1
228 596 1
228 618 1
229 13 1
229 62 1
229 86 1
229 338 1
229 387 1
229 397 1
229 543 1
229 595 1
229 616 1
230 14 1
230 63 1
230 73 1
230 325 1
230 395 1
230 403 1
230 544 1
230 601 1
230 625 1
231 15 1
231 65 1
231 88 1
231 330 1
231 388 1
231 411 1
231 542 1
231 612 1
231 622 1
232 16 1
232 66 1
232 74 1
232 339 1
232 389 1
232 412 1
232 550 1
232 599 1
232 623 1
233 17 1
233 68 1
233 75 1
233 327 1
233 379 1
233 400 1
233 548 1
233 598 1
233 621 1
234 18 1
234 70 1
234 77 1
234 336 1
234 393 1
234 414 1
234 546 1
234 604 1
234 627 1
235 20 1
235 71 1
235 93 1
235 358 1
235 381 1
235 418 1
235 569 1
235 602 1
235 639 1
236 19 1
236 72 1
236 95 1
236 349 1
236 390 1
236 432 1
236 571 1
236 600 1
236 645 1
237 36 1
237 55 1
237 97 1
237 354 1
237 385 1
237 422 1
237 564 1
237 607 1
237 644 1
238 30 1
238 61 1
238 98 1
238 353 1
238 386 1
238 423 1
238 563 1
238 608 1
238 631 1
239 35 1
239 56 1
239 100 1
239 345 1
239 394 1
239 416 1
239 566 1
239 605 1
239 642 1
240 27 1
240 64 1
240 101 1
240 359 1
240 380 1
240 424 1
240 565 1
240 606 1
240 648 1
241 34 1
241 57 1
241 94 1
241 357 1
241 382 1
241 427 1
241 568 1
241 603 1
241 647 1
242 33 1
242 58 1
242 103 1
242 348 1
242 391 1
242 428 1
242 560 1
242 611 1
242 633 1
243 24 1
243 67 1
243 104 1
243 347 1
243 392 1
243 415 1
243 574 1
243 597 1
243 634 1
244 32 1
244 59 1
244 96 1
244 343 1
244 396 1
244 419 1
244 562 1
244 609 1
244 646 1
245 31 1
245 60 1
245 105 1
245 356 1
245 383 1
245 420 1
245 561 1
245 610 1
245 632 1
246 22 1
246 69 1
246 106 1
246 355 1
246 384 1
246 429 1
246 575 1
246 596 1
246 640 1
247 29 1
247 62 1
247 99 1
247 352 1
247 387 1
247 431 1
247 576 1
247 595 1
247 637 1
248 28 1
248 63 1
248 107 1
248 344 1
248 395 1
248 417 1
248 570 1
248 601 1
248 638 1
249 26 1
249 65 1
249 102 1
249 351 1
249 388 1
249 425 1
249 559 1
249 612 1
249 635 1
250 25 1
250 66 1
250 108 1
250 350 1
250 389 1
250 426 1
250 572 1
250 599 1
250 636 1
251 23 1
251 68 1
251 91 1
251 360 1
251 379 1
251 421 1
251 573 1
251 598 1
251 643 1
252 21 1
252 70 1
252 92 1
252 346 1
252 393 1
252 430 1
252 567 1
252 604 1
252 641 1
253 53 1
253 79 1
253 93 1
253 363 1
253 404 1
253 418 1
253 584 1
253 626 1
253 639 1
254 54 1
254 82 1
254 95 1
254 372 1
254 398 1
254 432 1
254 582 1
254 624 1
254 645 1
255 37 1
255 76 1
255 97 1
255 367 1
255 409 1
255 422 1
255 589 1
255 629 1
255 644 1
256 43 1
256 85 1
256 98 1
256 368 1
256 410 1
256 423 1
256 590 1
256 615 1
256 631 1
257 38 1
257 78 1
257 100 1
257 376 1
257 401 1
257 416 1
257 587 1
257 628 1
257 642 1
258 46 1
258 87 1
258 101 1
258 362 1
258 402 1
258 424 1
258 588 1
258 614 1
258 648 1
259 39 1
259 80 1
259 94 1
259 364 1
259 405 1
259 427 1
259 585 1
259 613 1
259 647 1
260 40 1
260 81 1
260 103 1
260 373 1
260 413 1
260 428 1
260 593 1
260 619 1
260 633 1
261 49 1
261 89 1
261 104 1
261 374 1
261 399 1
261 415 1
261 579 1
261 620 1
261 634 1
262 41 1
262 83 1
262 96 1
262 378 1
262 406 1
262 419 1
262 591 1
262 630 1
262 646 1
263 42 1
263 84 1
263 105 1
263 365 1
263 407 1
263 420 1
263 592 1
263 617 1
263 632 1
264 51 1
264 90 1
264 106 1
264 366 1
264 408 1
264 429 1
264 578 1
264 618 1
264 640 1
265 44 1
265 86 1
265 99 1
265 369 1
265 397 1
265 431 1
265 577 1
265 616 1
265 637 1
266 45 1
266 73 1
266 107 1
266 377 1
266 403 1
266 417 1
266 583 1
266 625 1
266 638 1
267 47 1
267 88 1
267 102 1
267 370 1
267 411 1
267 425 1
267 594 1
267 622 1
267 635 1
268 48 1
268 74 1
268 108 1
268 371 1
268 412 1
268 426 1
268 581 1
268 623 1
268 636 1
269 50 1
269 75 1
269 91 1
269 361 1
269 400 1
269 421 1
269 580 1
269 621 1
269 643 1
270 52 1
270 77 1
270 92 1
270 375 1
270 414 1
270 430 1
270 586 1
270 627 1
270 641 1
271 112 1
271 169 1
271 193 1
271 331 1
271 381 1
271 404 1
271 441 1
271 499 1
271 521 1
272 120 1
272 177 1
272 198 1
272 340 1
272 390 1
272 398 1
272 438 1
272 496 1
272 519 1
273 116 1
273 166 1
273 189 1
273 328 1
273 385 1
273 409 1
273 446 1
273 495 1
273 505 1
274 117 1
274 175 1
274 197 1
274 337 1
274 386 1
274 410 1
274 433 1
274 503 1
274 511 1
275 124 1
275 174 1
275 182 1
275 342 1
275 394 1
275 401 1
275 443 1
275 492 1
275 516 1
276 110 1
276 180 1
276 190 1
276 329 1
276 380 1
276 402 1
276 444 1
276 501 1
276 522 1
277 121 1
277 170 1
277 194 1
277 332 1
277 382 1
277 405 1
277 449 1
277 500 1
277 507 1
278 122 1
278 171 1
278 181 1
278 333 1
278 391 1
278 413 1
278 435 1
278 487 1
278 508 1
279 109 1
279 179 1
279 187 1
279 341 1
279 392 1
279 399 1
279 436 1
279 493 1
279 517 1
280 126 1
280 178 1
280 185 1
280 326 1
280 396 1
280 406 1
280 447 1
280 497 1
280 520 1
281 113 1
281 164 1
281 186 1
281 334 1
281 383 1
281 407 1
281 448 1
281 498 1
281 506 1
282 114 1
282 172 1
282 195 1
282 335 1
282 384 1
282 408 1
282 434 1
282 504 1
282 514 1
283 125 1
283 176 1
283 183 1
283 338 1
283 387 1
283 397 1
283 439 1
283 489 1
283 512 1
284 111 1
284 163 1
284 184 1
284 325 1
284 395 1
284 403 1
284 440 1
284 490 1
284 513 1
285 118 1
285 167 1
285 191 1
285 330 1
285 388 1
285 411 1
285 450 1
285 502 1
285 509 1
286 119 1
286 168 1
286 192 1
286 339 1
286 389 1
286 412 1
286 437 1
286 488 1
286 510 1
287 115 1
287 165 1
287 188 1
287 327 1
287 379 1
287 400 1
287 445 1
287 494 1
287 518 1
288 123 1
288 173 1
288 196 1
288 336 1
288 393 1
288 414 1
288 442 1
288 491 1
288 515 1
289 138 1
289 169 1
289 206 1
289 358 1
289 381 1
289 418 1
289 456 1
289 499 1
289 536 1
290 130 1
290 177 1
290 214 1
290 349 1
290 390 1
290 432 1
290 459 1
290 496 1
290 533 1
291 141 1
291 166 1
291 211 1
291 354 1
291 385 1
291 422 1
291 460 1
291 495 1
291 539 1
292 132 1
292 175 1
292 212 1
292 353 1
292 386 1
292 423 1
292 452 1
292 503 1
292 525 1
293 133 1
293 174 1
293 216 1
293 345 1
293 394 1
293 416 1
293 463 1
293 492 1
293 537 1
294 127 1
294 180 1
294 203 1
294 359 1
294 380 1
294 424 1
294 454 1
294 501 1
294 538 1
295 137 1
295 170 1
295 207 1
295 357 1
295 382 1
295 427 1
295 455 1
295 500 1
295 523 1
296 136 1
296 171 1
296 215 1
296 348 1
296 391 1
296 428 1
296 468 1
296 487 1
296 529 1
297 128 1
297 179 1
297 201 1
297 347 1
297 392 1
297 415 1
297 462 1
297 493 1
297 530 1
298 129 1
298 178 1
298 200 1
298 343 1
298 396 1
298 419 1
298 458 1
298 497 1
298 534 1
299 143 1
299 164 1
299 208 1
299 356 1
299 383 1
299 420 1
299 457 1
299 498 1
299 540 1
300 135 1
300 172 1
300 209 1
300 355 1
300 384 1
300 429 1
300 451 1
300 504 1
300 527 1
301 131 1
301 176 1
301 199 1
301 352 1
301 387 1
301 431 1
301 466 1
301 489 1
301 526 1
302 144 1
302 163 1
302 205 1
302 344 1
302 395 1
302 417 1
302 465 1
302 490 1
302 535 1
303 140 1
303 167 1
303 204 1
303 351 1
303 388 1
303 425 1
303 453 1
303 502 1
303 524 1
304 139 1
304 168 1
304 213 1
304 350 1
304 389 1
304 426 1
304 467 1
304 488 1
304 532 1
305 142 1
305 165 1
305 202 1
305 360 1
305 379 1
305 421 1
305 461 1
305 494 1
305 531 1
306 134 1
306 173 1
306 210 1
306 346 1
306 393 1
306 430 1
306 464 1
306 491 1
306 528 1
307 151 1
307 193 1
307 206 1
307 363 1
307 404 1
307 418 1
307 481 1
307 521 1
307 536 1
308 159 1
308 198 1
308 214 1
308 372 1
308 398 1
308 432 1
308 478 1
308 519 1
308 533 1
309 148 1
309 189 1
309 211 1
309 367 1
309 409 1
309 422 1
309 477 1
309 505 1
309 539 1
310 157 1
310 197 1
310 212 1
310 368 1
310 410 1
310 423 1
310 485 1
310 511 1
310 525 1
311 156 1
311 182 1
311 216 1
311 376 1
311 401 1
311 416 1
311 474 1
311 516 1
311 537 1
312 162 1
312 190 1
312 203 1
312 362 1
312 402 1
312 424 1
312 483 1
312 522 1
312 538 1
313 152 1
313 194 1
313 207 1
313 364 1
313 405 1
313 427 1
313 482 1
313 507 1
313 523 1
314 153 1
314 181 1
314 215 1
314 373 1
314 413 1
314 428 1
314 469 1
314 508 1
314 529 1
315 161 1
315 187 1
315 201 1
315 374 1
315 399 1
315 415 1
315 475 1
315 517 1
315 530 1
316 160 1
316 185 1
316 200 1
316 378 1
316 406 1
316 419 1
316 479 1
316 520 1
316 534 1
317 146 1
317 186 1
317 208 1
317 365 1
317 407 1
317 420 1
317 480 1
317 506 1
317 540 1
318 154 1
318 195 1
318 209 1
318 366 1
318 408 1
318 429 1
318 486 1
318 514 1
318 527 1
319 158 1
319 183 1
319 199 1
319 369 1
319 397 1
319 431 1
319 471 1
319 512 1
319 526 1
320 145 1
320 184 1
320 205 1
320 377 1
320 403 1
320 417 1
320 472 1
320 513 1
320 535 1
321 149 1
321 191 1
321 204 1
321 370 1
321 411 1
321 425 1
321 484 1
321 509 1
321 524 1
322 150 1
322 192 1
322 213 1
322 371 1
322 412 1
322 426 1
322 470 1
322 510 1
322 532 1
323 147 1
323 188 1
323 202 1
323 361 1
323 400 1
323 421 1
323 476 1
323 518 1
323 531 1
324 155 1
324 196 1
324 210 1
324 375 1
324 414 1
324 430 1
324 473 1
324 515 1
324 528 1
