%%MatrixMarket matrix coordinate integer general
28 56 112
1 1 1
1 15 1
1 29 1
1 43 1
2 2 1
2 16 1
2 30 1
2 44 1
3 3 1
3 17 1
3 31 1
3 45 1
4 4 1
4 18 1
4 32 1
4 46 1
5 5 1
5 19 1
5 33 1
5 47 1
6 6 1
6 20 1
6 34 1
6 48 1
7 7 1
7 21 1
7 35 1
7 49 1
8 8 1
8 22 1
8 36 1
8 50 1
9 9 1
9 23 1
9 37 1
9 51 1
10 10 1
10 24 1
10 38 1
10 52 1
11 11 1
11 25 1
11 39 1
11 53 1
12 12 1
12 26 1
12 40 1
12 54 1
13 13 1
13 27 1
13 41 1
13 55 1
14 14 1
14 28 1
14 42 1
14 56 1
15 1 1
15 26 1
15 30 1
15 55 1
16 2 1
16 27 1
16 31 1
16 56 1
17 3 1
17 28 1
17 32 1
17 43 1
18 4 1
18 15 1
18 33 1
18 44 1
19 5 1
19 16 1
19 34 1
19 45 1
20 6 1
20 17 1
20 35 1
20 46 1
21 7 1
21 18 1
21 36 1
21 47 1
22 8 1
22 19 1
22 37 1
22 48 1
23 9 1
23 20 1
23 38 1
23 49 1
24 10 1
24 21 1
24 39 1
24 50 1
25 11 1
25 22 1
25 40 1
25 51 1
26 12 1
26 23 1
26 41 1
26 52 1
27 13 1
27 24 1
27 42 1
27 53 1
28 14 1
28 25 1
28 29 1
28 54 1
