%%MatrixMarket matrix coordinate integer general
46 92 184
1 1 1
1 24 1
1 47 1
1 70 1
2 2 1
2 25 1
2 48 1
2 71 1
3 3 1
3 26 1
3 49 1
3 72 1
4 4 1
4 27 1
4 50 1
4 73 1
5 5 1
5 28 1
5 51 1
5 74 1
6 6 1
6 29 1
6 52 1
6 75 1
7 7 1
7 30 1
7 53 1
7 76 1
8 8 1
8 31 1
8 54 1
8 77 1
9 9 1
9 32 1
9 55 1
9 78 1
10 10 1
10 33 1
10 56 1
10 79 1
11 11 1
11 34 1
11 57 1
11 80 1
12 12 1
12 35 1
12 58 1
12 81 1
13 13 1
13 36 1
13 59 1
13 82 1
14 14 1
14 37 1
14 60 1
14 83 1
15 15 1
15 38 1
15 61 1
15 84 1
16 16 1
16 39 1
16 62 1
16 85 1
17 17 1
17 40 1
17 63 1
17 86 1
18 18 1
18 41 1
18 64 1
18 87 1
19 19 1
19 42 1
19 65 1
19 88 1
20 20 1
20 43 1
20 66 1
20 89 1
21 21 1
21 44 1
21 67 1
21 90 1
22 22 1
22 45 1
22 68 1
22 91 1
23 23 1
23 46 1
23 69 1
23 92 1
24 1 1
24 43 1
24 48 1
24 90 1
25 2 1
25 44 1
25 49 1
25 91 1
26 3 1
26 45 1
26 50 1
26 92 1
27 4 1
27 46 1
27 51 1
27 70 1
28 5 1
28 24 1
28 52 1
28 71 1
29 6 1
29 25 1
29 53 1
29 72 1
30 7 1
30 26 1
30 54 1
30 73 1
31 8 1
31 27 1
31 55 1
31 74 1
32 9 1
32 28 1
32 56 1
32 75 1
33 10 1
33 29 1
33 57 1
33 76 1
34 11 1
34 30 1
34 58 1
34 77 1
35 12 1
35 31 1
35 59 1
35 78 1
36 13 1
36 32 1
36 60 1
36 79 1
37 14 1
37 33 1
37 61 1
37 80 1
38 15 1
38 34 1
38 62 1
38 81 1
39 16 1
39 35 1
39 63 1
39 82 1
40 17 1
40 36 1
40 64 1
40 83 1
41 18 1
41 37 1
41 65 1
41 84 1
42 19 1
42 38 1
42 66 1
42 85 1
43 20 1
43 39 1
43 67 1
43 86 1
44 21 1
44 40 1
44 68 1
44 87 1
45 22 1
45 41 1
45 69 1
45 88 1
46 23 1
46 42 1
46 47 1
46 89 1
