%%MatrixMarket matrix coordinate integer general
18 36 72
1 1 1
1 10 1
1 19 1
1 28 1
2 2 1
2 11 1
2 20 1
2 29 1
3 3 1
3 12 1
3 21 1
3 30 1
4 4 1
4 13 1
4 22 1
4 31 1
5 5 1
5 14 1
5 23 1
5 32 1
6 6 1
6 15 1
6 24 1
6 33 1
7 7 1
7 16 1
7 25 1
7 34 1
8 8 1
8 17 1
8 26 1
8 35 1
9 9 1
9 18 1
9 27 1
9 36 1
10 1 1
10 16 1
10 20 1
10 35 1
11 2 1
11 17 1
11 21 1
11 36 1
12 3 1
12 18 1
12 19 1
12 34 1
13 4 1
13 10 1
13 23 1
13 29 1
14 5 1
14 11 1
14 24 1
14 30 1
15 6 1
15 12 1
15 22 1
15 28 1
16 7 1
16 13 1
16 26 1
16 32 1
17 8 1
17 14 1
17 27 1
17 33 1
18 9 1
18 15 1
18 25 1
18 31 1
