%%MatrixMarket matrix coordinate integer general
288 576 2592
1 1 1
1 26 1
1 36 1
1 289 1
1 314 1
1 324 1
1 385 1
1 410 1
1 420 1
2 2 1
2 29 1
2 39 1
2 290 1
2 317 1
2 327 1
2 386 1
2 413 1
2 423 1
3 3 1
3 17 1
3 41 1
3 291 1
3 305 1
3 329 1
3 387 1
3 401 1
3 425 1
4 4 1
4 31 1
4 33 1
4 292 1
4 319 1
4 321 1
4 388 1
4 415 1
4 417 1
5 5 1
5 19 1
5 43 1
5 293 1
5 307 1
5 331 1
5 389 1
5 403 1
5 427 1
6 6 1
6 18 1
6 44 1
6 294 1
6 306 1
6 332 1
6 390 1
6 402 1
6 428 1
7 7 1
7 32 1
7 34 1
7 295 1
7 320 1
7 322 1
7 391 1
7 416 1
7 418 1
8 8 1
8 22 1
8 46 1
8 296 1
8 310 1
8 334 1
8 392 1
8 406 1
8 430 1
9 9 1
9 20 1
9 35 1
9 297 1
9 308 1
9 323 1
9 393 1
9 404 1
9 419 1
10 10 1
10 21 1
10 47 1
10 298 1
10 309 1
10 335 1
10 394 1
10 405 1
10 431 1
11 11 1
11 25 1
11 37 1
11 299 1
11 313 1
11 325 1
11 395 1
11 409 1
11 421 1
12 12 1
12 23 1
12 38 1
12 300 1
12 311 1
12 326 1
12 396 1
12 407 1
12 422 1
13 13 1
13 24 1
13 48 1
13 301 1
13 312 1
13 336 1
13 397 1
13 408 1
13 432 1
14 14 1
14 28 1
14 40 1
14 302 1
14 316 1
14 328 1
14 398 1
14 412 1
14 424 1
15 15 1
15 27 1
15 42 1
15 303 1
15 315 1
15 330 1
15 399 1
15 411 1
15 426 1
16 16 1
16 30 1
16 45 1
16 304 1
16 318 1
16 333 1
16 400 1
16 414 1
16 429 1
17 1 1
17 53 1
17 92 1
17 289 1
17 341 1
17 380 1
17 385 1
17 437 1
17 476 1
18 2 1
18 56 1
18 83 1
18 290 1
18 344 1
18 371 1
18 386 1
18 440 1
18 467 1
19 3 1
19 58 1
19 94 1
19 291 1
19 346 1
19 382 1
19 387 1
19 442 1
19 478 1
20 4 1
20 59 1
20 86 1
20 292 1
20 347 1
20 374 1
20 388 1
20 443 1
20 470 1
21 5 1
21 49 1
21 96 1
21 293 1
21 337 1
21 384 1
21 389 1
21 433 1
21 480 1
22 6 1
22 61 1
22 85 1
22 294 1
22 349 1
22 373 1
22 390 1
22 445 1
22 469 1
23 7 1
23 62 1
23 89 1
23 295 1
23 350 1
23 377 1
23 391 1
23 446 1
23 473 1
24 8 1
24 50 1
24 90 1
24 296 1
24 338 1
24 378 1
24 392 1
24 434 1
24 474 1
25 9 1
25 63 1
25 88 1
25 297 1
25 351 1
25 376 1
25 393 1
25 447 1
25 472 1
26 10 1
26 51 1
26 87 1
26 298 1
26 339 1
26 375 1
26 394 1
26 435 1
26 471 1
27 11 1
27 52 1
27 93 1
27 299 1
27 340 1
27 381 1
27 395 1
27 436 1
27 477 1
28 12 1
28 64 1
28 91 1
28 300 1
28 352 1
28 379 1
28 396 1
28 448 1
28 475 1
29 13 1
29 54 1
29 81 1
29 301 1
29 342 1
29 369 1
29 397 1
29 438 1
29 465 1
30 14 1
30 55 1
30 95 1
30 302 1
30 343 1
30 383 1
30 398 1
30 439 1
30 479 1
31 15 1
31 57 1
31 82 1
31 303 1
31 345 1
31 370 1
31 399 1
31 441 1
31 466 1
32 16 1
32 60 1
32 84 1
32 304 1
32 348 1
32 372 1
32 400 1
32 444 1
32 468 1
33 26 1
33 53 1
33 66 1
33 314 1
33 341 1
33 354 1
33 410 1
33 437 1
33 450 1
34 29 1
34 56 1
34 68 1
34 317 1
34 344 1
34 356 1
34 413 1
34 440 1
34 452 1
35 17 1
35 58 1
35 70 1
35 305 1
35 346 1
35 358 1
35 401 1
35 442 1
35 454 1
36 31 1
36 59 1
36 71 1
36 319 1
36 347 1
36 359 1
36 415 1
36 443 1
36 455 1
37 19 1
37 49 1
37 72 1
37 307 1
37 337 1
37 360 1
37 403 1
37 433 1
37 456 1
38 18 1
38 61 1
38 73 1
38 306 1
38 349 1
38 361 1
38 402 1
38 445 1
38 457 1
39 32 1
39 62 1
39 65 1
39 320 1
39 350 1
39 353 1
39 416 1
39 446 1
39 449 1
40 22 1
40 50 1
40 75 1
40 310 1
40 338 1
40 363 1
40 406 1
40 434 1
40 459 1
41 20 1
41 63 1
41 76 1
41 308 1
41 351 1
41 364 1
41 404 1
41 447 1
41 460 1
42 21 1
42 51 1
42 77 1
42 309 1
42 339 1
42 365 1
42 405 1
42 435 1
42 461 1
43 25 1
43 52 1
43 78 1
43 313 1
43 340 1
43 366 1
43 409 1
43 436 1
43 462 1
44 23 1
44 64 1
44 67 1
44 311 1
44 352 1
44 355 1
44 407 1
44 448 1
44 451 1
45 24 1
45 54 1
45 79 1
45 312 1
45 342 1
45 367 1
45 408 1
45 438 1
45 463 1
46 28 1
46 55 1
46 69 1
46 316 1
46 343 1
46 357 1
46 412 1
46 439 1
46 453 1
47 27 1
47 57 1
47 80 1
47 315 1
47 345 1
47 368 1
47 411 1
47 441 1
47 464 1
48 30 1
48 60 1
48 74 1
48 318 1
48 348 1
48 362 1
48 414 1
48 444 1
48 458 1
49 97 1
49 122 1
49 132 1
49 289 1
49 314 1
49 324 1
49 481 1
49 506 1
49 516 1
50 98 1
50 125 1
50 135 1
50 290 1
50 317 1
50 327 1
50 482 1
50 509 1
50 519 1
51 99 1
51 113 1
51 137 1
51 291 1
51 305 1
51 329 1
51 483 1
51 497 1
51 521 1
52 100 1
52 127 1
52 129 1
52 292 1
52 319 1
52 321 1
52 484 1
52 511 1
52 513 1
53 101 1
53 115 1
53 139 1
53 293 1
53 307 1
53 331 1
53 485 1
53 499 1
53 523 1
54 102 1
54 114 1
54 140 1
54 294 1
54 306 1
54 332 1
54 486 1
54 498 1
54 524 1
55 103 1
55 128 1
55 130 1
55 295 1
55 320 1
55 322 1
55 487 1
55 512 1
55 514 1
56 104 1
56 118 1
56 142 1
56 296 1
56 310 1
56 334 1
56 488 1
56 502 1
56 526 1
57 105 1
57 116 1
57 131 1
57 297 1
57 308 1
57 323 1
57 489 1
57 500 1
57 515 1
58 106 1
58 117 1
58 143 1
58 298 1
58 309 1
58 335 1
58 490 1
58 501 1
58 527 1
59 107 1
59 121 1
59 133 1
59 299 1
59 313 1
59 325 1
59 491 1
59 505 1
59 517 1
60 108 1
60 119 1
60 134 1
60 300 1
60 311 1
60 326 1
60 492 1
60 503 1
60 518 1
61 109 1
61 120 1
61 144 1
61 301 1
61 312 1
61 336 1
61 493 1
61 504 1
61 528 1
62 110 1
62 124 1
62 136 1
62 302 1
62 316 1
62 328 1
62 494 1
62 508 1
62 520 1
63 111 1
63 123 1
63 138 1
63 303 1
63 315 1
63 330 1
63 495 1
63 507 1
63 522 1
64 112 1
64 126 1
64 141 1
64 304 1
64 318 1
64 333 1
64 496 1
64 510 1
64 525 1
65 97 1
65 149 1
65 188 1
65 289 1
65 341 1
65 380 1
65 481 1
65 533 1
65 572 1
66 98 1
66 152 1
66 179 1
66 290 1
66 344 1
66 371 1
66 482 1
66 536 1
66 563 1
67 99 1
67 154 1
67 190 1
67 291 1
67 346 1
67 382 1
67 483 1
67 538 1
67 574 1
68 100 1
68 155 1
68 182 1
68 292 1
68 347 1
68 374 1
68 484 1
68 539 1
68 566 1
69 101 1
69 145 1
69 192 1
69 293 1
69 337 1
69 384 1
69 485 1
69 529 1
69 576 1
70 102 1
70 157 1
70 181 1
70 294 1
70 349 1
70 373 1
70 486 1
70 541 1
70 565 1
71 103 1
71 158 1
71 185 1
71 295 1
71 350 1
71 377 1
71 487 1
71 542 1
71 569 1
72 104 1
72 146 1
72 186 1
72 296 1
72 338 1
72 378 1
72 488 1
72 530 1
72 570 1
73 105 1
73 159 1
73 184 1
73 297 1
73 351 1
73 376 1
73 489 1
73 543 1
73 568 1
74 106 1
74 147 1
74 183 1
74 298 1
74 339 1
74 375 1
74 490 1
74 531 1
74 567 1
75 107 1
75 148 1
75 189 1
75 299 1
75 340 1
75 381 1
75 491 1
75 532 1
75 573 1
76 108 1
76 160 1
76 187 1
76 300 1
76 352 1
76 379 1
76 492 1
76 544 1
76 571 1
77 109 1
77 150 1
77 177 1
77 301 1
77 342 1
77 369 1
77 493 1
77 534 1
77 561 1
78 110 1
78 151 1
78 191 1
78 302 1
78 343 1
78 383 1
78 494 1
78 535 1
78 575 1
79 111 1
79 153 1
79 178 1
79 303 1
79 345 1
79 370 1
79 495 1
79 537 1
79 562 1
80 112 1
80 156 1
80 180 1
80 304 1
80 348 1
80 372 1
80 496 1
80 540 1
80 564 1
81 122 1
81 149 1
81 162 1
81 314 1
81 341 1
81 354 1
81 506 1
81 533 1
81 546 1
82 125 1
82 152 1
82 164 1
82 317 1
82 344 1
82 356 1
82 509 1
82 536 1
82 548 1
83 113 1
83 154 1
83 166 1
83 305 1
83 346 1
83 358 1
83 497 1
83 538 1
83 550 1
84 127 1
84 155 1
84 167 1
84 319 1
84 347 1
84 359 1
84 511 1
84 539 1
84 551 1
85 115 1
85 145 1
85 168 1
85 307 1
85 337 1
85 360 1
85 499 1
85 529 1
85 552 1
86 114 1
86 157 1
86 169 1
86 306 1
86 349 1
86 361 1
86 498 1
86 541 1
86 553 1
87 128 1
87 158 1
87 161 1
87 320 1
87 350 1
87 353 1
87 512 1
87 542 1
87 545 1
88 118 1
88 146 1
88 171 1
88 310 1
88 338 1
88 363 1
88 502 1
88 530 1
88 555 1
89 116 1
89 159 1
89 172 1
89 308 1
89 351 1
89 364 1
89 500 1
89 543 1
89 556 1
90 117 1
90 147 1
90 173 1
90 309 1
90 339 1
90 365 1
90 501 1
90 531 1
90 557 1
91 121 1
91 148 1
91 174 1
91 313 1
91 340 1
91 366 1
91 505 1
91 532 1
91 558 1
92 119 1
92 160 1
92 163 1
92 311 1
92 352 1
92 355 1
92 503 1
92 544 1
92 547 1
93 120 1
93 150 1
93 175 1
93 312 1
93 342 1
93 367 1
93 504 1
93 534 1
93 559 1
94 124 1
94 151 1
94 165 1
94 316 1
94 343 1
94 357 1
94 508 1
94 535 1
94 549 1
95 123 1
95 153 1
95 176 1
95 315 1
95 345 1
95 368 1
95 507 1
95 537 1
95 560 1
96 126 1
96 156 1
96 170 1
96 318 1
96 348 1
96 362 1
96 510 1
96 540 1
96 554 1
97 193 1
97 218 1
97 228 1
97 385 1
97 410 1
97 420 1
97 481 1
97 506 1
97 516 1
98 194 1
98 221 1
98 231 1
98 386 1
98 413 1
98 423 1
98 482 1
98 509 1
98 519 1
99 195 1
99 209 1
99 233 1
99 387 1
99 401 1
99 425 1
99 483 1
99 497 1
99 521 1
100 196 1
100 223 1
100 225 1
100 388 1
100 415 1
100 417 1
100 484 1
100 511 1
100 513 1
101 197 1
101 211 1
101 235 1
101 389 1
101 403 1
101 427 1
101 485 1
101 499 1
101 523 1
102 198 1
102 210 1
102 236 1
102 390 1
102 402 1
102 428 1
102 486 1
102 498 1
102 524 1
103 199 1
103 224 1
103 226 1
103 391 1
103 416 1
103 418 1
103 487 1
103 512 1
103 514 1
104 200 1
104 214 1
104 238 1
104 392 1
104 406 1
104 430 1
104 488 1
104 502 1
104 526 1
105 201 1
105 212 1
105 227 1
105 393 1
105 404 1
105 419 1
105 489 1
105 500 1
105 515 1
106 202 1
106 213 1
106 239 1
106 394 1
106 405 1
106 431 1
106 490 1
106 501 1
106 527 1
107 203 1
107 217 1
107 229 1
107 395 1
107 409 1
107 421 1
107 491 1
107 505 1
107 517 1
108 204 1
108 215 1
108 230 1
108 396 1
108 407 1
108 422 1
108 492 1
108 503 1
108 518 1
109 205 1
109 216 1
109 240 1
109 397 1
109 408 1
109 432 1
109 493 1
109 504 1
109 528 1
110 206 1
110 220 1
110 232 1
110 398 1
110 412 1
110 424 1
110 494 1
110 508 1
110 520 1
111 207 1
111 219 1
111 234 1
111 399 1
111 411 1
111 426 1
111 495 1
111 507 1
111 522 1
112 208 1
112 222 1
112 237 1
112 400 1
112 414 1
112 429 1
112 496 1
112 510 1
112 525 1
113 193 1
113 245 1
113 284 1
113 385 1
113 437 1
113 476 1
113 481 1
113 533 1
113 572 1
114 194 1
114 248 1
114 275 1
114 386 1
114 440 1
114 467 1
114 482 1
114 536 1
114 563 1
115 195 1
115 250 1
115 286 1
115 387 1
115 442 1
115 478 1
115 483 1
115 538 1
115 574 1
116 196 1
116 251 1
116 278 1
116 388 1
116 443 1
116 470 1
116 484 1
116 539 1
116 566 1
117 197 1
117 241 1
117 288 1
117 389 1
117 433 1
117 480 1
117 485 1
117 529 1
117 576 1
118 198 1
118 253 1
118 277 1
118 390 1
118 445 1
118 469 1
118 486 1
118 541 1
118 565 1
119 199 1
119 254 1
119 281 1
119 391 1
119 446 1
119 473 1
119 487 1
119 542 1
119 569 1
120 200 1
120 242 1
120 282 1
120 392 1
120 434 1
120 474 1
120 488 1
120 530 1
120 570 1
121 201 1
121 255 1
121 280 1
121 393 1
121 447 1
121 472 1
121 489 1
121 543 1
121 568 1
122 202 1
122 243 1
122 279 1
122 394 1
122 435 1
122 471 1
122 490 1
122 531 1
122 567 1
123 203 1
123 244 1
123 285 1
123 395 1
123 436 1
123 477 1
123 491 1
123 532 1
123 573 1
124 204 1
124 256 1
124 283 1
124 396 1
124 448 1
124 475 1
124 492 1
124 544 1
124 571 1
125 205 1
125 246 1
125 273 1
125 397 1
125 438 1
125 465 1
125 493 1
125 534 1
125 561 1
126 206 1
126 247 1
126 287 1
126 398 1
126 439 1
126 479 1
126 494 1
126 535 1
126 575 1
127 207 1
127 249 1
127 274 1
127 399 1
127 441 1
127 466 1
127 495 1
127 537 1
127 562 1
128 208 1
128 252 1
128 276 1
128 400 1
128 444 1
128 468 1
128 496 1
128 540 1
128 564 1
129 218 1
129 245 1
129 258 1
129 410 1
129 437 1
129 450 1
129 506 1
129 533 1
129 546 1
130 221 1
130 248 1
130 260 1
130 413 1
130 440 1
130 452 1
130 509 1
130 536 1
130 548 1
131 209 1
131 250 1
131 262 1
131 401 1
131 442 1
131 454 1
131 497 1
131 538 1
131 550 1
132 223 1
132 251 1
132 263 1
132 415 1
132 443 1
132 455 1
132 511 1
132 539 1
132 551 1
133 211 1
133 241 1
133 264 1
133 403 1
133 433 1
133 456 1
133 499 1
133 529 1
133 552 1
134 210 1
134 253 1
134 265 1
134 402 1
134 445 1
134 457 1
134 498 1
134 541 1
134 553 1
135 224 1
135 254 1
135 257 1
135 416 1
135 446 1
135 449 1
135 512 1
135 542 1
135 545 1
136 214 1
136 242 1
136 267 1
136 406 1
136 434 1
136 459 1
136 502 1
136 530 1
136 555 1
137 212 1
137 255 1
137 268 1
137 404 1
137 447 1
137 460 1
137 500 1
137 543 1
137 556 1
138 213 1
138 243 1
138 269 1
138 405 1
138 435 1
138 461 1
138 501 1
138 531 1
138 557 1
139 217 1
139 244 1
139 270 1
139 409 1
139 436 1
139 462 1
139 505 1
139 532 1
139 558 1
140 215 1
140 256 1
140 259 1
140 407 1
140 448 1
140 451 1
140 503 1
140 544 1
140 547 1
141 216 1
141 246 1
141 271 1
141 408 1
141 438 1
141 463 1
141 504 1
141 534 1
141 559 1
142 220 1
142 247 1
142 261 1
142 412 1
142 439 1
142 453 1
142 508 1
142 535 1
142 549 1
143 219 1
143 249 1
143 272 1
143 411 1
143 441 1
143 464 1
143 507 1
143 537 1
143 560 1
144 222 1
144 252 1
144 266 1
144 414 1
144 444 1
144 458 1
144 510 1
144 540 1
144 554 1
145 1 1
145 17 1
145 49 1
145 392 1
145 408 1
145 440 1
145 493 1
145 509 1
145 541 1
146 2 1
146 18 1
146 50 1
146 395 1
146 411 1
146 443 1
146 495 1
146 511 1
146 543 1
147 3 1
147 19 1
147 51 1
147 397 1
147 413 1
147 445 1
147 482 1
147 498 1
147 530 1
148 4 1
148 20 1
148 52 1
148 398 1
148 414 1
148 446 1
148 496 1
148 512 1
148 544 1
149 5 1
149 21 1
149 53 1
149 386 1
149 402 1
149 434 1
149 486 1
149 502 1
149 534 1
150 6 1
150 22 1
150 54 1
150 399 1
150 415 1
150 447 1
150 484 1
150 500 1
150 532 1
151 7 1
151 23 1
151 55 1
151 389 1
151 405 1
151 437 1
151 490 1
151 506 1
151 538 1
152 8 1
152 24 1
152 56 1
152 388 1
152 404 1
152 436 1
152 489 1
152 505 1
152 537 1
153 9 1
153 25 1
153 57 1
153 400 1
153 416 1
153 448 1
153 487 1
153 503 1
153 535 1
154 10 1
154 26 1
154 58 1
154 390 1
154 406 1
154 438 1
154 488 1
154 504 1
154 536 1
155 11 1
155 27 1
155 59 1
155 391 1
155 407 1
155 439 1
155 492 1
155 508 1
155 540 1
156 12 1
156 28 1
156 60 1
156 394 1
156 410 1
156 442 1
156 481 1
156 497 1
156 529 1
157 13 1
157 29 1
157 61 1
157 393 1
157 409 1
157 441 1
157 491 1
157 507 1
157 539 1
158 14 1
158 30 1
158 62 1
158 385 1
158 401 1
158 433 1
158 483 1
158 499 1
158 531 1
159 15 1
159 31 1
159 63 1
159 396 1
159 412 1
159 444 1
159 494 1
159 510 1
159 542 1
160 16 1
160 32 1
160 64 1
160 387 1
160 403 1
160 435 1
160 485 1
160 501 1
160 533 1
161 1 1
161 33 1
161 65 1
161 392 1
161 424 1
161 456 1
161 493 1
161 525 1
161 557 1
162 2 1
162 34 1
162 66 1
162 395 1
162 427 1
162 459 1
162 495 1
162 527 1
162 559 1
163 3 1
163 35 1
163 67 1
163 397 1
163 429 1
163 461 1
163 482 1
163 514 1
163 546 1
164 4 1
164 36 1
164 68 1
164 398 1
164 430 1
164 462 1
164 496 1
164 528 1
164 560 1
165 5 1
165 37 1
165 69 1
165 386 1
165 418 1
165 450 1
165 486 1
165 518 1
165 550 1
166 6 1
166 38 1
166 70 1
166 399 1
166 431 1
166 463 1
166 484 1
166 516 1
166 548 1
167 7 1
167 39 1
167 71 1
167 389 1
167 421 1
167 453 1
167 490 1
167 522 1
167 554 1
168 8 1
168 40 1
168 72 1
168 388 1
168 420 1
168 452 1
168 489 1
168 521 1
168 553 1
169 9 1
169 41 1
169 73 1
169 400 1
169 432 1
169 464 1
169 487 1
169 519 1
169 551 1
170 10 1
170 42 1
170 74 1
170 390 1
170 422 1
170 454 1
170 488 1
170 520 1
170 552 1
171 11 1
171 43 1
171 75 1
171 391 1
171 423 1
171 455 1
171 492 1
171 524 1
171 556 1
172 12 1
172 44 1
172 76 1
172 394 1
172 426 1
172 458 1
172 481 1
172 513 1
172 545 1
173 13 1
173 45 1
173 77 1
173 393 1
173 425 1
173 457 1
173 491 1
173 523 1
173 555 1
174 14 1
174 46 1
174 78 1
174 385 1
174 417 1
174 449 1
174 483 1
174 515 1
174 547 1
175 15 1
175 47 1
175 79 1
175 396 1
175 428 1
175 460 1
175 494 1
175 526 1
175 558 1
176 16 1
176 48 1
176 80 1
176 387 1
176 419 1
176 451 1
176 485 1
176 517 1
176 549 1
177 17 1
177 33 1
177 81 1
177 408 1
177 424 1
177 472 1
177 509 1
177 525 1
177 573 1
178 18 1
178 34 1
178 82 1
178 411 1
178 427 1
178 475 1
178 511 1
178 527 1
178 575 1
179 19 1
179 35 1
179 83 1
179 413 1
179 429 1
179 477 1
179 498 1
179 514 1
179 562 1
180 20 1
180 36 1
180 84 1
180 414 1
180 430 1
180 478 1
180 512 1
180 528 1
180 576 1
181 21 1
181 37 1
181 85 1
181 402 1
181 418 1
181 466 1
181 502 1
181 518 1
181 566 1
182 22 1
182 38 1
182 86 1
182 415 1
182 431 1
182 479 1
182 500 1
182 516 1
182 564 1
183 23 1
183 39 1
183 87 1
183 405 1
183 421 1
183 469 1
183 506 1
183 522 1
183 570 1
184 24 1
184 40 1
184 88 1
184 404 1
184 420 1
184 468 1
184 505 1
184 521 1
184 569 1
185 25 1
185 41 1
185 89 1
185 416 1
185 432 1
185 480 1
185 503 1
185 519 1
185 567 1
186 26 1
186 42 1
186 90 1
186 406 1
186 422 1
186 470 1
186 504 1
186 520 1
186 568 1
187 27 1
187 43 1
187 91 1
187 407 1
187 423 1
187 471 1
187 508 1
187 524 1
187 572 1
188 28 1
188 44 1
188 92 1
188 410 1
188 426 1
188 474 1
188 497 1
188 513 1
188 561 1
189 29 1
189 45 1
189 93 1
189 409 1
189 425 1
189 473 1
189 507 1
189 523 1
189 571 1
190 30 1
190 46 1
190 94 1
190 401 1
190 417 1
190 465 1
190 499 1
190 515 1
190 563 1
191 31 1
191 47 1
191 95 1
191 412 1
191 428 1
191 476 1
191 510 1
191 526 1
191 574 1
192 32 1
192 48 1
192 96 1
192 403 1
192 419 1
192 467 1
192 501 1
192 517 1
192 565 1
193 98 1
193 114 1
193 146 1
193 195 1
193 211 1
193 243 1
193 493 1
193 509 1
193 541 1
194 100 1
194 116 1
194 148 1
194 198 1
194 214 1
194 246 1
194 495 1
194 511 1
194 543 1
195 102 1
195 118 1
195 150 1
195 197 1
195 213 1
195 245 1
195 482 1
195 498 1
195 530 1
196 103 1
196 119 1
196 151 1
196 201 1
196 217 1
196 249 1
196 496 1
196 512 1
196 544 1
197 104 1
197 120 1
197 152 1
197 202 1
197 218 1
197 250 1
197 486 1
197 502 1
197 534 1
198 105 1
198 121 1
198 153 1
198 200 1
198 216 1
198 248 1
198 484 1
198 500 1
198 532 1
199 97 1
199 113 1
199 145 1
199 204 1
199 220 1
199 252 1
199 490 1
199 506 1
199 538 1
200 107 1
200 123 1
200 155 1
200 205 1
200 221 1
200 253 1
200 489 1
200 505 1
200 537 1
201 108 1
201 124 1
201 156 1
201 203 1
201 219 1
201 251 1
201 487 1
201 503 1
201 535 1
202 109 1
202 125 1
202 157 1
202 193 1
202 209 1
202 241 1
202 488 1
202 504 1
202 536 1
203 110 1
203 126 1
203 158 1
203 207 1
203 223 1
203 255 1
203 492 1
203 508 1
203 540 1
204 99 1
204 115 1
204 147 1
204 206 1
204 222 1
204 254 1
204 481 1
204 497 1
204 529 1
205 111 1
205 127 1
205 159 1
205 194 1
205 210 1
205 242 1
205 491 1
205 507 1
205 539 1
206 101 1
206 117 1
206 149 1
206 208 1
206 224 1
206 256 1
206 483 1
206 499 1
206 531 1
207 112 1
207 128 1
207 160 1
207 196 1
207 212 1
207 244 1
207 494 1
207 510 1
207 542 1
208 106 1
208 122 1
208 154 1
208 199 1
208 215 1
208 247 1
208 485 1
208 501 1
208 533 1
209 98 1
209 130 1
209 162 1
209 195 1
209 227 1
209 259 1
209 493 1
209 525 1
209 557 1
210 100 1
210 132 1
210 164 1
210 198 1
210 230 1
210 262 1
210 495 1
210 527 1
210 559 1
211 102 1
211 134 1
211 166 1
211 197 1
211 229 1
211 261 1
211 482 1
211 514 1
211 546 1
212 103 1
212 135 1
212 167 1
212 201 1
212 233 1
212 265 1
212 496 1
212 528 1
212 560 1
213 104 1
213 136 1
213 168 1
213 202 1
213 234 1
213 266 1
213 486 1
213 518 1
213 550 1
214 105 1
214 137 1
214 169 1
214 200 1
214 232 1
214 264 1
214 484 1
214 516 1
214 548 1
215 97 1
215 129 1
215 161 1
215 204 1
215 236 1
215 268 1
215 490 1
215 522 1
215 554 1
216 107 1
216 139 1
216 171 1
216 205 1
216 237 1
216 269 1
216 489 1
216 521 1
216 553 1
217 108 1
217 140 1
217 172 1
217 203 1
217 235 1
217 267 1
217 487 1
217 519 1
217 551 1
218 109 1
218 141 1
218 173 1
218 193 1
218 225 1
218 257 1
218 488 1
218 520 1
218 552 1
219 110 1
219 142 1
219 174 1
219 207 1
219 239 1
219 271 1
219 492 1
219 524 1
219 556 1
220 99 1
220 131 1
220 163 1
220 206 1
220 238 1
220 270 1
220 481 1
220 513 1
220 545 1
221 111 1
221 143 1
221 175 1
221 194 1
221 226 1
221 258 1
221 491 1
221 523 1
221 555 1
222 101 1
222 133 1
222 165 1
222 208 1
222 240 1
222 272 1
222 483 1
222 515 1
222 547 1
223 112 1
223 144 1
223 176 1
223 196 1
223 228 1
223 260 1
223 494 1
223 526 1
223 558 1
224 106 1
224 138 1
224 170 1
224 199 1
224 231 1
224 263 1
224 485 1
224 517 1
224 549 1
225 114 1
225 130 1
225 178 1
225 211 1
225 227 1
225 275 1
225 509 1
225 525 1
225 573 1
226 116 1
226 132 1
226 180 1
226 214 1
226 230 1
226 278 1
226 511 1
226 527 1
226 575 1
227 118 1
227 134 1
227 182 1
227 213 1
227 229 1
227 277 1
227 498 1
227 514 1
227 562 1
228 119 1
228 135 1
228 183 1
228 217 1
228 233 1
228 281 1
228 512 1
228 528 1
228 576 1
229 120 1
229 136 1
229 184 1
229 218 1
229 234 1
229 282 1
229 502 1
229 518 1
229 566 1
230 121 1
230 137 1
230 185 1
230 216 1
230 232 1
230 280 1
230 500 1
230 516 1
230 564 1
231 113 1
231 129 1
231 177 1
231 220 1
231 236 1
231 284 1
231 506 1
231 522 1
231 570 1
232 123 1
232 139 1
232 187 1
232 221 1
232 237 1
232 285 1
232 505 1
232 521 1
232 569 1
233 124 1
233 140 1
233 188 1
233 219 1
233 235 1
233 283 1
233 503 1
233 519 1
233 567 1
234 125 1
234 141 1
234 189 1
234 209 1
234 225 1
234 273 1
234 504 1
234 520 1
234 568 1
235 126 1
235 142 1
235 190 1
235 223 1
235 239 1
235 287 1
235 508 1
235 524 1
235 572 1
236 115 1
236 131 1
236 179 1
236 222 1
236 238 1
236 286 1
236 497 1
236 513 1
236 561 1
237 127 1
237 143 1
237 191 1
237 210 1
237 226 1
237 274 1
237 507 1
237 523 1
237 571 1
238 117 1
238 133 1
238 181 1
238 224 1
238 240 1
238 288 1
238 499 1
238 515 1
238 563 1
239 128 1
239 144 1
239 192 1
239 212 1
239 228 1
239 276 1
239 510 1
239 526 1
239 574 1
240 122 1
240 138 1
240 186 1
240 215 1
240 231 1
240 279 1
240 501 1
240 517 1
240 565 1
241 195 1
241 211 1
241 243 1
241 295 1
241 311 1
241 343 1
241 392 1
241 408 1
241 440 1
242 198 1
242 214 1
242 246 1
242 289 1
242 305 1
242 337 1
242 395 1
242 411 1
242 443 1
243 197 1
243 213 1
243 245 1
243 300 1
243 316 1
243 348 1
243 397 1
243 413 1
243 445 1
244 201 1
244 217 1
244 249 1
244 290 1
244 306 1
244 338 1
244 398 1
244 414 1
244 446 1
245 202 1
245 218 1
245 250 1
245 302 1
245 318 1
245 350 1
245 386 1
245 402 1
245 434 1
246 200 1
246 216 1
246 248 1
246 291 1
246 307 1
246 339 1
246 399 1
246 415 1
246 447 1
247 204 1
247 220 1
247 252 1
247 292 1
247 308 1
247 340 1
247 389 1
247 405 1
247 437 1
248 205 1
248 221 1
248 253 1
248 293 1
248 309 1
248 341 1
248 388 1
248 404 1
248 436 1
249 203 1
249 219 1
249 251 1
249 294 1
249 310 1
249 342 1
249 400 1
249 416 1
249 448 1
250 193 1
250 209 1
250 241 1
250 304 1
250 320 1
250 352 1
250 390 1
250 406 1
250 438 1
251 207 1
251 223 1
251 255 1
251 296 1
251 312 1
251 344 1
251 391 1
251 407 1
251 439 1
252 206 1
252 222 1
252 254 1
252 297 1
252 313 1
252 345 1
252 394 1
252 410 1
252 442 1
253 194 1
253 210 1
253 242 1
253 298 1
253 314 1
253 346 1
253 393 1
253 409 1
253 441 1
254 208 1
254 224 1
254 256 1
254 299 1
254 315 1
254 347 1
254 385 1
254 401 1
254 433 1
255 196 1
255 212 1
255 244 1
255 301 1
255 317 1
255 349 1
255 396 1
255 412 1
255 444 1
256 199 1
256 215 1
256 247 1
256 303 1
256 319 1
256 351 1
256 387 1
256 403 1
256 435 1
257 195 1
257 227 1
257 259 1
257 295 1
257 327 1
257 359 1
257 392 1
257 424 1
257 456 1
258 198 1
258 230 1
258 262 1
258 289 1
258 321 1
258 353 1
258 395 1
258 427 1
258 459 1
259 197 1
259 229 1
259 261 1
259 300 1
259 332 1
259 364 1
259 397 1
259 429 1
259 461 1
260 201 1
260 233 1
260 265 1
260 290 1
260 322 1
260 354 1
260 398 1
260 430 1
260 462 1
261 202 1
261 234 1
261 266 1
261 302 1
261 334 1
261 366 1
261 386 1
261 418 1
261 450 1
262 200 1
262 232 1
262 264 1
262 291 1
262 323 1
262 355 1
262 399 1
262 431 1
262 463 1
263 204 1
263 236 1
263 268 1
263 292 1
263 324 1
263 356 1
263 389 1
263 421 1
263 453 1
264 205 1
264 237 1
264 269 1
264 293 1
264 325 1
264 357 1
264 388 1
264 420 1
264 452 1
265 203 1
265 235 1
265 267 1
265 294 1
265 326 1
265 358 1
265 400 1
265 432 1
265 464 1
266 193 1
266 225 1
266 257 1
266 304 1
266 336 1
266 368 1
266 390 1
266 422 1
266 454 1
267 207 1
267 239 1
267 271 1
267 296 1
267 328 1
267 360 1
267 391 1
267 423 1
267 455 1
268 206 1
268 238 1
268 270 1
268 297 1
268 329 1
268 361 1
268 394 1
268 426 1
268 458 1
269 194 1
269 226 1
269 258 1
269 298 1
269 330 1
269 362 1
269 393 1
269 425 1
269 457 1
270 208 1
270 240 1
270 272 1
270 299 1
270 331 1
270 363 1
270 385 1
270 417 1
270 449 1
271 196 1
271 228 1
271 260 1
271 301 1
271 333 1
271 365 1
271 396 1
271 428 1
271 460 1
272 199 1
272 231 1
272 263 1
272 303 1
272 335 1
272 367 1
272 387 1
272 419 1
272 451 1
273 211 1
273 227 1
273 275 1
273 311 1
273 327 1
273 375 1
273 408 1
273 424 1
273 472 1
274 214 1
274 230 1
274 278 1
274 305 1
274 321 1
274 369 1
274 411 1
274 427 1
274 475 1
275 213 1
275 229 1
275 277 1
275 316 1
275 332 1
275 380 1
275 413 1
275 429 1
275 477 1
276 217 1
276 233 1
276 281 1
276 306 1
276 322 1
276 370 1
276 414 1
276 430 1
276 478 1
277 218 1
277 234 1
277 282 1
277 318 1
277 334 1
277 382 1
277 402 1
277 418 1
277 466 1
278 216 1
278 232 1
278 280 1
278 307 1
278 323 1
278 371 1
278 415 1
278 431 1
278 479 1
279 220 1
279 236 1
279 284 1
279 308 1
279 324 1
279 372 1
279 405 1
279 421 1
279 469 1
280 221 1
280 237 1
280 285 1
280 309 1
280 325 1
280 373 1
280 404 1
280 420 1
280 468 1
281 219 1
281 235 1
281 283 1
281 310 1
281 326 1
281 374 1
281 416 1
281 432 1
281 480 1
282 209 1
282 225 1
282 273 1
282 320 1
282 336 1
282 384 1
282 406 1
282 422 1
282 470 1
283 223 1
283 239 1
283 287 1
283 312 1
283 328 1
283 376 1
283 407 1
283 423 1
283 471 1
284 222 1
284 238 1
284 286 1
284 313 1
284 329 1
284 377 1
284 410 1
284 426 1
284 474 1
285 210 1
285 226 1
285 274 1
285 314 1
285 330 1
285 378 1
285 409 1
285 425 1
285 473 1
286 224 1
286 240 1
286 288 1
286 315 1
286 331 1
286 379 1
286 401 1
286 417 1
286 465 1
287 212 1
287 228 1
287 276 1
287 317 1
287 333 1
287 381 1
287 412 1
287 428 1
287 476 1
288 215 1
288 231 1
288 279 1
288 319 1
288 335 1
288 383 1
288 403 1
288 419 1
288 467 1
