%%MatrixMarket matrix coordinate integer general
224 448 3584
1 1 1
1 29 1
1 36 1
1 43 1
1 225 1
1 253 1
1 260 1
1 267 1
1 281 1
1 309 1
1 316 1
1 323 1
1 337 1
1 365 1
1 372 1
1 379 1
2 2 1
2 30 1
2 37 1
2 44 1
2 226 1
2 254 1
2 261 1
2 268 1
2 282 1
2 310 1
2 317 1
2 324 1
2 338 1
2 366 1
2 373 1
2 380 1
3 3 1
3 31 1
3 38 1
3 45 1
3 227 1
3 255 1
3 262 1
3 269 1
3 283 1
3 311 1
3 318 1
3 325 1
3 339 1
3 367 1
3 374 1
3 381 1
4 4 1
4 32 1
4 39 1
4 46 1
4 228 1
4 256 1
4 263 1
4 270 1
4 284 1
4 312 1
4 319 1
4 326 1
4 340 1
4 368 1
4 375 1
4 382 1
5 5 1
5 33 1
5 40 1
5 47 1
5 229 1
5 257 1
5 264 1
5 271 1
5 285 1
5 313 1
5 320 1
5 327 1
5 341 1
5 369 1
5 376 1
5 383 1
6 6 1
6 34 1
6 41 1
6 48 1
6 230 1
6 258 1
6 265 1
6 272 1
6 286 1
6 314 1
6 321 1
6 328 1
6 342 1
6 370 1
6 377 1
6 384 1
7 7 1
7 35 1
7 42 1
7 49 1
7 231 1
7 259 1
7 266 1
7 273 1
7 287 1
7 315 1
7 322 1
7 329 1
7 343 1
7 371 1
7 378 1
7 385 1
8 8 1
8 29 1
8 36 1
8 50 1
8 232 1
8 253 1
8 260 1
8 274 1
8 288 1
8 309 1
8 316 1
8 330 1
8 344 1
8 365 1
8 372 1
8 386 1
9 9 1
9 30 1
9 37 1
9 51 1
9 233 1
9 254 1
9 261 1
9 275 1
9 289 1
9 310 1
9 317 1
9 331 1
9 345 1
9 366 1
9 373 1
9 387 1
10 10 1
10 31 1
10 38 1
10 52 1
10 234 1
10 255 1
10 262 1
10 276 1
10 290 1
10 311 1
10 318 1
10 332 1
10 346 1
10 367 1
10 374 1
10 388 1
11 11 1
11 32 1
11 39 1
11 53 1
11 235 1
11 256 1
11 263 1
11 277 1
11 291 1
11 312 1
11 319 1
11 333 1
11 347 1
11 368 1
11 375 1
11 389 1
12 12 1
12 33 1
12 40 1
12 54 1
12 236 1
12 257 1
12 264 1
12 278 1
12 292 1
12 313 1
12 320 1
12 334 1
12 348 1
12 369 1
12 376 1
12 390 1
13 13 1
13 34 1
13 41 1
13 55 1
13 237 1
13 258 1
13 265 1
13 279 1
13 293 1
13 314 1
13 321 1
13 335 1
13 349 1
13 370 1
13 377 1
13 391 1
14 14 1
14 35 1
14 42 1
14 56 1
14 238 1
14 259 1
14 266 1
14 280 1
14 294 1
14 315 1
14 322 1
14 336 1
14 350 1
14 371 1
14 378 1
14 392 1
15 15 1
15 29 1
15 43 1
15 50 1
15 239 1
15 253 1
15 267 1
15 274 1
15 295 1
15 309 1
15 323 1
15 330 1
15 351 1
15 365 1
15 379 1
15 386 1
16 16 1
16 30 1
16 44 1
16 51 1
16 240 1
16 254 1
16 268 1
16 275 1
16 296 1
16 310 1
16 324 1
16 331 1
16 352 1
16 366 1
16 380 1
16 387 1
17 17 1
17 31 1
17 45 1
17 52 1
17 241 1
17 255 1
17 269 1
17 276 1
17 297 1
17 311 1
17 325 1
17 332 1
17 353 1
17 367 1
17 381 1
17 388 1
18 18 1
18 32 1
18 46 1
18 53 1
18 242 1
18 256 1
18 270 1
18 277 1
18 298 1
18 312 1
18 326 1
18 333 1
18 354 1
18 368 1
18 382 1
18 389 1
19 19 1
19 33 1
19 47 1
19 54 1
19 243 1
19 257 1
19 271 1
19 278 1
19 299 1
19 313 1
19 327 1
19 334 1
19 355 1
19 369 1
19 383 1
19 390 1
20 20 1
20 34 1
20 48 1
20 55 1
20 244 1
20 258 1
20 272 1
20 279 1
20 300 1
20 314 1
20 328 1
20 335 1
20 356 1
20 370 1
20 384 1
20 391 1
21 21 1
21 35 1
21 49 1
21 56 1
21 245 1
21 259 1
21 273 1
21 280 1
21 301 1
21 315 1
21 329 1
21 336 1
21 357 1
21 371 1
21 385 1
21 392 1
22 22 1
22 36 1
22 43 1
22 50 1
22 246 1
22 260 1
22 267 1
22 274 1
22 302 1
22 316 1
22 323 1
22 330 1
22 358 1
22 372 1
22 379 1
22 386 1
23 23 1
23 37 1
23 44 1
23 51 1
23 247 1
23 261 1
23 268 1
23 275 1
23 303 1
23 317 1
23 324 1
23 331 1
23 359 1
23 373 1
23 380 1
23 387 1
24 24 1
24 38 1
24 45 1
24 52 1
24 248 1
24 262 1
24 269 1
24 276 1
24 304 1
24 318 1
24 325 1
24 332 1
24 360 1
24 374 1
24 381 1
24 388 1
25 25 1
25 39 1
25 46 1
25 53 1
25 249 1
25 263 1
25 270 1
25 277 1
25 305 1
25 319 1
25 326 1
25 333 1
25 361 1
25 375 1
25 382 1
25 389 1
26 26 1
26 40 1
26 47 1
26 54 1
26 250 1
26 264 1
26 271 1
26 278 1
26 306 1
26 320 1
26 327 1
26 334 1
26 362 1
26 376 1
26 383 1
26 390 1
27 27 1
27 41 1
27 48 1
27 55 1
27 251 1
27 265 1
27 272 1
27 279 1
27 307 1
27 321 1
27 328 1
27 335 1
27 363 1
27 377 1
27 384 1
27 391 1
28 28 1
28 42 1
28 49 1
28 56 1
28 252 1
28 266 1
28 273 1
28 280 1
28 308 1
28 322 1
28 329 1
28 336 1
28 364 1
28 378 1
28 385 1
28 392 1
29 57 1
29 85 1
29 92 1
29 99 1
29 225 1
29 253 1
29 260 1
29 267 1
29 281 1
29 309 1
29 316 1
29 323 1
29 393 1
29 421 1
29 428 1
29 435 1
30 58 1
30 86 1
30 93 1
30 100 1
30 226 1
30 254 1
30 261 1
30 268 1
30 282 1
30 310 1
30 317 1
30 324 1
30 394 1
30 422 1
30 429 1
30 436 1
31 59 1
31 87 1
31 94 1
31 101 1
31 227 1
31 255 1
31 262 1
31 269 1
31 283 1
31 311 1
31 318 1
31 325 1
31 395 1
31 423 1
31 430 1
31 437 1
32 60 1
32 88 1
32 95 1
32 102 1
32 228 1
32 256 1
32 263 1
32 270 1
32 284 1
32 312 1
32 319 1
32 326 1
32 396 1
32 424 1
32 431 1
32 438 1
33 61 1
33 89 1
33 96 1
33 103 1
33 229 1
33 257 1
33 264 1
33 271 1
33 285 1
33 313 1
33 320 1
33 327 1
33 397 1
33 425 1
33 432 1
33 439 1
34 62 1
34 90 1
34 97 1
34 104 1
34 230 1
34 258 1
34 265 1
34 272 1
34 286 1
34 314 1
34 321 1
34 328 1
34 398 1
34 426 1
34 433 1
34 440 1
35 63 1
35 91 1
35 98 1
35 105 1
35 231 1
35 259 1
35 266 1
35 273 1
35 287 1
35 315 1
35 322 1
35 329 1
35 399 1
35 427 1
35 434 1
35 441 1
36 64 1
36 85 1
36 92 1
36 106 1
36 232 1
36 253 1
36 260 1
36 274 1
36 288 1
36 309 1
36 316 1
36 330 1
36 400 1
36 421 1
36 428 1
36 442 1
37 65 1
37 86 1
37 93 1
37 107 1
37 233 1
37 254 1
37 261 1
37 275 1
37 289 1
37 310 1
37 317 1
37 331 1
37 401 1
37 422 1
37 429 1
37 443 1
38 66 1
38 87 1
38 94 1
38 108 1
38 234 1
38 255 1
38 262 1
38 276 1
38 290 1
38 311 1
38 318 1
38 332 1
38 402 1
38 423 1
38 430 1
38 444 1
39 67 1
39 88 1
39 95 1
39 109 1
39 235 1
39 256 1
39 263 1
39 277 1
39 291 1
39 312 1
39 319 1
39 333 1
39 403 1
39 424 1
39 431 1
39 445 1
40 68 1
40 89 1
40 96 1
40 110 1
40 236 1
40 257 1
40 264 1
40 278 1
40 292 1
40 313 1
40 320 1
40 334 1
40 404 1
40 425 1
40 432 1
40 446 1
41 69 1
41 90 1
41 97 1
41 111 1
41 237 1
41 258 1
41 265 1
41 279 1
41 293 1
41 314 1
41 321 1
41 335 1
41 405 1
41 426 1
41 433 1
41 447 1
42 70 1
42 91 1
42 98 1
42 112 1
42 238 1
42 259 1
42 266 1
42 280 1
42 294 1
42 315 1
42 322 1
42 336 1
42 406 1
42 427 1
42 434 1
42 448 1
43 71 1
43 85 1
43 99 1
43 106 1
43 239 1
43 253 1
43 267 1
43 274 1
43 295 1
43 309 1
43 323 1
43 330 1
43 407 1
43 421 1
43 435 1
43 442 1
44 72 1
44 86 1
44 100 1
44 107 1
44 240 1
44 254 1
44 268 1
44 275 1
44 296 1
44 310 1
44 324 1
44 331 1
44 408 1
44 422 1
44 436 1
44 443 1
45 73 1
45 87 1
45 101 1
45 108 1
45 241 1
45 255 1
45 269 1
45 276 1
45 297 1
45 311 1
45 325 1
45 332 1
45 409 1
45 423 1
45 437 1
45 444 1
46 74 1
46 88 1
46 102 1
46 109 1
46 242 1
46 256 1
46 270 1
46 277 1
46 298 1
46 312 1
46 326 1
46 333 1
46 410 1
46 424 1
46 438 1
46 445 1
47 75 1
47 89 1
47 103 1
47 110 1
47 243 1
47 257 1
47 271 1
47 278 1
47 299 1
47 313 1
47 327 1
47 334 1
47 411 1
47 425 1
47 439 1
47 446 1
48 76 1
48 90 1
48 104 1
48 111 1
48 244 1
48 258 1
48 272 1
48 279 1
48 300 1
48 314 1
48 328 1
48 335 1
48 412 1
48 426 1
48 440 1
48 447 1
49 77 1
49 91 1
49 105 1
49 112 1
49 245 1
49 259 1
49 273 1
49 280 1
49 301 1
49 315 1
49 329 1
49 336 1
49 413 1
49 427 1
49 441 1
49 448 1
50 78 1
50 92 1
50 99 1
50 106 1
50 246 1
50 260 1
50 267 1
50 274 1
50 302 1
50 316 1
50 323 1
50 330 1
50 414 1
50 428 1
50 435 1
50 442 1
51 79 1
51 93 1
51 100 1
51 107 1
51 247 1
51 261 1
51 268 1
51 275 1
51 303 1
51 317 1
51 324 1
51 331 1
51 415 1
51 429 1
51 436 1
51 443 1
52 80 1
52 94 1
52 101 1
52 108 1
52 248 1
52 262 1
52 269 1
52 276 1
52 304 1
52 318 1
52 325 1
52 332 1
52 416 1
52 430 1
52 437 1
52 444 1
53 81 1
53 95 1
53 102 1
53 109 1
53 249 1
53 263 1
53 270 1
53 277 1
53 305 1
53 319 1
53 326 1
53 333 1
53 417 1
53 431 1
53 438 1
53 445 1
54 82 1
54 96 1
54 103 1
54 110 1
54 250 1
54 264 1
54 271 1
54 278 1
54 306 1
54 320 1
54 327 1
54 334 1
54 418 1
54 432 1
54 439 1
54 446 1
55 83 1
55 97 1
55 104 1
55 111 1
55 251 1
55 265 1
55 272 1
55 279 1
55 307 1
55 321 1
55 328 1
55 335 1
55 419 1
55 433 1
55 440 1
55 447 1
56 84 1
56 98 1
56 105 1
56 112 1
56 252 1
56 266 1
56 273 1
56 280 1
56 308 1
56 322 1
56 329 1
56 336 1
56 420 1
56 434 1
56 441 1
56 448 1
57 113 1
57 141 1
57 148 1
57 155 1
57 225 1
57 253 1
57 260 1
57 267 1
57 337 1
57 365 1
57 372 1
57 379 1
57 393 1
57 421 1
57 428 1
57 435 1
58 114 1
58 142 1
58 149 1
58 156 1
58 226 1
58 254 1
58 261 1
58 268 1
58 338 1
58 366 1
58 373 1
58 380 1
58 394 1
58 422 1
58 429 1
58 436 1
59 115 1
59 143 1
59 150 1
59 157 1
59 227 1
59 255 1
59 262 1
59 269 1
59 339 1
59 367 1
59 374 1
59 381 1
59 395 1
59 423 1
59 430 1
59 437 1
60 116 1
60 144 1
60 151 1
60 158 1
60 228 1
60 256 1
60 263 1
60 270 1
60 340 1
60 368 1
60 375 1
60 382 1
60 396 1
60 424 1
60 431 1
60 438 1
61 117 1
61 145 1
61 152 1
61 159 1
61 229 1
61 257 1
61 264 1
61 271 1
61 341 1
61 369 1
61 376 1
61 383 1
61 397 1
61 425 1
61 432 1
61 439 1
62 118 1
62 146 1
62 153 1
62 160 1
62 230 1
62 258 1
62 265 1
62 272 1
62 342 1
62 370 1
62 377 1
62 384 1
62 398 1
62 426 1
62 433 1
62 440 1
63 119 1
63 147 1
63 154 1
63 161 1
63 231 1
63 259 1
63 266 1
63 273 1
63 343 1
63 371 1
63 378 1
63 385 1
63 399 1
63 427 1
63 434 1
63 441 1
64 120 1
64 141 1
64 148 1
64 162 1
64 232 1
64 253 1
64 260 1
64 274 1
64 344 1
64 365 1
64 372 1
64 386 1
64 400 1
64 421 1
64 428 1
64 442 1
65 121 1
65 142 1
65 149 1
65 163 1
65 233 1
65 254 1
65 261 1
65 275 1
65 345 1
65 366 1
65 373 1
65 387 1
65 401 1
65 422 1
65 429 1
65 443 1
66 122 1
66 143 1
66 150 1
66 164 1
66 234 1
66 255 1
66 262 1
66 276 1
66 346 1
66 367 1
66 374 1
66 388 1
66 402 1
66 423 1
66 430 1
66 444 1
67 123 1
67 144 1
67 151 1
67 165 1
67 235 1
67 256 1
67 263 1
67 277 1
67 347 1
67 368 1
67 375 1
67 389 1
67 403 1
67 424 1
67 431 1
67 445 1
68 124 1
68 145 1
68 152 1
68 166 1
68 236 1
68 257 1
68 264 1
68 278 1
68 348 1
68 369 1
68 376 1
68 390 1
68 404 1
68 425 1
68 432 1
68 446 1
69 125 1
69 146 1
69 153 1
69 167 1
69 237 1
69 258 1
69 265 1
69 279 1
69 349 1
69 370 1
69 377 1
69 391 1
69 405 1
69 426 1
69 433 1
69 447 1
70 126 1
70 147 1
70 154 1
70 168 1
70 238 1
70 259 1
70 266 1
70 280 1
70 350 1
70 371 1
70 378 1
70 392 1
70 406 1
70 427 1
70 434 1
70 448 1
71 127 1
71 141 1
71 155 1
71 162 1
71 239 1
71 253 1
71 267 1
71 274 1
71 351 1
71 365 1
71 379 1
71 386 1
71 407 1
71 421 1
71 435 1
71 442 1
72 128 1
72 142 1
72 156 1
72 163 1
72 240 1
72 254 1
72 268 1
72 275 1
72 352 1
72 366 1
72 380 1
72 387 1
72 408 1
72 422 1
72 436 1
72 443 1
73 129 1
73 143 1
73 157 1
73 164 1
73 241 1
73 255 1
73 269 1
73 276 1
73 353 1
73 367 1
73 381 1
73 388 1
73 409 1
73 423 1
73 437 1
73 444 1
74 130 1
74 144 1
74 158 1
74 165 1
74 242 1
74 256 1
74 270 1
74 277 1
74 354 1
74 368 1
74 382 1
74 389 1
74 410 1
74 424 1
74 438 1
74 445 1
75 131 1
75 145 1
75 159 1
75 166 1
75 243 1
75 257 1
75 271 1
75 278 1
75 355 1
75 369 1
75 383 1
75 390 1
75 411 1
75 425 1
75 439 1
75 446 1
76 132 1
76 146 1
76 160 1
76 167 1
76 244 1
76 258 1
76 272 1
76 279 1
76 356 1
76 370 1
76 384 1
76 391 1
76 412 1
76 426 1
76 440 1
76 447 1
77 133 1
77 147 1
77 161 1
77 168 1
77 245 1
77 259 1
77 273 1
77 280 1
77 357 1
77 371 1
77 385 1
77 392 1
77 413 1
77 427 1
77 441 1
77 448 1
78 134 1
78 148 1
78 155 1
78 162 1
78 246 1
78 260 1
78 267 1
78 274 1
78 358 1
78 372 1
78 379 1
78 386 1
78 414 1
78 428 1
78 435 1
78 442 1
79 135 1
79 149 1
79 156 1
79 163 1
79 247 1
79 261 1
79 268 1
79 275 1
79 359 1
79 373 1
79 380 1
79 387 1
79 415 1
79 429 1
79 436 1
79 443 1
80 136 1
80 150 1
80 157 1
80 164 1
80 248 1
80 262 1
80 269 1
80 276 1
80 360 1
80 374 1
80 381 1
80 388 1
80 416 1
80 430 1
80 437 1
80 444 1
81 137 1
81 151 1
81 158 1
81 165 1
81 249 1
81 263 1
81 270 1
81 277 1
81 361 1
81 375 1
81 382 1
81 389 1
81 417 1
81 431 1
81 438 1
81 445 1
82 138 1
82 152 1
82 159 1
82 166 1
82 250 1
82 264 1
82 271 1
82 278 1
82 362 1
82 376 1
82 383 1
82 390 1
82 418 1
82 432 1
82 439 1
82 446 1
83 139 1
83 153 1
83 160 1
83 167 1
83 251 1
83 265 1
83 272 1
83 279 1
83 363 1
83 377 1
83 384 1
83 391 1
83 419 1
83 433 1
83 440 1
83 447 1
84 140 1
84 154 1
84 161 1
84 168 1
84 252 1
84 266 1
84 273 1
84 280 1
84 364 1
84 378 1
84 385 1
84 392 1
84 420 1
84 434 1
84 441 1
84 448 1
85 169 1
85 197 1
85 204 1
85 211 1
85 281 1
85 309 1
85 316 1
85 323 1
85 337 1
85 365 1
85 372 1
85 379 1
85 393 1
85 421 1
85 428 1
85 435 1
86 170 1
86 198 1
86 205 1
86 212 1
86 282 1
86 310 1
86 317 1
86 324 1
86 338 1
86 366 1
86 373 1
86 380 1
86 394 1
86 422 1
86 429 1
86 436 1
87 171 1
87 199 1
87 206 1
87 213 1
87 283 1
87 311 1
87 318 1
87 325 1
87 339 1
87 367 1
87 374 1
87 381 1
87 395 1
87 423 1
87 430 1
87 437 1
88 172 1
88 200 1
88 207 1
88 214 1
88 284 1
88 312 1
88 319 1
88 326 1
88 340 1
88 368 1
88 375 1
88 382 1
88 396 1
88 424 1
88 431 1
88 438 1
89 173 1
89 201 1
89 208 1
89 215 1
89 285 1
89 313 1
89 320 1
89 327 1
89 341 1
89 369 1
89 376 1
89 383 1
89 397 1
89 425 1
89 432 1
89 439 1
90 174 1
90 202 1
90 209 1
90 216 1
90 286 1
90 314 1
90 321 1
90 328 1
90 342 1
90 370 1
90 377 1
90 384 1
90 398 1
90 426 1
90 433 1
90 440 1
91 175 1
91 203 1
91 210 1
91 217 1
91 287 1
91 315 1
91 322 1
91 329 1
91 343 1
91 371 1
91 378 1
91 385 1
91 399 1
91 427 1
91 434 1
91 441 1
92 176 1
92 197 1
92 204 1
92 218 1
92 288 1
92 309 1
92 316 1
92 330 1
92 344 1
92 365 1
92 372 1
92 386 1
92 400 1
92 421 1
92 428 1
92 442 1
93 177 1
93 198 1
93 205 1
93 219 1
93 289 1
93 310 1
93 317 1
93 331 1
93 345 1
93 366 1
93 373 1
93 387 1
93 401 1
93 422 1
93 429 1
93 443 1
94 178 1
94 199 1
94 206 1
94 220 1
94 290 1
94 311 1
94 318 1
94 332 1
94 346 1
94 367 1
94 374 1
94 388 1
94 402 1
94 423 1
94 430 1
94 444 1
95 179 1
95 200 1
95 207 1
95 221 1
95 291 1
95 312 1
95 319 1
95 333 1
95 347 1
95 368 1
95 375 1
95 389 1
95 403 1
95 424 1
95 431 1
95 445 1
96 180 1
96 201 1
96 208 1
96 222 1
96 292 1
96 313 1
96 320 1
96 334 1
96 348 1
96 369 1
96 376 1
96 390 1
96 404 1
96 425 1
96 432 1
96 446 1
97 181 1
97 202 1
97 209 1
97 223 1
97 293 1
97 314 1
97 321 1
97 335 1
97 349 1
97 370 1
97 377 1
97 391 1
97 405 1
97 426 1
97 433 1
97 447 1
98 182 1
98 203 1
98 210 1
98 224 1
98 294 1
98 315 1
98 322 1
98 336 1
98 350 1
98 371 1
98 378 1
98 392 1
98 406 1
98 427 1
98 434 1
98 448 1
99 183 1
99 197 1
99 211 1
99 218 1
99 295 1
99 309 1
99 323 1
99 330 1
99 351 1
99 365 1
99 379 1
99 386 1
99 407 1
99 421 1
99 435 1
99 442 1
100 184 1
100 198 1
100 212 1
100 219 1
100 296 1
100 310 1
100 324 1
100 331 1
100 352 1
100 366 1
100 380 1
100 387 1
100 408 1
100 422 1
100 436 1
100 443 1
101 185 1
101 199 1
101 213 1
101 220 1
101 297 1
101 311 1
101 325 1
101 332 1
101 353 1
101 367 1
101 381 1
101 388 1
101 409 1
101 423 1
101 437 1
101 444 1
102 186 1
102 200 1
102 214 1
102 221 1
102 298 1
102 312 1
102 326 1
102 333 1
102 354 1
102 368 1
102 382 1
102 389 1
102 410 1
102 424 1
102 438 1
102 445 1
103 187 1
103 201 1
103 215 1
103 222 1
103 299 1
103 313 1
103 327 1
103 334 1
103 355 1
103 369 1
103 383 1
103 390 1
103 411 1
103 425 1
103 439 1
103 446 1
104 188 1
104 202 1
104 216 1
104 223 1
104 300 1
104 314 1
104 328 1
104 335 1
104 356 1
104 370 1
104 384 1
104 391 1
104 412 1
104 426 1
104 440 1
104 447 1
105 189 1
105 203 1
105 217 1
105 224 1
105 301 1
105 315 1
105 329 1
105 336 1
105 357 1
105 371 1
105 385 1
105 392 1
105 413 1
105 427 1
105 441 1
105 448 1
106 190 1
106 204 1
106 211 1
106 218 1
106 302 1
106 316 1
106 323 1
106 330 1
106 358 1
106 372 1
106 379 1
106 386 1
106 414 1
106 428 1
106 435 1
106 442 1
107 191 1
107 205 1
107 212 1
107 219 1
107 303 1
107 317 1
107 324 1
107 331 1
107 359 1
107 373 1
107 380 1
107 387 1
107 415 1
107 429 1
107 436 1
107 443 1
108 192 1
108 206 1
108 213 1
108 220 1
108 304 1
108 318 1
108 325 1
108 332 1
108 360 1
108 374 1
108 381 1
108 388 1
108 416 1
108 430 1
108 437 1
108 444 1
109 193 1
109 207 1
109 214 1
109 221 1
109 305 1
109 319 1
109 326 1
109 333 1
109 361 1
109 375 1
109 382 1
109 389 1
109 417 1
109 431 1
109 438 1
109 445 1
110 194 1
110 208 1
110 215 1
110 222 1
110 306 1
110 320 1
110 327 1
110 334 1
110 362 1
110 376 1
110 383 1
110 390 1
110 418 1
110 432 1
110 439 1
110 446 1
111 195 1
111 209 1
111 216 1
111 223 1
111 307 1
111 321 1
111 328 1
111 335 1
111 363 1
111 377 1
111 384 1
111 391 1
111 419 1
111 433 1
111 440 1
111 447 1
112 196 1
112 210 1
112 217 1
112 224 1
112 308 1
112 322 1
112 329 1
112 336 1
112 364 1
112 378 1
112 385 1
112 392 1
112 420 1
112 434 1
112 441 1
112 448 1
113 1 1
113 35 1
113 42 1
113 49 1
113 170 1
113 197 1
113 204 1
113 211 1
113 284 1
113 311 1
113 318 1
113 325 1
113 341 1
113 368 1
113 375 1
113 382 1
114 2 1
114 29 1
114 36 1
114 43 1
114 171 1
114 198 1
114 205 1
114 212 1
114 285 1
114 312 1
114 319 1
114 326 1
114 342 1
114 369 1
114 376 1
114 383 1
115 3 1
115 30 1
115 37 1
115 44 1
115 172 1
115 199 1
115 206 1
115 213 1
115 286 1
115 313 1
115 320 1
115 327 1
115 343 1
115 370 1
115 377 1
115 384 1
116 4 1
116 31 1
116 38 1
116 45 1
116 173 1
116 200 1
116 207 1
116 214 1
116 287 1
116 314 1
116 321 1
116 328 1
116 337 1
116 371 1
116 378 1
116 385 1
117 5 1
117 32 1
117 39 1
117 46 1
117 174 1
117 201 1
117 208 1
117 215 1
117 281 1
117 315 1
117 322 1
117 329 1
117 338 1
117 365 1
117 372 1
117 379 1
118 6 1
118 33 1
118 40 1
118 47 1
118 175 1
118 202 1
118 209 1
118 216 1
118 282 1
118 309 1
118 316 1
118 323 1
118 339 1
118 366 1
118 373 1
118 380 1
119 7 1
119 34 1
119 41 1
119 48 1
119 169 1
119 203 1
119 210 1
119 217 1
119 283 1
119 310 1
119 317 1
119 324 1
119 340 1
119 367 1
119 374 1
119 381 1
120 8 1
120 35 1
120 42 1
120 56 1
120 177 1
120 197 1
120 204 1
120 218 1
120 291 1
120 311 1
120 318 1
120 332 1
120 348 1
120 368 1
120 375 1
120 389 1
121 9 1
121 29 1
121 36 1
121 50 1
121 178 1
121 198 1
121 205 1
121 219 1
121 292 1
121 312 1
121 319 1
121 333 1
121 349 1
121 369 1
121 376 1
121 390 1
122 10 1
122 30 1
122 37 1
122 51 1
122 179 1
122 199 1
122 206 1
122 220 1
122 293 1
122 313 1
122 320 1
122 334 1
122 350 1
122 370 1
122 377 1
122 391 1
123 11 1
123 31 1
123 38 1
123 52 1
123 180 1
123 200 1
123 207 1
123 221 1
123 294 1
123 314 1
123 321 1
123 335 1
123 344 1
123 371 1
123 378 1
123 392 1
124 12 1
124 32 1
124 39 1
124 53 1
124 181 1
124 201 1
124 208 1
124 222 1
124 288 1
124 315 1
124 322 1
124 336 1
124 345 1
124 365 1
124 372 1
124 386 1
125 13 1
125 33 1
125 40 1
125 54 1
125 182 1
125 202 1
125 209 1
125 223 1
125 289 1
125 309 1
125 316 1
125 330 1
125 346 1
125 366 1
125 373 1
125 387 1
126 14 1
126 34 1
126 41 1
126 55 1
126 176 1
126 203 1
126 210 1
126 224 1
126 290 1
126 310 1
126 317 1
126 331 1
126 347 1
126 367 1
126 374 1
126 388 1
127 15 1
127 35 1
127 49 1
127 56 1
127 184 1
127 197 1
127 211 1
127 218 1
127 298 1
127 311 1
127 325 1
127 332 1
127 355 1
127 368 1
127 382 1
127 389 1
128 16 1
128 29 1
128 43 1
128 50 1
128 185 1
128 198 1
128 212 1
128 219 1
128 299 1
128 312 1
128 326 1
128 333 1
128 356 1
128 369 1
128 383 1
128 390 1
129 17 1
129 30 1
129 44 1
129 51 1
129 186 1
129 199 1
129 213 1
129 220 1
129 300 1
129 313 1
129 327 1
129 334 1
129 357 1
129 370 1
129 384 1
129 391 1
130 18 1
130 31 1
130 45 1
130 52 1
130 187 1
130 200 1
130 214 1
130 221 1
130 301 1
130 314 1
130 328 1
130 335 1
130 351 1
130 371 1
130 385 1
130 392 1
131 19 1
131 32 1
131 46 1
131 53 1
131 188 1
131 201 1
131 215 1
131 222 1
131 295 1
131 315 1
131 329 1
131 336 1
131 352 1
131 365 1
131 379 1
131 386 1
132 20 1
132 33 1
132 47 1
132 54 1
132 189 1
132 202 1
132 216 1
132 223 1
132 296 1
132 309 1
132 323 1
132 330 1
132 353 1
132 366 1
132 380 1
132 387 1
133 21 1
133 34 1
133 48 1
133 55 1
133 183 1
133 203 1
133 217 1
133 224 1
133 297 1
133 310 1
133 324 1
133 331 1
133 354 1
133 367 1
133 381 1
133 388 1
134 22 1
134 42 1
134 49 1
134 56 1
134 191 1
134 204 1
134 211 1
134 218 1
134 305 1
134 318 1
134 325 1
134 332 1
134 362 1
134 375 1
134 382 1
134 389 1
135 23 1
135 36 1
135 43 1
135 50 1
135 192 1
135 205 1
135 212 1
135 219 1
135 306 1
135 319 1
135 326 1
135 333 1
135 363 1
135 376 1
135 383 1
135 390 1
136 24 1
136 37 1
136 44 1
136 51 1
136 193 1
136 206 1
136 213 1
136 220 1
136 307 1
136 320 1
136 327 1
136 334 1
136 364 1
136 377 1
136 384 1
136 391 1
137 25 1
137 38 1
137 45 1
137 52 1
137 194 1
137 207 1
137 214 1
137 221 1
137 308 1
137 321 1
137 328 1
137 335 1
137 358 1
137 378 1
137 385 1
137 392 1
138 26 1
138 39 1
138 46 1
138 53 1
138 195 1
138 208 1
138 215 1
138 222 1
138 302 1
138 322 1
138 329 1
138 336 1
138 359 1
138 372 1
138 379 1
138 386 1
139 27 1
139 40 1
139 47 1
139 54 1
139 196 1
139 209 1
139 216 1
139 223 1
139 303 1
139 316 1
139 323 1
139 330 1
139 360 1
139 373 1
139 380 1
139 387 1
140 28 1
140 41 1
140 48 1
140 55 1
140 190 1
140 210 1
140 217 1
140 224 1
140 304 1
140 317 1
140 324 1
140 331 1
140 361 1
140 374 1
140 381 1
140 388 1
141 57 1
141 91 1
141 98 1
141 105 1
141 170 1
141 197 1
141 204 1
141 211 1
141 284 1
141 311 1
141 318 1
141 325 1
141 398 1
141 425 1
141 432 1
141 439 1
142 58 1
142 85 1
142 92 1
142 99 1
142 171 1
142 198 1
142 205 1
142 212 1
142 285 1
142 312 1
142 319 1
142 326 1
142 399 1
142 426 1
142 433 1
142 440 1
143 59 1
143 86 1
143 93 1
143 100 1
143 172 1
143 199 1
143 206 1
143 213 1
143 286 1
143 313 1
143 320 1
143 327 1
143 393 1
143 427 1
143 434 1
143 441 1
144 60 1
144 87 1
144 94 1
144 101 1
144 173 1
144 200 1
144 207 1
144 214 1
144 287 1
144 314 1
144 321 1
144 328 1
144 394 1
144 421 1
144 428 1
144 435 1
145 61 1
145 88 1
145 95 1
145 102 1
145 174 1
145 201 1
145 208 1
145 215 1
145 281 1
145 315 1
145 322 1
145 329 1
145 395 1
145 422 1
145 429 1
145 436 1
146 62 1
146 89 1
146 96 1
146 103 1
146 175 1
146 202 1
146 209 1
146 216 1
146 282 1
146 309 1
146 316 1
146 323 1
146 396 1
146 423 1
146 430 1
146 437 1
147 63 1
147 90 1
147 97 1
147 104 1
147 169 1
147 203 1
147 210 1
147 217 1
147 283 1
147 310 1
147 317 1
147 324 1
147 397 1
147 424 1
147 431 1
147 438 1
148 64 1
148 91 1
148 98 1
148 112 1
148 177 1
148 197 1
148 204 1
148 218 1
148 291 1
148 311 1
148 318 1
148 332 1
148 405 1
148 425 1
148 432 1
148 446 1
149 65 1
149 85 1
149 92 1
149 106 1
149 178 1
149 198 1
149 205 1
149 219 1
149 292 1
149 312 1
149 319 1
149 333 1
149 406 1
149 426 1
149 433 1
149 447 1
150 66 1
150 86 1
150 93 1
150 107 1
150 179 1
150 199 1
150 206 1
150 220 1
150 293 1
150 313 1
150 320 1
150 334 1
150 400 1
150 427 1
150 434 1
150 448 1
151 67 1
151 87 1
151 94 1
151 108 1
151 180 1
151 200 1
151 207 1
151 221 1
151 294 1
151 314 1
151 321 1
151 335 1
151 401 1
151 421 1
151 428 1
151 442 1
152 68 1
152 88 1
152 95 1
152 109 1
152 181 1
152 201 1
152 208 1
152 222 1
152 288 1
152 315 1
152 322 1
152 336 1
152 402 1
152 422 1
152 429 1
152 443 1
153 69 1
153 89 1
153 96 1
153 110 1
153 182 1
153 202 1
153 209 1
153 223 1
153 289 1
153 309 1
153 316 1
153 330 1
153 403 1
153 423 1
153 430 1
153 444 1
154 70 1
154 90 1
154 97 1
154 111 1
154 176 1
154 203 1
154 210 1
154 224 1
154 290 1
154 310 1
154 317 1
154 331 1
154 404 1
154 424 1
154 431 1
154 445 1
155 71 1
155 91 1
155 105 1
155 112 1
155 184 1
155 197 1
155 211 1
155 218 1
155 298 1
155 311 1
155 325 1
155 332 1
155 412 1
155 425 1
155 439 1
155 446 1
156 72 1
156 85 1
156 99 1
156 106 1
156 185 1
156 198 1
156 212 1
156 219 1
156 299 1
156 312 1
156 326 1
156 333 1
156 413 1
156 426 1
156 440 1
156 447 1
157 73 1
157 86 1
157 100 1
157 107 1
157 186 1
157 199 1
157 213 1
157 220 1
157 300 1
157 313 1
157 327 1
157 334 1
157 407 1
157 427 1
157 441 1
157 448 1
158 74 1
158 87 1
158 101 1
158 108 1
158 187 1
158 200 1
158 214 1
158 221 1
158 301 1
158 314 1
158 328 1
158 335 1
158 408 1
158 421 1
158 435 1
158 442 1
159 75 1
159 88 1
159 102 1
159 109 1
159 188 1
159 201 1
159 215 1
159 222 1
159 295 1
159 315 1
159 329 1
159 336 1
159 409 1
159 422 1
159 436 1
159 443 1
160 76 1
160 89 1
160 103 1
160 110 1
160 189 1
160 202 1
160 216 1
160 223 1
160 296 1
160 309 1
160 323 1
160 330 1
160 410 1
160 423 1
160 437 1
160 444 1
161 77 1
161 90 1
161 104 1
161 111 1
161 183 1
161 203 1
161 217 1
161 224 1
161 297 1
161 310 1
161 324 1
161 331 1
161 411 1
161 424 1
161 438 1
161 445 1
162 78 1
162 98 1
162 105 1
162 112 1
162 191 1
162 204 1
162 211 1
162 218 1
162 305 1
162 318 1
162 325 1
162 332 1
162 419 1
162 432 1
162 439 1
162 446 1
163 79 1
163 92 1
163 99 1
163 106 1
163 192 1
163 205 1
163 212 1
163 219 1
163 306 1
163 319 1
163 326 1
163 333 1
163 420 1
163 433 1
163 440 1
163 447 1
164 80 1
164 93 1
164 100 1
164 107 1
164 193 1
164 206 1
164 213 1
164 220 1
164 307 1
164 320 1
164 327 1
164 334 1
164 414 1
164 434 1
164 441 1
164 448 1
165 81 1
165 94 1
165 101 1
165 108 1
165 194 1
165 207 1
165 214 1
165 221 1
165 308 1
165 321 1
165 328 1
165 335 1
165 415 1
165 428 1
165 435 1
165 442 1
166 82 1
166 95 1
166 102 1
166 109 1
166 195 1
166 208 1
166 215 1
166 222 1
166 302 1
166 322 1
166 329 1
166 336 1
166 416 1
166 429 1
166 436 1
166 443 1
167 83 1
167 96 1
167 103 1
167 110 1
167 196 1
167 209 1
167 216 1
167 223 1
167 303 1
167 316 1
167 323 1
167 330 1
167 417 1
167 430 1
167 437 1
167 444 1
168 84 1
168 97 1
168 104 1
168 111 1
168 190 1
168 210 1
168 217 1
168 224 1
168 304 1
168 317 1
168 324 1
168 331 1
168 418 1
168 431 1
168 438 1
168 445 1
169 113 1
169 147 1
169 154 1
169 161 1
169 170 1
169 197 1
169 204 1
169 211 1
169 341 1
169 368 1
169 375 1
169 382 1
169 398 1
169 425 1
169 432 1
169 439 1
170 114 1
170 141 1
170 148 1
170 155 1
170 171 1
170 198 1
170 205 1
170 212 1
170 342 1
170 369 1
170 376 1
170 383 1
170 399 1
170 426 1
170 433 1
170 440 1
171 115 1
171 142 1
171 149 1
171 156 1
171 172 1
171 199 1
171 206 1
171 213 1
171 343 1
171 370 1
171 377 1
171 384 1
171 393 1
171 427 1
171 434 1
171 441 1
172 116 1
172 143 1
172 150 1
172 157 1
172 173 1
172 200 1
172 207 1
172 214 1
172 337 1
172 371 1
172 378 1
172 385 1
172 394 1
172 421 1
172 428 1
172 435 1
173 117 1
173 144 1
173 151 1
173 158 1
173 174 1
173 201 1
173 208 1
173 215 1
173 338 1
173 365 1
173 372 1
173 379 1
173 395 1
173 422 1
173 429 1
173 436 1
174 118 1
174 145 1
174 152 1
174 159 1
174 175 1
174 202 1
174 209 1
174 216 1
174 339 1
174 366 1
174 373 1
174 380 1
174 396 1
174 423 1
174 430 1
174 437 1
175 119 1
175 146 1
175 153 1
175 160 1
175 169 1
175 203 1
175 210 1
175 217 1
175 340 1
175 367 1
175 374 1
175 381 1
175 397 1
175 424 1
175 431 1
175 438 1
176 120 1
176 147 1
176 154 1
176 168 1
176 177 1
176 197 1
176 204 1
176 218 1
176 348 1
176 368 1
176 375 1
176 389 1
176 405 1
176 425 1
176 432 1
176 446 1
177 121 1
177 141 1
177 148 1
177 162 1
177 178 1
177 198 1
177 205 1
177 219 1
177 349 1
177 369 1
177 376 1
177 390 1
177 406 1
177 426 1
177 433 1
177 447 1
178 122 1
178 142 1
178 149 1
178 163 1
178 179 1
178 199 1
178 206 1
178 220 1
178 350 1
178 370 1
178 377 1
178 391 1
178 400 1
178 427 1
178 434 1
178 448 1
179 123 1
179 143 1
179 150 1
179 164 1
179 180 1
179 200 1
179 207 1
179 221 1
179 344 1
179 371 1
179 378 1
179 392 1
179 401 1
179 421 1
179 428 1
179 442 1
180 124 1
180 144 1
180 151 1
180 165 1
180 181 1
180 201 1
180 208 1
180 222 1
180 345 1
180 365 1
180 372 1
180 386 1
180 402 1
180 422 1
180 429 1
180 443 1
181 125 1
181 145 1
181 152 1
181 166 1
181 182 1
181 202 1
181 209 1
181 223 1
181 346 1
181 366 1
181 373 1
181 387 1
181 403 1
181 423 1
181 430 1
181 444 1
182 126 1
182 146 1
182 153 1
182 167 1
182 176 1
182 203 1
182 210 1
182 224 1
182 347 1
182 367 1
182 374 1
182 388 1
182 404 1
182 424 1
182 431 1
182 445 1
183 127 1
183 147 1
183 161 1
183 168 1
183 184 1
183 197 1
183 211 1
183 218 1
183 355 1
183 368 1
183 382 1
183 389 1
183 412 1
183 425 1
183 439 1
183 446 1
184 128 1
184 141 1
184 155 1
184 162 1
184 185 1
184 198 1
184 212 1
184 219 1
184 356 1
184 369 1
184 383 1
184 390 1
184 413 1
184 426 1
184 440 1
184 447 1
185 129 1
185 142 1
185 156 1
185 163 1
185 186 1
185 199 1
185 213 1
185 220 1
185 357 1
185 370 1
185 384 1
185 391 1
185 407 1
185 427 1
185 441 1
185 448 1
186 130 1
186 143 1
186 157 1
186 164 1
186 187 1
186 200 1
186 214 1
186 221 1
186 351 1
186 371 1
186 385 1
186 392 1
186 408 1
186 421 1
186 435 1
186 442 1
187 131 1
187 144 1
187 158 1
187 165 1
187 188 1
187 201 1
187 215 1
187 222 1
187 352 1
187 365 1
187 379 1
187 386 1
187 409 1
187 422 1
187 436 1
187 443 1
188 132 1
188 145 1
188 159 1
188 166 1
188 189 1
188 202 1
188 216 1
188 223 1
188 353 1
188 366 1
188 380 1
188 387 1
188 410 1
188 423 1
188 437 1
188 444 1
189 133 1
189 146 1
189 160 1
189 167 1
189 183 1
189 203 1
189 217 1
189 224 1
189 354 1
189 367 1
189 381 1
189 388 1
189 411 1
189 424 1
189 438 1
189 445 1
190 134 1
190 154 1
190 161 1
190 168 1
190 191 1
190 204 1
190 211 1
190 218 1
190 362 1
190 375 1
190 382 1
190 389 1
190 419 1
190 432 1
190 439 1
190 446 1
191 135 1
191 148 1
191 155 1
191 162 1
191 192 1
191 205 1
191 212 1
191 219 1
191 363 1
191 376 1
191 383 1
191 390 1
191 420 1
191 433 1
191 440 1
191 447 1
192 136 1
192 149 1
192 156 1
192 163 1
192 193 1
192 206 1
192 213 1
192 220 1
192 364 1
192 377 1
192 384 1
192 391 1
192 414 1
192 434 1
192 441 1
192 448 1
193 137 1
193 150 1
193 157 1
193 164 1
193 194 1
193 207 1
193 214 1
193 221 1
193 358 1
193 378 1
193 385 1
193 392 1
193 415 1
193 428 1
193 435 1
193 442 1
194 138 1
194 151 1
194 158 1
194 165 1
194 195 1
194 208 1
194 215 1
194 222 1
194 359 1
194 372 1
194 379 1
194 386 1
194 416 1
194 429 1
194 436 1
194 443 1
195 139 1
195 152 1
195 159 1
195 166 1
195 196 1
195 209 1
195 216 1
195 223 1
195 360 1
195 373 1
195 380 1
195 387 1
195 417 1
195 430 1
195 437 1
195 444 1
196 140 1
196 153 1
196 160 1
196 167 1
196 190 1
196 210 1
196 217 1
196 224 1
196 361 1
196 374 1
196 381 1
196 388 1
196 418 1
196 431 1
196 438 1
196 445 1
197 226 1
197 253 1
197 260 1
197 267 1
197 284 1
197 311 1
197 318 1
197 325 1
197 341 1
197 368 1
197 375 1
197 382 1
197 398 1
197 425 1
197 432 1
197 439 1
198 227 1
198 254 1
198 261 1
198 268 1
198 285 1
198 312 1
198 319 1
198 326 1
198 342 1
198 369 1
198 376 1
198 383 1
198 399 1
198 426 1
198 433 1
198 440 1
199 228 1
199 255 1
199 262 1
199 269 1
199 286 1
199 313 1
199 320 1
199 327 1
199 343 1
199 370 1
199 377 1
199 384 1
199 393 1
199 427 1
199 434 1
199 441 1
200 229 1
200 256 1
200 263 1
200 270 1
200 287 1
200 314 1
200 321 1
200 328 1
200 337 1
200 371 1
200 378 1
200 385 1
200 394 1
200 421 1
200 428 1
200 435 1
201 230 1
201 257 1
201 264 1
201 271 1
201 281 1
201 315 1
201 322 1
201 329 1
201 338 1
201 365 1
201 372 1
201 379 1
201 395 1
201 422 1
201 429 1
201 436 1
202 231 1
202 258 1
202 265 1
202 272 1
202 282 1
202 309 1
202 316 1
202 323 1
202 339 1
202 366 1
202 373 1
202 380 1
202 396 1
202 423 1
202 430 1
202 437 1
203 225 1
203 259 1
203 266 1
203 273 1
203 283 1
203 310 1
203 317 1
203 324 1
203 340 1
203 367 1
203 374 1
203 381 1
203 397 1
203 424 1
203 431 1
203 438 1
204 233 1
204 253 1
204 260 1
204 274 1
204 291 1
204 311 1
204 318 1
204 332 1
204 348 1
204 368 1
204 375 1
204 389 1
204 405 1
204 425 1
204 432 1
204 446 1
205 234 1
205 254 1
205 261 1
205 275 1
205 292 1
205 312 1
205 319 1
205 333 1
205 349 1
205 369 1
205 376 1
205 390 1
205 406 1
205 426 1
205 433 1
205 447 1
206 235 1
206 255 1
206 262 1
206 276 1
206 293 1
206 313 1
206 320 1
206 334 1
206 350 1
206 370 1
206 377 1
206 391 1
206 400 1
206 427 1
206 434 1
206 448 1
207 236 1
207 256 1
207 263 1
207 277 1
207 294 1
207 314 1
207 321 1
207 335 1
207 344 1
207 371 1
207 378 1
207 392 1
207 401 1
207 421 1
207 428 1
207 442 1
208 237 1
208 257 1
208 264 1
208 278 1
208 288 1
208 315 1
208 322 1
208 336 1
208 345 1
208 365 1
208 372 1
208 386 1
208 402 1
208 422 1
208 429 1
208 443 1
209 238 1
209 258 1
209 265 1
209 279 1
209 289 1
209 309 1
209 316 1
209 330 1
209 346 1
209 366 1
209 373 1
209 387 1
209 403 1
209 423 1
209 430 1
209 444 1
210 232 1
210 259 1
210 266 1
210 280 1
210 290 1
210 310 1
210 317 1
210 331 1
210 347 1
210 367 1
210 374 1
210 388 1
210 404 1
210 424 1
210 431 1
210 445 1
211 240 1
211 253 1
211 267 1
211 274 1
211 298 1
211 311 1
211 325 1
211 332 1
211 355 1
211 368 1
211 382 1
211 389 1
211 412 1
211 425 1
211 439 1
211 446 1
212 241 1
212 254 1
212 268 1
212 275 1
212 299 1
212 312 1
212 326 1
212 333 1
212 356 1
212 369 1
212 383 1
212 390 1
212 413 1
212 426 1
212 440 1
212 447 1
213 242 1
213 255 1
213 269 1
213 276 1
213 300 1
213 313 1
213 327 1
213 334 1
213 357 1
213 370 1
213 384 1
213 391 1
213 407 1
213 427 1
213 441 1
213 448 1
214 243 1
214 256 1
214 270 1
214 277 1
214 301 1
214 314 1
214 328 1
214 335 1
214 351 1
214 371 1
214 385 1
214 392 1
214 408 1
214 421 1
214 435 1
214 442 1
215 244 1
215 257 1
215 271 1
215 278 1
215 295 1
215 315 1
215 329 1
215 336 1
215 352 1
215 365 1
215 379 1
215 386 1
215 409 1
215 422 1
215 436 1
215 443 1
216 245 1
216 258 1
216 272 1
216 279 1
216 296 1
216 309 1
216 323 1
216 330 1
216 353 1
216 366 1
216 380 1
216 387 1
216 410 1
216 423 1
216 437 1
216 444 1
217 239 1
217 259 1
217 273 1
217 280 1
217 297 1
217 310 1
217 324 1
217 331 1
217 354 1
217 367 1
217 381 1
217 388 1
217 411 1
217 424 1
217 438 1
217 445 1
218 247 1
218 260 1
218 267 1
218 274 1
218 305 1
218 318 1
218 325 1
218 332 1
218 362 1
218 375 1
218 382 1
218 389 1
218 419 1
218 432 1
218 439 1
218 446 1
219 248 1
219 261 1
219 268 1
219 275 1
219 306 1
219 319 1
219 326 1
219 333 1
219 363 1
219 376 1
219 383 1
219 390 1
219 420 1
219 433 1
219 440 1
219 447 1
220 249 1
220 262 1
220 269 1
220 276 1
220 307 1
220 320 1
220 327 1
220 334 1
220 364 1
220 377 1
220 384 1
220 391 1
220 414 1
220 434 1
220 441 1
220 448 1
221 250 1
221 263 1
221 270 1
221 277 1
221 308 1
221 321 1
221 328 1
221 335 1
221 358 1
221 378 1
221 385 1
221 392 1
221 415 1
221 428 1
221 435 1
221 442 1
222 251 1
222 264 1
222 271 1
222 278 1
222 302 1
222 322 1
222 329 1
222 336 1
222 359 1
222 372 1
222 379 1
222 386 1
222 416 1
222 429 1
222 436 1
222 443 1
223 252 1
223 265 1
223 272 1
223 279 1
223 303 1
223 316 1
223 323 1
223 330 1
223 360 1
223 373 1
223 380 1
223 387 1
223 417 1
223 430 1
223 437 1
223 444 1
224 246 1
224 266 1
224 273 1
224 280 1
224 304 1
224 317 1
224 324 1
224 331 1
224 361 1
224 374 1
224 381 1
224 388 1
224 418 1
224 431 1
224 438 1
224 445 1
