%%MatrixMarket matrix coordinate integer general
192 384 3072
1 1 1
1 25 1
1 31 1
1 37 1
1 193 1
1 217 1
1 223 1
1 229 1
1 241 1
1 265 1
1 271 1
1 277 1
1 289 1
1 313 1
1 319 1
1 325 1
2 2 1
2 26 1
2 32 1
2 38 1
2 194 1
2 218 1
2 224 1
2 230 1
2 242 1
2 266 1
2 272 1
2 278 1
2 290 1
2 314 1
2 320 1
2 326 1
3 3 1
3 27 1
3 33 1
3 39 1
3 195 1
3 219 1
3 225 1
3 231 1
3 243 1
3 267 1
3 273 1
3 279 1
3 291 1
3 315 1
3 321 1
3 327 1
4 4 1
4 28 1
4 34 1
4 40 1
4 196 1
4 220 1
4 226 1
4 232 1
4 244 1
4 268 1
4 274 1
4 280 1
4 292 1
4 316 1
4 322 1
4 328 1
5 5 1
5 29 1
5 35 1
5 41 1
5 197 1
5 221 1
5 227 1
5 233 1
5 245 1
5 269 1
5 275 1
5 281 1
5 293 1
5 317 1
5 323 1
5 329 1
6 6 1
6 30 1
6 36 1
6 42 1
6 198 1
6 222 1
6 228 1
6 234 1
6 246 1
6 270 1
6 276 1
6 282 1
6 294 1
6 318 1
6 324 1
6 330 1
7 7 1
7 25 1
7 31 1
7 43 1
7 199 1
7 217 1
7 223 1
7 235 1
7 247 1
7 265 1
7 271 1
7 283 1
7 295 1
7 313 1
7 319 1
7 331 1
8 8 1
8 26 1
8 32 1
8 44 1
8 200 1
8 218 1
8 224 1
8 236 1
8 248 1
8 266 1
8 272 1
8 284 1
8 296 1
8 314 1
8 320 1
8 332 1
9 9 1
9 27 1
9 33 1
9 45 1
9 201 1
9 219 1
9 225 1
9 237 1
9 249 1
9 267 1
9 273 1
9 285 1
9 297 1
9 315 1
9 321 1
9 333 1
10 10 1
10 28 1
10 34 1
10 46 1
10 202 1
10 220 1
10 226 1
10 238 1
10 250 1
10 268 1
10 274 1
10 286 1
10 298 1
10 316 1
10 322 1
10 334 1
11 11 1
11 29 1
11 35 1
11 47 1
11 203 1
11 221 1
11 227 1
11 239 1
11 251 1
11 269 1
11 275 1
11 287 1
11 299 1
11 317 1
11 323 1
11 335 1
12 12 1
12 30 1
12 36 1
12 48 1
12 204 1
12 222 1
12 228 1
12 240 1
12 252 1
12 270 1
12 276 1
12 288 1
12 300 1
12 318 1
12 324 1
12 336 1
13 13 1
13 25 1
13 37 1
13 43 1
13 205 1
13 217 1
13 229 1
13 235 1
13 253 1
13 265 1
13 277 1
13 283 1
13 301 1
13 313 1
13 325 1
13 331 1
14 14 1
14 26 1
14 38 1
14 44 1
14 206 1
14 218 1
14 230 1
14 236 1
14 254 1
14 266 1
14 278 1
14 284 1
14 302 1
14 314 1
14 326 1
14 332 1
15 15 1
15 27 1
15 39 1
15 45 1
15 207 1
15 219 1
15 231 1
15 237 1
15 255 1
15 267 1
15 279 1
15 285 1
15 303 1
15 315 1
15 327 1
15 333 1
16 16 1
16 28 1
16 40 1
16 46 1
16 208 1
16 220 1
16 232 1
16 238 1
16 256 1
16 268 1
16 280 1
16 286 1
16 304 1
16 316 1
16 328 1
16 334 1
17 17 1
17 29 1
17 41 1
17 47 1
17 209 1
17 221 1
17 233 1
17 239 1
17 257 1
17 269 1
17 281 1
17 287 1
17 305 1
17 317 1
17 329 1
17 335 1
18 18 1
18 30 1
18 42 1
18 48 1
18 210 1
18 222 1
18 234 1
18 240 1
18 258 1
18 270 1
18 282 1
18 288 1
18 306 1
18 318 1
18 330 1
18 336 1
19 19 1
19 31 1
19 37 1
19 43 1
19 211 1
19 223 1
19 229 1
19 235 1
19 259 1
19 271 1
19 277 1
19 283 1
19 307 1
19 319 1
19 325 1
19 331 1
20 20 1
20 32 1
20 38 1
20 44 1
20 212 1
20 224 1
20 230 1
20 236 1
20 260 1
20 272 1
20 278 1
20 284 1
20 308 1
20 320 1
20 326 1
20 332 1
21 21 1
21 33 1
21 39 1
21 45 1
21 213 1
21 225 1
21 231 1
21 237 1
21 261 1
21 273 1
21 279 1
21 285 1
21 309 1
21 321 1
21 327 1
21 333 1
22 22 1
22 34 1
22 40 1
22 46 1
22 214 1
22 226 1
22 232 1
22 238 1
22 262 1
22 274 1
22 280 1
22 286 1
22 310 1
22 322 1
22 328 1
22 334 1
23 23 1
23 35 1
23 41 1
23 47 1
23 215 1
23 227 1
23 233 1
23 239 1
23 263 1
23 275 1
23 281 1
23 287 1
23 311 1
23 323 1
23 329 1
23 335 1
24 24 1
24 36 1
24 42 1
24 48 1
24 216 1
24 228 1
24 234 1
24 240 1
24 264 1
24 276 1
24 282 1
24 288 1
24 312 1
24 324 1
24 330 1
24 336 1
25 49 1
25 73 1
25 79 1
25 85 1
25 193 1
25 217 1
25 223 1
25 229 1
25 241 1
25 265 1
25 271 1
25 277 1
25 337 1
25 361 1
25 367 1
25 373 1
26 50 1
26 74 1
26 80 1
26 86 1
26 194 1
26 218 1
26 224 1
26 230 1
26 242 1
26 266 1
26 272 1
26 278 1
26 338 1
26 362 1
26 368 1
26 374 1
27 51 1
27 75 1
27 81 1
27 87 1
27 195 1
27 219 1
27 225 1
27 231 1
27 243 1
27 267 1
27 273 1
27 279 1
27 339 1
27 363 1
27 369 1
27 375 1
28 52 1
28 76 1
28 82 1
28 88 1
28 196 1
28 220 1
28 226 1
28 232 1
28 244 1
28 268 1
28 274 1
28 280 1
28 340 1
28 364 1
28 370 1
28 376 1
29 53 1
29 77 1
29 83 1
29 89 1
29 197 1
29 221 1
29 227 1
29 233 1
29 245 1
29 269 1
29 275 1
29 281 1
29 341 1
29 365 1
29 371 1
29 377 1
30 54 1
30 78 1
30 84 1
30 90 1
30 198 1
30 222 1
30 228 1
30 234 1
30 246 1
30 270 1
30 276 1
30 282 1
30 342 1
30 366 1
30 372 1
30 378 1
31 55 1
31 73 1
31 79 1
31 91 1
31 199 1
31 217 1
31 223 1
31 235 1
31 247 1
31 265 1
31 271 1
31 283 1
31 343 1
31 361 1
31 367 1
31 379 1
32 56 1
32 74 1
32 80 1
32 92 1
32 200 1
32 218 1
32 224 1
32 236 1
32 248 1
32 266 1
32 272 1
32 284 1
32 344 1
32 362 1
32 368 1
32 380 1
33 57 1
33 75 1
33 81 1
33 93 1
33 201 1
33 219 1
33 225 1
33 237 1
33 249 1
33 267 1
33 273 1
33 285 1
33 345 1
33 363 1
33 369 1
33 381 1
34 58 1
34 76 1
34 82 1
34 94 1
34 202 1
34 220 1
34 226 1
34 238 1
34 250 1
34 268 1
34 274 1
34 286 1
34 346 1
34 364 1
34 370 1
34 382 1
35 59 1
35 77 1
35 83 1
35 95 1
35 203 1
35 221 1
35 227 1
35 239 1
35 251 1
35 269 1
35 275 1
35 287 1
35 347 1
35 365 1
35 371 1
35 383 1
36 60 1
36 78 1
36 84 1
36 96 1
36 204 1
36 222 1
36 228 1
36 240 1
36 252 1
36 270 1
36 276 1
36 288 1
36 348 1
36 366 1
36 372 1
36 384 1
37 61 1
37 73 1
37 85 1
37 91 1
37 205 1
37 217 1
37 229 1
37 235 1
37 253 1
37 265 1
37 277 1
37 283 1
37 349 1
37 361 1
37 373 1
37 379 1
38 62 1
38 74 1
38 86 1
38 92 1
38 206 1
38 218 1
38 230 1
38 236 1
38 254 1
38 266 1
38 278 1
38 284 1
38 350 1
38 362 1
38 374 1
38 380 1
39 63 1
39 75 1
39 87 1
39 93 1
39 207 1
39 219 1
39 231 1
39 237 1
39 255 1
39 267 1
39 279 1
39 285 1
39 351 1
39 363 1
39 375 1
39 381 1
40 64 1
40 76 1
40 88 1
40 94 1
40 208 1
40 220 1
40 232 1
40 238 1
40 256 1
40 268 1
40 280 1
40 286 1
40 352 1
40 364 1
40 376 1
40 382 1
41 65 1
41 77 1
41 89 1
41 95 1
41 209 1
41 221 1
41 233 1
41 239 1
41 257 1
41 269 1
41 281 1
41 287 1
41 353 1
41 365 1
41 377 1
41 383 1
42 66 1
42 78 1
42 90 1
42 96 1
42 210 1
42 222 1
42 234 1
42 240 1
42 258 1
42 270 1
42 282 1
42 288 1
42 354 1
42 366 1
42 378 1
42 384 1
43 67 1
43 79 1
43 85 1
43 91 1
43 211 1
43 223 1
43 229 1
43 235 1
43 259 1
43 271 1
43 277 1
43 283 1
43 355 1
43 367 1
43 373 1
43 379 1
44 68 1
44 80 1
44 86 1
44 92 1
44 212 1
44 224 1
44 230 1
44 236 1
44 260 1
44 272 1
44 278 1
44 284 1
44 356 1
44 368 1
44 374 1
44 380 1
45 69 1
45 81 1
45 87 1
45 93 1
45 213 1
45 225 1
45 231 1
45 237 1
45 261 1
45 273 1
45 279 1
45 285 1
45 357 1
45 369 1
45 375 1
45 381 1
46 70 1
46 82 1
46 88 1
46 94 1
46 214 1
46 226 1
46 232 1
46 238 1
46 262 1
46 274 1
46 280 1
46 286 1
46 358 1
46 370 1
46 376 1
46 382 1
47 71 1
47 83 1
47 89 1
47 95 1
47 215 1
47 227 1
47 233 1
47 239 1
47 263 1
47 275 1
47 281 1
47 287 1
47 359 1
47 371 1
47 377 1
47 383 1
48 72 1
48 84 1
48 90 1
48 96 1
48 216 1
48 228 1
48 234 1
48 240 1
48 264 1
48 276 1
48 282 1
48 288 1
48 360 1
48 372 1
48 378 1
48 384 1
49 97 1
49 121 1
49 127 1
49 133 1
49 193 1
49 217 1
49 223 1
49 229 1
49 289 1
49 313 1
49 319 1
49 325 1
49 337 1
49 361 1
49 367 1
49 373 1
50 98 1
50 122 1
50 128 1
50 134 1
50 194 1
50 218 1
50 224 1
50 230 1
50 290 1
50 314 1
50 320 1
50 326 1
50 338 1
50 362 1
50 368 1
50 374 1
51 99 1
51 123 1
51 129 1
51 135 1
51 195 1
51 219 1
51 225 1
51 231 1
51 291 1
51 315 1
51 321 1
51 327 1
51 339 1
51 363 1
51 369 1
51 375 1
52 100 1
52 124 1
52 130 1
52 136 1
52 196 1
52 220 1
52 226 1
52 232 1
52 292 1
52 316 1
52 322 1
52 328 1
52 340 1
52 364 1
52 370 1
52 376 1
53 101 1
53 125 1
53 131 1
53 137 1
53 197 1
53 221 1
53 227 1
53 233 1
53 293 1
53 317 1
53 323 1
53 329 1
53 341 1
53 365 1
53 371 1
53 377 1
54 102 1
54 126 1
54 132 1
54 138 1
54 198 1
54 222 1
54 228 1
54 234 1
54 294 1
54 318 1
54 324 1
54 330 1
54 342 1
54 366 1
54 372 1
54 378 1
55 103 1
55 121 1
55 127 1
55 139 1
55 199 1
55 217 1
55 223 1
55 235 1
55 295 1
55 313 1
55 319 1
55 331 1
55 343 1
55 361 1
55 367 1
55 379 1
56 104 1
56 122 1
56 128 1
56 140 1
56 200 1
56 218 1
56 224 1
56 236 1
56 296 1
56 314 1
56 320 1
56 332 1
56 344 1
56 362 1
56 368 1
56 380 1
57 105 1
57 123 1
57 129 1
57 141 1
57 201 1
57 219 1
57 225 1
57 237 1
57 297 1
57 315 1
57 321 1
57 333 1
57 345 1
57 363 1
57 369 1
57 381 1
58 106 1
58 124 1
58 130 1
58 142 1
58 202 1
58 220 1
58 226 1
58 238 1
58 298 1
58 316 1
58 322 1
58 334 1
58 346 1
58 364 1
58 370 1
58 382 1
59 107 1
59 125 1
59 131 1
59 143 1
59 203 1
59 221 1
59 227 1
59 239 1
59 299 1
59 317 1
59 323 1
59 335 1
59 347 1
59 365 1
59 371 1
59 383 1
60 108 1
60 126 1
60 132 1
60 144 1
60 204 1
60 222 1
60 228 1
60 240 1
60 300 1
60 318 1
60 324 1
60 336 1
60 348 1
60 366 1
60 372 1
60 384 1
61 109 1
61 121 1
61 133 1
61 139 1
61 205 1
61 217 1
61 229 1
61 235 1
61 301 1
61 313 1
61 325 1
61 331 1
61 349 1
61 361 1
61 373 1
61 379 1
62 110 1
62 122 1
62 134 1
62 140 1
62 206 1
62 218 1
62 230 1
62 236 1
62 302 1
62 314 1
62 326 1
62 332 1
62 350 1
62 362 1
62 374 1
62 380 1
63 111 1
63 123 1
63 135 1
63 141 1
63 207 1
63 219 1
63 231 1
63 237 1
63 303 1
63 315 1
63 327 1
63 333 1
63 351 1
63 363 1
63 375 1
63 381 1
64 112 1
64 124 1
64 136 1
64 142 1
64 208 1
64 220 1
64 232 1
64 238 1
64 304 1
64 316 1
64 328 1
64 334 1
64 352 1
64 364 1
64 376 1
64 382 1
65 113 1
65 125 1
65 137 1
65 143 1
65 209 1
65 221 1
65 233 1
65 239 1
65 305 1
65 317 1
65 329 1
65 335 1
65 353 1
65 365 1
65 377 1
65 383 1
66 114 1
66 126 1
66 138 1
66 144 1
66 210 1
66 222 1
66 234 1
66 240 1
66 306 1
66 318 1
66 330 1
66 336 1
66 354 1
66 366 1
66 378 1
66 384 1
67 115 1
67 127 1
67 133 1
67 139 1
67 211 1
67 223 1
67 229 1
67 235 1
67 307 1
67 319 1
67 325 1
67 331 1
67 355 1
67 367 1
67 373 1
67 379 1
68 116 1
68 128 1
68 134 1
68 140 1
68 212 1
68 224 1
68 230 1
68 236 1
68 308 1
68 320 1
68 326 1
68 332 1
68 356 1
68 368 1
68 374 1
68 380 1
69 117 1
69 129 1
69 135 1
69 141 1
69 213 1
69 225 1
69 231 1
69 237 1
69 309 1
69 321 1
69 327 1
69 333 1
69 357 1
69 369 1
69 375 1
69 381 1
70 118 1
70 130 1
70 136 1
70 142 1
70 214 1
70 226 1
70 232 1
70 238 1
70 310 1
70 322 1
70 328 1
70 334 1
70 358 1
70 370 1
70 376 1
70 382 1
71 119 1
71 131 1
71 137 1
71 143 1
71 215 1
71 227 1
71 233 1
71 239 1
71 311 1
71 323 1
71 329 1
71 335 1
71 359 1
71 371 1
71 377 1
71 383 1
72 120 1
72 132 1
72 138 1
72 144 1
72 216 1
72 228 1
72 234 1
72 240 1
72 312 1
72 324 1
72 330 1
72 336 1
72 360 1
72 372 1
72 378 1
72 384 1
73 145 1
73 169 1
73 175 1
73 181 1
73 241 1
73 265 1
73 271 1
73 277 1
73 289 1
73 313 1
73 319 1
73 325 1
73 337 1
73 361 1
73 367 1
73 373 1
74 146 1
74 170 1
74 176 1
74 182 1
74 242 1
74 266 1
74 272 1
74 278 1
74 290 1
74 314 1
74 320 1
74 326 1
74 338 1
74 362 1
74 368 1
74 374 1
75 147 1
75 171 1
75 177 1
75 183 1
75 243 1
75 267 1
75 273 1
75 279 1
75 291 1
75 315 1
75 321 1
75 327 1
75 339 1
75 363 1
75 369 1
75 375 1
76 148 1
76 172 1
76 178 1
76 184 1
76 244 1
76 268 1
76 274 1
76 280 1
76 292 1
76 316 1
76 322 1
76 328 1
76 340 1
76 364 1
76 370 1
76 376 1
77 149 1
77 173 1
77 179 1
77 185 1
77 245 1
77 269 1
77 275 1
77 281 1
77 293 1
77 317 1
77 323 1
77 329 1
77 341 1
77 365 1
77 371 1
77 377 1
78 150 1
78 174 1
78 180 1
78 186 1
78 246 1
78 270 1
78 276 1
78 282 1
78 294 1
78 318 1
78 324 1
78 330 1
78 342 1
78 366 1
78 372 1
78 378 1
79 151 1
79 169 1
79 175 1
79 187 1
79 247 1
79 265 1
79 271 1
79 283 1
79 295 1
79 313 1
79 319 1
79 331 1
79 343 1
79 361 1
79 367 1
79 379 1
80 152 1
80 170 1
80 176 1
80 188 1
80 248 1
80 266 1
80 272 1
80 284 1
80 296 1
80 314 1
80 320 1
80 332 1
80 344 1
80 362 1
80 368 1
80 380 1
81 153 1
81 171 1
81 177 1
81 189 1
81 249 1
81 267 1
81 273 1
81 285 1
81 297 1
81 315 1
81 321 1
81 333 1
81 345 1
81 363 1
81 369 1
81 381 1
82 154 1
82 172 1
82 178 1
82 190 1
82 250 1
82 268 1
82 274 1
82 286 1
82 298 1
82 316 1
82 322 1
82 334 1
82 346 1
82 364 1
82 370 1
82 382 1
83 155 1
83 173 1
83 179 1
83 191 1
83 251 1
83 269 1
83 275 1
83 287 1
83 299 1
83 317 1
83 323 1
83 335 1
83 347 1
83 365 1
83 371 1
83 383 1
84 156 1
84 174 1
84 180 1
84 192 1
84 252 1
84 270 1
84 276 1
84 288 1
84 300 1
84 318 1
84 324 1
84 336 1
84 348 1
84 366 1
84 372 1
84 384 1
85 157 1
85 169 1
85 181 1
85 187 1
85 253 1
85 265 1
85 277 1
85 283 1
85 301 1
85 313 1
85 325 1
85 331 1
85 349 1
85 361 1
85 373 1
85 379 1
86 158 1
86 170 1
86 182 1
86 188 1
86 254 1
86 266 1
86 278 1
86 284 1
86 302 1
86 314 1
86 326 1
86 332 1
86 350 1
86 362 1
86 374 1
86 380 1
87 159 1
87 171 1
87 183 1
87 189 1
87 255 1
87 267 1
87 279 1
87 285 1
87 303 1
87 315 1
87 327 1
87 333 1
87 351 1
87 363 1
87 375 1
87 381 1
88 160 1
88 172 1
88 184 1
88 190 1
88 256 1
88 268 1
88 280 1
88 286 1
88 304 1
88 316 1
88 328 1
88 334 1
88 352 1
88 364 1
88 376 1
88 382 1
89 161 1
89 173 1
89 185 1
89 191 1
89 257 1
89 269 1
89 281 1
89 287 1
89 305 1
89 317 1
89 329 1
89 335 1
89 353 1
89 365 1
89 377 1
89 383 1
90 162 1
90 174 1
90 186 1
90 192 1
90 258 1
90 270 1
90 282 1
90 288 1
90 306 1
90 318 1
90 330 1
90 336 1
90 354 1
90 366 1
90 378 1
90 384 1
91 163 1
91 175 1
91 181 1
91 187 1
91 259 1
91 271 1
91 277 1
91 283 1
91 307 1
91 319 1
91 325 1
91 331 1
91 355 1
91 367 1
91 373 1
91 379 1
92 164 1
92 176 1
92 182 1
92 188 1
92 260 1
92 272 1
92 278 1
92 284 1
92 308 1
92 320 1
92 326 1
92 332 1
92 356 1
92 368 1
92 374 1
92 380 1
93 165 1
93 177 1
93 183 1
93 189 1
93 261 1
93 273 1
93 279 1
93 285 1
93 309 1
93 321 1
93 327 1
93 333 1
93 357 1
93 369 1
93 375 1
93 381 1
94 166 1
94 178 1
94 184 1
94 190 1
94 262 1
94 274 1
94 280 1
94 286 1
94 310 1
94 322 1
94 328 1
94 334 1
94 358 1
94 370 1
94 376 1
94 382 1
95 167 1
95 179 1
95 185 1
95 191 1
95 263 1
95 275 1
95 281 1
95 287 1
95 311 1
95 323 1
95 329 1
95 335 1
95 359 1
95 371 1
95 377 1
95 383 1
96 168 1
96 180 1
96 186 1
96 192 1
96 264 1
96 276 1
96 282 1
96 288 1
96 312 1
96 324 1
96 330 1
96 336 1
96 360 1
96 372 1
96 378 1
96 384 1
97 1 1
97 29 1
97 39 1
97 48 1
97 196 1
97 218 1
97 234 1
97 237 1
97 245 1
97 267 1
97 277 1
97 284 1
97 294 1
97 316 1
97 326 1
97 331 1
98 2 1
98 30 1
98 40 1
98 47 1
98 197 1
98 219 1
98 229 1
98 236 1
98 244 1
98 266 1
98 282 1
98 285 1
98 291 1
98 313 1
98 329 1
98 334 1
99 3 1
99 25 1
99 41 1
99 46 1
99 198 1
99 220 1
99 230 1
99 235 1
99 241 1
99 269 1
99 279 1
99 288 1
99 290 1
99 318 1
99 328 1
99 335 1
100 4 1
100 26 1
100 42 1
100 45 1
100 193 1
100 221 1
100 231 1
100 240 1
100 246 1
100 268 1
100 278 1
100 283 1
100 293 1
100 315 1
100 325 1
100 332 1
101 5 1
101 27 1
101 37 1
101 44 1
101 194 1
101 222 1
101 232 1
101 239 1
101 243 1
101 265 1
101 281 1
101 286 1
101 292 1
101 314 1
101 330 1
101 333 1
102 6 1
102 28 1
102 38 1
102 43 1
102 195 1
102 217 1
102 233 1
102 238 1
102 242 1
102 270 1
102 280 1
102 287 1
102 289 1
102 317 1
102 327 1
102 336 1
103 8 1
103 29 1
103 34 1
103 48 1
103 203 1
103 218 1
103 223 1
103 237 1
103 250 1
103 267 1
103 276 1
103 284 1
103 297 1
103 316 1
103 323 1
103 331 1
104 7 1
104 30 1
104 33 1
104 47 1
104 202 1
104 219 1
104 228 1
104 236 1
104 251 1
104 266 1
104 271 1
104 285 1
104 300 1
104 313 1
104 320 1
104 334 1
105 12 1
105 25 1
105 32 1
105 46 1
105 201 1
105 220 1
105 227 1
105 235 1
105 248 1
105 269 1
105 274 1
105 288 1
105 295 1
105 318 1
105 321 1
105 335 1
106 11 1
106 26 1
106 31 1
106 45 1
106 200 1
106 221 1
106 226 1
106 240 1
106 249 1
106 268 1
106 275 1
106 283 1
106 298 1
106 315 1
106 324 1
106 332 1
107 10 1
107 27 1
107 36 1
107 44 1
107 199 1
107 222 1
107 225 1
107 239 1
107 252 1
107 265 1
107 272 1
107 286 1
107 299 1
107 314 1
107 319 1
107 333 1
108 9 1
108 28 1
108 35 1
108 43 1
108 204 1
108 217 1
108 224 1
108 238 1
108 247 1
108 270 1
108 273 1
108 287 1
108 296 1
108 317 1
108 322 1
108 336 1
109 14 1
109 29 1
109 34 1
109 39 1
109 209 1
109 218 1
109 223 1
109 234 1
109 256 1
109 267 1
109 276 1
109 277 1
109 303 1
109 316 1
109 323 1
109 326 1
110 13 1
110 30 1
110 33 1
110 40 1
110 208 1
110 219 1
110 228 1
110 229 1
110 257 1
110 266 1
110 271 1
110 282 1
110 306 1
110 313 1
110 320 1
110 329 1
111 18 1
111 25 1
111 32 1
111 41 1
111 207 1
111 220 1
111 227 1
111 230 1
111 254 1
111 269 1
111 274 1
111 279 1
111 301 1
111 318 1
111 321 1
111 328 1
112 17 1
112 26 1
112 31 1
112 42 1
112 206 1
112 221 1
112 226 1
112 231 1
112 255 1
112 268 1
112 275 1
112 278 1
112 304 1
112 315 1
112 324 1
112 325 1
113 16 1
113 27 1
113 36 1
113 37 1
113 205 1
113 222 1
113 225 1
113 232 1
113 258 1
113 265 1
113 272 1
113 281 1
113 305 1
113 314 1
113 319 1
113 330 1
114 15 1
114 28 1
114 35 1
114 38 1
114 210 1
114 217 1
114 224 1
114 233 1
114 253 1
114 270 1
114 273 1
114 280 1
114 302 1
114 317 1
114 322 1
114 327 1
115 20 1
115 34 1
115 39 1
115 48 1
115 215 1
115 223 1
115 234 1
115 237 1
115 262 1
115 276 1
115 277 1
115 284 1
115 309 1
115 323 1
115 326 1
115 331 1
116 19 1
116 33 1
116 40 1
116 47 1
116 214 1
116 228 1
116 229 1
116 236 1
116 263 1
116 271 1
116 282 1
116 285 1
116 312 1
116 320 1
116 329 1
116 334 1
117 24 1
117 32 1
117 41 1
117 46 1
117 213 1
117 227 1
117 230 1
117 235 1
117 260 1
117 274 1
117 279 1
117 288 1
117 307 1
117 321 1
117 328 1
117 335 1
118 23 1
118 31 1
118 42 1
118 45 1
118 212 1
118 226 1
118 231 1
118 240 1
118 261 1
118 275 1
118 278 1
118 283 1
118 310 1
118 324 1
118 325 1
118 332 1
119 22 1
119 36 1
119 37 1
119 44 1
119 211 1
119 225 1
119 232 1
119 239 1
119 264 1
119 272 1
119 281 1
119 286 1
119 311 1
119 319 1
119 330 1
119 333 1
120 21 1
120 35 1
120 38 1
120 43 1
120 216 1
120 224 1
120 233 1
120 238 1
120 259 1
120 273 1
120 280 1
120 287 1
120 308 1
120 322 1
120 327 1
120 336 1
121 50 1
121 78 1
121 88 1
121 95 1
121 245 1
121 267 1
121 277 1
121 284 1
121 294 1
121 316 1
121 326 1
121 331 1
121 342 1
121 364 1
121 374 1
121 379 1
122 49 1
122 77 1
122 87 1
122 96 1
122 244 1
122 266 1
122 282 1
122 285 1
122 291 1
122 313 1
122 329 1
122 334 1
122 339 1
122 361 1
122 377 1
122 382 1
123 52 1
123 74 1
123 90 1
123 93 1
123 241 1
123 269 1
123 279 1
123 288 1
123 290 1
123 318 1
123 328 1
123 335 1
123 338 1
123 366 1
123 376 1
123 383 1
124 51 1
124 73 1
124 89 1
124 94 1
124 246 1
124 268 1
124 278 1
124 283 1
124 293 1
124 315 1
124 325 1
124 332 1
124 341 1
124 363 1
124 373 1
124 380 1
125 54 1
125 76 1
125 86 1
125 91 1
125 243 1
125 265 1
125 281 1
125 286 1
125 292 1
125 314 1
125 330 1
125 333 1
125 340 1
125 362 1
125 378 1
125 381 1
126 53 1
126 75 1
126 85 1
126 92 1
126 242 1
126 270 1
126 280 1
126 287 1
126 289 1
126 317 1
126 327 1
126 336 1
126 337 1
126 365 1
126 375 1
126 384 1
127 55 1
127 78 1
127 81 1
127 95 1
127 250 1
127 267 1
127 276 1
127 284 1
127 297 1
127 316 1
127 323 1
127 331 1
127 345 1
127 364 1
127 371 1
127 379 1
128 56 1
128 77 1
128 82 1
128 96 1
128 251 1
128 266 1
128 271 1
128 285 1
128 300 1
128 313 1
128 320 1
128 334 1
128 348 1
128 361 1
128 368 1
128 382 1
129 59 1
129 74 1
129 79 1
129 93 1
129 248 1
129 269 1
129 274 1
129 288 1
129 295 1
129 318 1
129 321 1
129 335 1
129 343 1
129 366 1
129 369 1
129 383 1
130 60 1
130 73 1
130 80 1
130 94 1
130 249 1
130 268 1
130 275 1
130 283 1
130 298 1
130 315 1
130 324 1
130 332 1
130 346 1
130 363 1
130 372 1
130 380 1
131 57 1
131 76 1
131 83 1
131 91 1
131 252 1
131 265 1
131 272 1
131 286 1
131 299 1
131 314 1
131 319 1
131 333 1
131 347 1
131 362 1
131 367 1
131 381 1
132 58 1
132 75 1
132 84 1
132 92 1
132 247 1
132 270 1
132 273 1
132 287 1
132 296 1
132 317 1
132 322 1
132 336 1
132 344 1
132 365 1
132 370 1
132 384 1
133 61 1
133 78 1
133 81 1
133 88 1
133 256 1
133 267 1
133 276 1
133 277 1
133 303 1
133 316 1
133 323 1
133 326 1
133 351 1
133 364 1
133 371 1
133 374 1
134 62 1
134 77 1
134 82 1
134 87 1
134 257 1
134 266 1
134 271 1
134 282 1
134 306 1
134 313 1
134 320 1
134 329 1
134 354 1
134 361 1
134 368 1
134 377 1
135 65 1
135 74 1
135 79 1
135 90 1
135 254 1
135 269 1
135 274 1
135 279 1
135 301 1
135 318 1
135 321 1
135 328 1
135 349 1
135 366 1
135 369 1
135 376 1
136 66 1
136 73 1
136 80 1
136 89 1
136 255 1
136 268 1
136 275 1
136 278 1
136 304 1
136 315 1
136 324 1
136 325 1
136 352 1
136 363 1
136 372 1
136 373 1
137 63 1
137 76 1
137 83 1
137 86 1
137 258 1
137 265 1
137 272 1
137 281 1
137 305 1
137 314 1
137 319 1
137 330 1
137 353 1
137 362 1
137 367 1
137 378 1
138 64 1
138 75 1
138 84 1
138 85 1
138 253 1
138 270 1
138 273 1
138 280 1
138 302 1
138 317 1
138 322 1
138 327 1
138 350 1
138 365 1
138 370 1
138 375 1
139 67 1
139 81 1
139 88 1
139 95 1
139 262 1
139 276 1
139 277 1
139 284 1
139 309 1
139 323 1
139 326 1
139 331 1
139 357 1
139 371 1
139 374 1
139 379 1
140 68 1
140 82 1
140 87 1
140 96 1
140 263 1
140 271 1
140 282 1
140 285 1
140 312 1
140 320 1
140 329 1
140 334 1
140 360 1
140 368 1
140 377 1
140 382 1
141 71 1
141 79 1
141 90 1
141 93 1
141 260 1
141 274 1
141 279 1
141 288 1
141 307 1
141 321 1
141 328 1
141 335 1
141 355 1
141 369 1
141 376 1
141 383 1
142 72 1
142 80 1
142 89 1
142 94 1
142 261 1
142 275 1
142 278 1
142 283 1
142 310 1
142 324 1
142 325 1
142 332 1
142 358 1
142 372 1
142 373 1
142 380 1
143 69 1
143 83 1
143 86 1
143 91 1
143 264 1
143 272 1
143 281 1
143 286 1
143 311 1
143 319 1
143 330 1
143 333 1
143 359 1
143 367 1
143 378 1
143 381 1
144 70 1
144 84 1
144 85 1
144 92 1
144 259 1
144 273 1
144 280 1
144 287 1
144 308 1
144 322 1
144 327 1
144 336 1
144 356 1
144 370 1
144 375 1
144 384 1
145 99 1
145 121 1
145 137 1
145 142 1
145 196 1
145 218 1
145 234 1
145 237 1
145 294 1
145 316 1
145 326 1
145 331 1
145 342 1
145 364 1
145 374 1
145 379 1
146 102 1
146 124 1
146 134 1
146 139 1
146 197 1
146 219 1
146 229 1
146 236 1
146 291 1
146 313 1
146 329 1
146 334 1
146 339 1
146 361 1
146 377 1
146 382 1
147 101 1
147 123 1
147 133 1
147 140 1
147 198 1
147 220 1
147 230 1
147 235 1
147 290 1
147 318 1
147 328 1
147 335 1
147 338 1
147 366 1
147 376 1
147 383 1
148 98 1
148 126 1
148 136 1
148 143 1
148 193 1
148 221 1
148 231 1
148 240 1
148 293 1
148 315 1
148 325 1
148 332 1
148 341 1
148 363 1
148 373 1
148 380 1
149 97 1
149 125 1
149 135 1
149 144 1
149 194 1
149 222 1
149 232 1
149 239 1
149 292 1
149 314 1
149 330 1
149 333 1
149 340 1
149 362 1
149 378 1
149 381 1
150 100 1
150 122 1
150 138 1
150 141 1
150 195 1
150 217 1
150 233 1
150 238 1
150 289 1
150 317 1
150 327 1
150 336 1
150 337 1
150 365 1
150 375 1
150 384 1
151 108 1
151 121 1
151 128 1
151 142 1
151 203 1
151 218 1
151 223 1
151 237 1
151 297 1
151 316 1
151 323 1
151 331 1
151 345 1
151 364 1
151 371 1
151 379 1
152 105 1
152 124 1
152 131 1
152 139 1
152 202 1
152 219 1
152 228 1
152 236 1
152 300 1
152 313 1
152 320 1
152 334 1
152 348 1
152 361 1
152 368 1
152 382 1
153 106 1
153 123 1
153 132 1
153 140 1
153 201 1
153 220 1
153 227 1
153 235 1
153 295 1
153 318 1
153 321 1
153 335 1
153 343 1
153 366 1
153 369 1
153 383 1
154 103 1
154 126 1
154 129 1
154 143 1
154 200 1
154 221 1
154 226 1
154 240 1
154 298 1
154 315 1
154 324 1
154 332 1
154 346 1
154 363 1
154 372 1
154 380 1
155 104 1
155 125 1
155 130 1
155 144 1
155 199 1
155 222 1
155 225 1
155 239 1
155 299 1
155 314 1
155 319 1
155 333 1
155 347 1
155 362 1
155 367 1
155 381 1
156 107 1
156 122 1
156 127 1
156 141 1
156 204 1
156 217 1
156 224 1
156 238 1
156 296 1
156 317 1
156 322 1
156 336 1
156 344 1
156 365 1
156 370 1
156 384 1
157 114 1
157 121 1
157 128 1
157 137 1
157 209 1
157 218 1
157 223 1
157 234 1
157 303 1
157 316 1
157 323 1
157 326 1
157 351 1
157 364 1
157 371 1
157 374 1
158 111 1
158 124 1
158 131 1
158 134 1
158 208 1
158 219 1
158 228 1
158 229 1
158 306 1
158 313 1
158 320 1
158 329 1
158 354 1
158 361 1
158 368 1
158 377 1
159 112 1
159 123 1
159 132 1
159 133 1
159 207 1
159 220 1
159 227 1
159 230 1
159 301 1
159 318 1
159 321 1
159 328 1
159 349 1
159 366 1
159 369 1
159 376 1
160 109 1
160 126 1
160 129 1
160 136 1
160 206 1
160 221 1
160 226 1
160 231 1
160 304 1
160 315 1
160 324 1
160 325 1
160 352 1
160 363 1
160 372 1
160 373 1
161 110 1
161 125 1
161 130 1
161 135 1
161 205 1
161 222 1
161 225 1
161 232 1
161 305 1
161 314 1
161 319 1
161 330 1
161 353 1
161 362 1
161 367 1
161 378 1
162 113 1
162 122 1
162 127 1
162 138 1
162 210 1
162 217 1
162 224 1
162 233 1
162 302 1
162 317 1
162 322 1
162 327 1
162 350 1
162 365 1
162 370 1
162 375 1
163 120 1
163 128 1
163 137 1
163 142 1
163 215 1
163 223 1
163 234 1
163 237 1
163 309 1
163 323 1
163 326 1
163 331 1
163 357 1
163 371 1
163 374 1
163 379 1
164 117 1
164 131 1
164 134 1
164 139 1
164 214 1
164 228 1
164 229 1
164 236 1
164 312 1
164 320 1
164 329 1
164 334 1
164 360 1
164 368 1
164 377 1
164 382 1
165 118 1
165 132 1
165 133 1
165 140 1
165 213 1
165 227 1
165 230 1
165 235 1
165 307 1
165 321 1
165 328 1
165 335 1
165 355 1
165 369 1
165 376 1
165 383 1
166 115 1
166 129 1
166 136 1
166 143 1
166 212 1
166 226 1
166 231 1
166 240 1
166 310 1
166 324 1
166 325 1
166 332 1
166 358 1
166 372 1
166 373 1
166 380 1
167 116 1
167 130 1
167 135 1
167 144 1
167 211 1
167 225 1
167 232 1
167 239 1
167 311 1
167 319 1
167 330 1
167 333 1
167 359 1
167 367 1
167 378 1
167 381 1
168 119 1
168 127 1
168 138 1
168 141 1
168 216 1
168 224 1
168 233 1
168 238 1
168 308 1
168 322 1
168 327 1
168 336 1
168 356 1
168 370 1
168 375 1
168 384 1
169 148 1
169 170 1
169 186 1
169 189 1
169 196 1
169 218 1
169 234 1
169 237 1
169 245 1
169 267 1
169 277 1
169 284 1
169 342 1
169 364 1
169 374 1
169 379 1
170 149 1
170 171 1
170 181 1
170 188 1
170 197 1
170 219 1
170 229 1
170 236 1
170 244 1
170 266 1
170 282 1
170 285 1
170 339 1
170 361 1
170 377 1
170 382 1
171 150 1
171 172 1
171 182 1
171 187 1
171 198 1
171 220 1
171 230 1
171 235 1
171 241 1
171 269 1
171 279 1
171 288 1
171 338 1
171 366 1
171 376 1
171 383 1
172 145 1
172 173 1
172 183 1
172 192 1
172 193 1
172 221 1
172 231 1
172 240 1
172 246 1
172 268 1
172 278 1
172 283 1
172 341 1
172 363 1
172 373 1
172 380 1
173 146 1
173 174 1
173 184 1
173 191 1
173 194 1
173 222 1
173 232 1
173 239 1
173 243 1
173 265 1
173 281 1
173 286 1
173 340 1
173 362 1
173 378 1
173 381 1
174 147 1
174 169 1
174 185 1
174 190 1
174 195 1
174 217 1
174 233 1
174 238 1
174 242 1
174 270 1
174 280 1
174 287 1
174 337 1
174 365 1
174 375 1
174 384 1
175 155 1
175 170 1
175 175 1
175 189 1
175 203 1
175 218 1
175 223 1
175 237 1
175 250 1
175 267 1
175 276 1
175 284 1
175 345 1
175 364 1
175 371 1
175 379 1
176 154 1
176 171 1
176 180 1
176 188 1
176 202 1
176 219 1
176 228 1
176 236 1
176 251 1
176 266 1
176 271 1
176 285 1
176 348 1
176 361 1
176 368 1
176 382 1
177 153 1
177 172 1
177 179 1
177 187 1
177 201 1
177 220 1
177 227 1
177 235 1
177 248 1
177 269 1
177 274 1
177 288 1
177 343 1
177 366 1
177 369 1
177 383 1
178 152 1
178 173 1
178 178 1
178 192 1
178 200 1
178 221 1
178 226 1
178 240 1
178 249 1
178 268 1
178 275 1
178 283 1
178 346 1
178 363 1
178 372 1
178 380 1
179 151 1
179 174 1
179 177 1
179 191 1
179 199 1
179 222 1
179 225 1
179 239 1
179 252 1
179 265 1
179 272 1
179 286 1
179 347 1
179 362 1
179 367 1
179 381 1
180 156 1
180 169 1
180 176 1
180 190 1
180 204 1
180 217 1
180 224 1
180 238 1
180 247 1
180 270 1
180 273 1
180 287 1
180 344 1
180 365 1
180 370 1
180 384 1
181 161 1
181 170 1
181 175 1
181 186 1
181 209 1
181 218 1
181 223 1
181 234 1
181 256 1
181 267 1
181 276 1
181 277 1
181 351 1
181 364 1
181 371 1
181 374 1
182 160 1
182 171 1
182 180 1
182 181 1
182 208 1
182 219 1
182 228 1
182 229 1
182 257 1
182 266 1
182 271 1
182 282 1
182 354 1
182 361 1
182 368 1
182 377 1
183 159 1
183 172 1
183 179 1
183 182 1
183 207 1
183 220 1
183 227 1
183 230 1
183 254 1
183 269 1
183 274 1
183 279 1
183 349 1
183 366 1
183 369 1
183 376 1
184 158 1
184 173 1
184 178 1
184 183 1
184 206 1
184 221 1
184 226 1
184 231 1
184 255 1
184 268 1
184 275 1
184 278 1
184 352 1
184 363 1
184 372 1
184 373 1
185 157 1
185 174 1
185 177 1
185 184 1
185 205 1
185 222 1
185 225 1
185 232 1
185 258 1
185 265 1
185 272 1
185 281 1
185 353 1
185 362 1
185 367 1
185 378 1
186 162 1
186 169 1
186 176 1
186 185 1
186 210 1
186 217 1
186 224 1
186 233 1
186 253 1
186 270 1
186 273 1
186 280 1
186 350 1
186 365 1
186 370 1
186 375 1
187 167 1
187 175 1
187 186 1
187 189 1
187 215 1
187 223 1
187 234 1
187 237 1
187 262 1
187 276 1
187 277 1
187 284 1
187 357 1
187 371 1
187 374 1
187 379 1
188 166 1
188 180 1
188 181 1
188 188 1
188 214 1
188 228 1
188 229 1
188 236 1
188 263 1
188 271 1
188 282 1
188 285 1
188 360 1
188 368 1
188 377 1
188 382 1
189 165 1
189 179 1
189 182 1
189 187 1
189 213 1
189 227 1
189 230 1
189 235 1
189 260 1
189 274 1
189 279 1
189 288 1
189 355 1
189 369 1
189 376 1
189 383 1
190 164 1
190 178 1
190 183 1
190 192 1
190 212 1
190 226 1
190 231 1
190 240 1
190 261 1
190 275 1
190 278 1
190 283 1
190 358 1
190 372 1
190 373 1
190 380 1
191 163 1
191 177 1
191 184 1
191 191 1
191 211 1
191 225 1
191 232 1
191 239 1
191 264 1
191 272 1
191 281 1
191 286 1
191 359 1
191 367 1
191 378 1
191 381 1
192 168 1
192 176 1
192 185 1
192 190 1
192 216 1
192 224 1
192 233 1
192 238 1
192 259 1
192 273 1
192 280 1
192 287 1
192 356 1
192 370 1
192 375 1
192 384 1
