%%MatrixMarket matrix coordinate integer general
256 512 4096
1 1 1
1 33 1
1 41 1
1 49 1
1 257 1
1 289 1
1 297 1
1 305 1
1 321 1
1 353 1
1 361 1
1 369 1
1 385 1
1 417 1
1 425 1
1 433 1
2 2 1
2 34 1
2 42 1
2 50 1
2 258 1
2 290 1
2 298 1
2 306 1
2 322 1
2 354 1
2 362 1
2 370 1
2 386 1
2 418 1
2 426 1
2 434 1
3 3 1
3 35 1
3 43 1
3 51 1
3 259 1
3 291 1
3 299 1
3 307 1
3 323 1
3 355 1
3 363 1
3 371 1
3 387 1
3 419 1
3 427 1
3 435 1
4 4 1
4 36 1
4 44 1
4 52 1
4 260 1
4 292 1
4 300 1
4 308 1
4 324 1
4 356 1
4 364 1
4 372 1
4 388 1
4 420 1
4 428 1
4 436 1
5 5 1
5 37 1
5 45 1
5 53 1
5 261 1
5 293 1
5 301 1
5 309 1
5 325 1
5 357 1
5 365 1
5 373 1
5 389 1
5 421 1
5 429 1
5 437 1
6 6 1
6 38 1
6 46 1
6 54 1
6 262 1
6 294 1
6 302 1
6 310 1
6 326 1
6 358 1
6 366 1
6 374 1
6 390 1
6 422 1
6 430 1
6 438 1
7 7 1
7 39 1
7 47 1
7 55 1
7 263 1
7 295 1
7 303 1
7 311 1
7 327 1
7 359 1
7 367 1
7 375 1
7 391 1
7 423 1
7 431 1
7 439 1
8 8 1
8 40 1
8 48 1
8 56 1
8 264 1
8 296 1
8 304 1
8 312 1
8 328 1
8 360 1
8 368 1
8 376 1
8 392 1
8 424 1
8 432 1
8 440 1
9 9 1
9 33 1
9 41 1
9 57 1
9 265 1
9 289 1
9 297 1
9 313 1
9 329 1
9 353 1
9 361 1
9 377 1
9 393 1
9 417 1
9 425 1
9 441 1
10 10 1
10 34 1
10 42 1
10 58 1
10 266 1
10 290 1
10 298 1
10 314 1
10 330 1
10 354 1
10 362 1
10 378 1
10 394 1
10 418 1
10 426 1
10 442 1
11 11 1
11 35 1
11 43 1
11 59 1
11 267 1
11 291 1
11 299 1
11 315 1
11 331 1
11 355 1
11 363 1
11 379 1
11 395 1
11 419 1
11 427 1
11 443 1
12 12 1
12 36 1
12 44 1
12 60 1
12 268 1
12 292 1
12 300 1
12 316 1
12 332 1
12 356 1
12 364 1
12 380 1
12 396 1
12 420 1
12 428 1
12 444 1
13 13 1
13 37 1
13 45 1
13 61 1
13 269 1
13 293 1
13 301 1
13 317 1
13 333 1
13 357 1
13 365 1
13 381 1
13 397 1
13 421 1
13 429 1
13 445 1
14 14 1
14 38 1
14 46 1
14 62 1
14 270 1
14 294 1
14 302 1
14 318 1
14 334 1
14 358 1
14 366 1
14 382 1
14 398 1
14 422 1
14 430 1
14 446 1
15 15 1
15 39 1
15 47 1
15 63 1
15 271 1
15 295 1
15 303 1
15 319 1
15 335 1
15 359 1
15 367 1
15 383 1
15 399 1
15 423 1
15 431 1
15 447 1
16 16 1
16 40 1
16 48 1
16 64 1
16 272 1
16 296 1
16 304 1
16 320 1
16 336 1
16 360 1
16 368 1
16 384 1
16 400 1
16 424 1
16 432 1
16 448 1
17 17 1
17 33 1
17 49 1
17 57 1
17 273 1
17 289 1
17 305 1
17 313 1
17 337 1
17 353 1
17 369 1
17 377 1
17 401 1
17 417 1
17 433 1
17 441 1
18 18 1
18 34 1
18 50 1
18 58 1
18 274 1
18 290 1
18 306 1
18 314 1
18 338 1
18 354 1
18 370 1
18 378 1
18 402 1
18 418 1
18 434 1
18 442 1
19 19 1
19 35 1
19 51 1
19 59 1
19 275 1
19 291 1
19 307 1
19 315 1
19 339 1
19 355 1
19 371 1
19 379 1
19 403 1
19 419 1
19 435 1
19 443 1
20 20 1
20 36 1
20 52 1
20 60 1
20 276 1
20 292 1
20 308 1
20 316 1
20 340 1
20 356 1
20 372 1
20 380 1
20 404 1
20 420 1
20 436 1
20 444 1
21 21 1
21 37 1
21 53 1
21 61 1
21 277 1
21 293 1
21 309 1
21 317 1
21 341 1
21 357 1
21 373 1
21 381 1
21 405 1
21 421 1
21 437 1
21 445 1
22 22 1
22 38 1
22 54 1
22 62 1
22 278 1
22 294 1
22 310 1
22 318 1
22 342 1
22 358 1
22 374 1
22 382 1
22 406 1
22 422 1
22 438 1
22 446 1
23 23 1
23 39 1
23 55 1
23 63 1
23 279 1
23 295 1
23 311 1
23 319 1
23 343 1
23 359 1
23 375 1
23 383 1
23 407 1
23 423 1
23 439 1
23 447 1
24 24 1
24 40 1
24 56 1
24 64 1
24 280 1
24 296 1
24 312 1
24 320 1
24 344 1
24 360 1
24 376 1
24 384 1
24 408 1
24 424 1
24 440 1
24 448 1
25 25 1
25 41 1
25 49 1
25 57 1
25 281 1
25 297 1
25 305 1
25 313 1
25 345 1
25 361 1
25 369 1
25 377 1
25 409 1
25 425 1
25 433 1
25 441 1
26 26 1
26 42 1
26 50 1
26 58 1
26 282 1
26 298 1
26 306 1
26 314 1
26 346 1
26 362 1
26 370 1
26 378 1
26 410 1
26 426 1
26 434 1
26 442 1
27 27 1
27 43 1
27 51 1
27 59 1
27 283 1
27 299 1
27 307 1
27 315 1
27 347 1
27 363 1
27 371 1
27 379 1
27 411 1
27 427 1
27 435 1
27 443 1
28 28 1
28 44 1
28 52 1
28 60 1
28 284 1
28 300 1
28 308 1
28 316 1
28 348 1
28 364 1
28 372 1
28 380 1
28 412 1
28 428 1
28 436 1
28 444 1
29 29 1
29 45 1
29 53 1
29 61 1
29 285 1
29 301 1
29 309 1
29 317 1
29 349 1
29 365 1
29 373 1
29 381 1
29 413 1
29 429 1
29 437 1
29 445 1
30 30 1
30 46 1
30 54 1
30 62 1
30 286 1
30 302 1
30 310 1
30 318 1
30 350 1
30 366 1
30 374 1
30 382 1
30 414 1
30 430 1
30 438 1
30 446 1
31 31 1
31 47 1
31 55 1
31 63 1
31 287 1
31 303 1
31 311 1
31 319 1
31 351 1
31 367 1
31 375 1
31 383 1
31 415 1
31 431 1
31 439 1
31 447 1
32 32 1
32 48 1
32 56 1
32 64 1
32 288 1
32 304 1
32 312 1
32 320 1
32 352 1
32 368 1
32 376 1
32 384 1
32 416 1
32 432 1
32 440 1
32 448 1
33 65 1
33 97 1
33 105 1
33 113 1
33 257 1
33 289 1
33 297 1
33 305 1
33 321 1
33 353 1
33 361 1
33 369 1
33 449 1
33 481 1
33 489 1
33 497 1
34 66 1
34 98 1
34 106 1
34 114 1
34 258 1
34 290 1
34 298 1
34 306 1
34 322 1
34 354 1
34 362 1
34 370 1
34 450 1
34 482 1
34 490 1
34 498 1
35 67 1
35 99 1
35 107 1
35 115 1
35 259 1
35 291 1
35 299 1
35 307 1
35 323 1
35 355 1
35 363 1
35 371 1
35 451 1
35 483 1
35 491 1
35 499 1
36 68 1
36 100 1
36 108 1
36 116 1
36 260 1
36 292 1
36 300 1
36 308 1
36 324 1
36 356 1
36 364 1
36 372 1
36 452 1
36 484 1
36 492 1
36 500 1
37 69 1
37 101 1
37 109 1
37 117 1
37 261 1
37 293 1
37 301 1
37 309 1
37 325 1
37 357 1
37 365 1
37 373 1
37 453 1
37 485 1
37 493 1
37 501 1
38 70 1
38 102 1
38 110 1
38 118 1
38 262 1
38 294 1
38 302 1
38 310 1
38 326 1
38 358 1
38 366 1
38 374 1
38 454 1
38 486 1
38 494 1
38 502 1
39 71 1
39 103 1
39 111 1
39 119 1
39 263 1
39 295 1
39 303 1
39 311 1
39 327 1
39 359 1
39 367 1
39 375 1
39 455 1
39 487 1
39 495 1
39 503 1
40 72 1
40 104 1
40 112 1
40 120 1
40 264 1
40 296 1
40 304 1
40 312 1
40 328 1
40 360 1
40 368 1
40 376 1
40 456 1
40 488 1
40 496 1
40 504 1
41 73 1
41 97 1
41 105 1
41 121 1
41 265 1
41 289 1
41 297 1
41 313 1
41 329 1
41 353 1
41 361 1
41 377 1
41 457 1
41 481 1
41 489 1
41 505 1
42 74 1
42 98 1
42 106 1
42 122 1
42 266 1
42 290 1
42 298 1
42 314 1
42 330 1
42 354 1
42 362 1
42 378 1
42 458 1
42 482 1
42 490 1
42 506 1
43 75 1
43 99 1
43 107 1
43 123 1
43 267 1
43 291 1
43 299 1
43 315 1
43 331 1
43 355 1
43 363 1
43 379 1
43 459 1
43 483 1
43 491 1
43 507 1
44 76 1
44 100 1
44 108 1
44 124 1
44 268 1
44 292 1
44 300 1
44 316 1
44 332 1
44 356 1
44 364 1
44 380 1
44 460 1
44 484 1
44 492 1
44 508 1
45 77 1
45 101 1
45 109 1
45 125 1
45 269 1
45 293 1
45 301 1
45 317 1
45 333 1
45 357 1
45 365 1
45 381 1
45 461 1
45 485 1
45 493 1
45 509 1
46 78 1
46 102 1
46 110 1
46 126 1
46 270 1
46 294 1
46 302 1
46 318 1
46 334 1
46 358 1
46 366 1
46 382 1
46 462 1
46 486 1
46 494 1
46 510 1
47 79 1
47 103 1
47 111 1
47 127 1
47 271 1
47 295 1
47 303 1
47 319 1
47 335 1
47 359 1
47 367 1
47 383 1
47 463 1
47 487 1
47 495 1
47 511 1
48 80 1
48 104 1
48 112 1
48 128 1
48 272 1
48 296 1
48 304 1
48 320 1
48 336 1
48 360 1
48 368 1
48 384 1
48 464 1
48 488 1
48 496 1
48 512 1
49 81 1
49 97 1
49 113 1
49 121 1
49 273 1
49 289 1
49 305 1
49 313 1
49 337 1
49 353 1
49 369 1
49 377 1
49 465 1
49 481 1
49 497 1
49 505 1
50 82 1
50 98 1
50 114 1
50 122 1
50 274 1
50 290 1
50 306 1
50 314 1
50 338 1
50 354 1
50 370 1
50 378 1
50 466 1
50 482 1
50 498 1
50 506 1
51 83 1
51 99 1
51 115 1
51 123 1
51 275 1
51 291 1
51 307 1
51 315 1
51 339 1
51 355 1
51 371 1
51 379 1
51 467 1
51 483 1
51 499 1
51 507 1
52 84 1
52 100 1
52 116 1
52 124 1
52 276 1
52 292 1
52 308 1
52 316 1
52 340 1
52 356 1
52 372 1
52 380 1
52 468 1
52 484 1
52 500 1
52 508 1
53 85 1
53 101 1
53 117 1
53 125 1
53 277 1
53 293 1
53 309 1
53 317 1
53 341 1
53 357 1
53 373 1
53 381 1
53 469 1
53 485 1
53 501 1
53 509 1
54 86 1
54 102 1
54 118 1
54 126 1
54 278 1
54 294 1
54 310 1
54 318 1
54 342 1
54 358 1
54 374 1
54 382 1
54 470 1
54 486 1
54 502 1
54 510 1
55 87 1
55 103 1
55 119 1
55 127 1
55 279 1
55 295 1
55 311 1
55 319 1
55 343 1
55 359 1
55 375 1
55 383 1
55 471 1
55 487 1
55 503 1
55 511 1
56 88 1
56 104 1
56 120 1
56 128 1
56 280 1
56 296 1
56 312 1
56 320 1
56 344 1
56 360 1
56 376 1
56 384 1
56 472 1
56 488 1
56 504 1
56 512 1
57 89 1
57 105 1
57 113 1
57 121 1
57 281 1
57 297 1
57 305 1
57 313 1
57 345 1
57 361 1
57 369 1
57 377 1
57 473 1
57 489 1
57 497 1
57 505 1
58 90 1
58 106 1
58 114 1
58 122 1
58 282 1
58 298 1
58 306 1
58 314 1
58 346 1
58 362 1
58 370 1
58 378 1
58 474 1
58 490 1
58 498 1
58 506 1
59 91 1
59 107 1
59 115 1
59 123 1
59 283 1
59 299 1
59 307 1
59 315 1
59 347 1
59 363 1
59 371 1
59 379 1
59 475 1
59 491 1
59 499 1
59 507 1
60 92 1
60 108 1
60 116 1
60 124 1
60 284 1
60 300 1
60 308 1
60 316 1
60 348 1
60 364 1
60 372 1
60 380 1
60 476 1
60 492 1
60 500 1
60 508 1
61 93 1
61 109 1
61 117 1
61 125 1
61 285 1
61 301 1
61 309 1
61 317 1
61 349 1
61 365 1
61 373 1
61 381 1
61 477 1
61 493 1
61 501 1
61 509 1
62 94 1
62 110 1
62 118 1
62 126 1
62 286 1
62 302 1
62 310 1
62 318 1
62 350 1
62 366 1
62 374 1
62 382 1
62 478 1
62 494 1
62 502 1
62 510 1
63 95 1
63 111 1
63 119 1
63 127 1
63 287 1
63 303 1
63 311 1
63 319 1
63 351 1
63 367 1
63 375 1
63 383 1
63 479 1
63 495 1
63 503 1
63 511 1
64 96 1
64 112 1
64 120 1
64 128 1
64 288 1
64 304 1
64 312 1
64 320 1
64 352 1
64 368 1
64 376 1
64 384 1
64 480 1
64 496 1
64 504 1
64 512 1
65 129 1
65 161 1
65 169 1
65 177 1
65 257 1
65 289 1
65 297 1
65 305 1
65 385 1
65 417 1
65 425 1
65 433 1
65 449 1
65 481 1
65 489 1
65 497 1
66 130 1
66 162 1
66 170 1
66 178 1
66 258 1
66 290 1
66 298 1
66 306 1
66 386 1
66 418 1
66 426 1
66 434 1
66 450 1
66 482 1
66 490 1
66 498 1
67 131 1
67 163 1
67 171 1
67 179 1
67 259 1
67 291 1
67 299 1
67 307 1
67 387 1
67 419 1
67 427 1
67 435 1
67 451 1
67 483 1
67 491 1
67 499 1
68 132 1
68 164 1
68 172 1
68 180 1
68 260 1
68 292 1
68 300 1
68 308 1
68 388 1
68 420 1
68 428 1
68 436 1
68 452 1
68 484 1
68 492 1
68 500 1
69 133 1
69 165 1
69 173 1
69 181 1
69 261 1
69 293 1
69 301 1
69 309 1
69 389 1
69 421 1
69 429 1
69 437 1
69 453 1
69 485 1
69 493 1
69 501 1
70 134 1
70 166 1
70 174 1
70 182 1
70 262 1
70 294 1
70 302 1
70 310 1
70 390 1
70 422 1
70 430 1
70 438 1
70 454 1
70 486 1
70 494 1
70 502 1
71 135 1
71 167 1
71 175 1
71 183 1
71 263 1
71 295 1
71 303 1
71 311 1
71 391 1
71 423 1
71 431 1
71 439 1
71 455 1
71 487 1
71 495 1
71 503 1
72 136 1
72 168 1
72 176 1
72 184 1
72 264 1
72 296 1
72 304 1
72 312 1
72 392 1
72 424 1
72 432 1
72 440 1
72 456 1
72 488 1
72 496 1
72 504 1
73 137 1
73 161 1
73 169 1
73 185 1
73 265 1
73 289 1
73 297 1
73 313 1
73 393 1
73 417 1
73 425 1
73 441 1
73 457 1
73 481 1
73 489 1
73 505 1
74 138 1
74 162 1
74 170 1
74 186 1
74 266 1
74 290 1
74 298 1
74 314 1
74 394 1
74 418 1
74 426 1
74 442 1
74 458 1
74 482 1
74 490 1
74 506 1
75 139 1
75 163 1
75 171 1
75 187 1
75 267 1
75 291 1
75 299 1
75 315 1
75 395 1
75 419 1
75 427 1
75 443 1
75 459 1
75 483 1
75 491 1
75 507 1
76 140 1
76 164 1
76 172 1
76 188 1
76 268 1
76 292 1
76 300 1
76 316 1
76 396 1
76 420 1
76 428 1
76 444 1
76 460 1
76 484 1
76 492 1
76 508 1
77 141 1
77 165 1
77 173 1
77 189 1
77 269 1
77 293 1
77 301 1
77 317 1
77 397 1
77 421 1
77 429 1
77 445 1
77 461 1
77 485 1
77 493 1
77 509 1
78 142 1
78 166 1
78 174 1
78 190 1
78 270 1
78 294 1
78 302 1
78 318 1
78 398 1
78 422 1
78 430 1
78 446 1
78 462 1
78 486 1
78 494 1
78 510 1
79 143 1
79 167 1
79 175 1
79 191 1
79 271 1
79 295 1
79 303 1
79 319 1
79 399 1
79 423 1
79 431 1
79 447 1
79 463 1
79 487 1
79 495 1
79 511 1
80 144 1
80 168 1
80 176 1
80 192 1
80 272 1
80 296 1
80 304 1
80 320 1
80 400 1
80 424 1
80 432 1
80 448 1
80 464 1
80 488 1
80 496 1
80 512 1
81 145 1
81 161 1
81 177 1
81 185 1
81 273 1
81 289 1
81 305 1
81 313 1
81 401 1
81 417 1
81 433 1
81 441 1
81 465 1
81 481 1
81 497 1
81 505 1
82 146 1
82 162 1
82 178 1
82 186 1
82 274 1
82 290 1
82 306 1
82 314 1
82 402 1
82 418 1
82 434 1
82 442 1
82 466 1
82 482 1
82 498 1
82 506 1
83 147 1
83 163 1
83 179 1
83 187 1
83 275 1
83 291 1
83 307 1
83 315 1
83 403 1
83 419 1
83 435 1
83 443 1
83 467 1
83 483 1
83 499 1
83 507 1
84 148 1
84 164 1
84 180 1
84 188 1
84 276 1
84 292 1
84 308 1
84 316 1
84 404 1
84 420 1
84 436 1
84 444 1
84 468 1
84 484 1
84 500 1
84 508 1
85 149 1
85 165 1
85 181 1
85 189 1
85 277 1
85 293 1
85 309 1
85 317 1
85 405 1
85 421 1
85 437 1
85 445 1
85 469 1
85 485 1
85 501 1
85 509 1
86 150 1
86 166 1
86 182 1
86 190 1
86 278 1
86 294 1
86 310 1
86 318 1
86 406 1
86 422 1
86 438 1
86 446 1
86 470 1
86 486 1
86 502 1
86 510 1
87 151 1
87 167 1
87 183 1
87 191 1
87 279 1
87 295 1
87 311 1
87 319 1
87 407 1
87 423 1
87 439 1
87 447 1
87 471 1
87 487 1
87 503 1
87 511 1
88 152 1
88 168 1
88 184 1
88 192 1
88 280 1
88 296 1
88 312 1
88 320 1
88 408 1
88 424 1
88 440 1
88 448 1
88 472 1
88 488 1
88 504 1
88 512 1
89 153 1
89 169 1
89 177 1
89 185 1
89 281 1
89 297 1
89 305 1
89 313 1
89 409 1
89 425 1
89 433 1
89 441 1
89 473 1
89 489 1
89 497 1
89 505 1
90 154 1
90 170 1
90 178 1
90 186 1
90 282 1
90 298 1
90 306 1
90 314 1
90 410 1
90 426 1
90 434 1
90 442 1
90 474 1
90 490 1
90 498 1
90 506 1
91 155 1
91 171 1
91 179 1
91 187 1
91 283 1
91 299 1
91 307 1
91 315 1
91 411 1
91 427 1
91 435 1
91 443 1
91 475 1
91 491 1
91 499 1
91 507 1
92 156 1
92 172 1
92 180 1
92 188 1
92 284 1
92 300 1
92 308 1
92 316 1
92 412 1
92 428 1
92 436 1
92 444 1
92 476 1
92 492 1
92 500 1
92 508 1
93 157 1
93 173 1
93 181 1
93 189 1
93 285 1
93 301 1
93 309 1
93 317 1
93 413 1
93 429 1
93 437 1
93 445 1
93 477 1
93 493 1
93 501 1
93 509 1
94 158 1
94 174 1
94 182 1
94 190 1
94 286 1
94 302 1
94 310 1
94 318 1
94 414 1
94 430 1
94 438 1
94 446 1
94 478 1
94 494 1
94 502 1
94 510 1
95 159 1
95 175 1
95 183 1
95 191 1
95 287 1
95 303 1
95 311 1
95 319 1
95 415 1
95 431 1
95 439 1
95 447 1
95 479 1
95 495 1
95 503 1
95 511 1
96 160 1
96 176 1
96 184 1
96 192 1
96 288 1
96 304 1
96 312 1
96 320 1
96 416 1
96 432 1
96 440 1
96 448 1
96 480 1
96 496 1
96 504 1
96 512 1
97 193 1
97 225 1
97 233 1
97 241 1
97 321 1
97 353 1
97 361 1
97 369 1
97 385 1
97 417 1
97 425 1
97 433 1
97 449 1
97 481 1
97 489 1
97 497 1
98 194 1
98 226 1
98 234 1
98 242 1
98 322 1
98 354 1
98 362 1
98 370 1
98 386 1
98 418 1
98 426 1
98 434 1
98 450 1
98 482 1
98 490 1
98 498 1
99 195 1
99 227 1
99 235 1
99 243 1
99 323 1
99 355 1
99 363 1
99 371 1
99 387 1
99 419 1
99 427 1
99 435 1
99 451 1
99 483 1
99 491 1
99 499 1
100 196 1
100 228 1
100 236 1
100 244 1
100 324 1
100 356 1
100 364 1
100 372 1
100 388 1
100 420 1
100 428 1
100 436 1
100 452 1
100 484 1
100 492 1
100 500 1
101 197 1
101 229 1
101 237 1
101 245 1
101 325 1
101 357 1
101 365 1
101 373 1
101 389 1
101 421 1
101 429 1
101 437 1
101 453 1
101 485 1
101 493 1
101 501 1
102 198 1
102 230 1
102 238 1
102 246 1
102 326 1
102 358 1
102 366 1
102 374 1
102 390 1
102 422 1
102 430 1
102 438 1
102 454 1
102 486 1
102 494 1
102 502 1
103 199 1
103 231 1
103 239 1
103 247 1
103 327 1
103 359 1
103 367 1
103 375 1
103 391 1
103 423 1
103 431 1
103 439 1
103 455 1
103 487 1
103 495 1
103 503 1
104 200 1
104 232 1
104 240 1
104 248 1
104 328 1
104 360 1
104 368 1
104 376 1
104 392 1
104 424 1
104 432 1
104 440 1
104 456 1
104 488 1
104 496 1
104 504 1
105 201 1
105 225 1
105 233 1
105 249 1
105 329 1
105 353 1
105 361 1
105 377 1
105 393 1
105 417 1
105 425 1
105 441 1
105 457 1
105 481 1
105 489 1
105 505 1
106 202 1
106 226 1
106 234 1
106 250 1
106 330 1
106 354 1
106 362 1
106 378 1
106 394 1
106 418 1
106 426 1
106 442 1
106 458 1
106 482 1
106 490 1
106 506 1
107 203 1
107 227 1
107 235 1
107 251 1
107 331 1
107 355 1
107 363 1
107 379 1
107 395 1
107 419 1
107 427 1
107 443 1
107 459 1
107 483 1
107 491 1
107 507 1
108 204 1
108 228 1
108 236 1
108 252 1
108 332 1
108 356 1
108 364 1
108 380 1
108 396 1
108 420 1
108 428 1
108 444 1
108 460 1
108 484 1
108 492 1
108 508 1
109 205 1
109 229 1
109 237 1
109 253 1
109 333 1
109 357 1
109 365 1
109 381 1
109 397 1
109 421 1
109 429 1
109 445 1
109 461 1
109 485 1
109 493 1
109 509 1
110 206 1
110 230 1
110 238 1
110 254 1
110 334 1
110 358 1
110 366 1
110 382 1
110 398 1
110 422 1
110 430 1
110 446 1
110 462 1
110 486 1
110 494 1
110 510 1
111 207 1
111 231 1
111 239 1
111 255 1
111 335 1
111 359 1
111 367 1
111 383 1
111 399 1
111 423 1
111 431 1
111 447 1
111 463 1
111 487 1
111 495 1
111 511 1
112 208 1
112 232 1
112 240 1
112 256 1
112 336 1
112 360 1
112 368 1
112 384 1
112 400 1
112 424 1
112 432 1
112 448 1
112 464 1
112 488 1
112 496 1
112 512 1
113 209 1
113 225 1
113 241 1
113 249 1
113 337 1
113 353 1
113 369 1
113 377 1
113 401 1
113 417 1
113 433 1
113 441 1
113 465 1
113 481 1
113 497 1
113 505 1
114 210 1
114 226 1
114 242 1
114 250 1
114 338 1
114 354 1
114 370 1
114 378 1
114 402 1
114 418 1
114 434 1
114 442 1
114 466 1
114 482 1
114 498 1
114 506 1
115 211 1
115 227 1
115 243 1
115 251 1
115 339 1
115 355 1
115 371 1
115 379 1
115 403 1
115 419 1
115 435 1
115 443 1
115 467 1
115 483 1
115 499 1
115 507 1
116 212 1
116 228 1
116 244 1
116 252 1
116 340 1
116 356 1
116 372 1
116 380 1
116 404 1
116 420 1
116 436 1
116 444 1
116 468 1
116 484 1
116 500 1
116 508 1
117 213 1
117 229 1
117 245 1
117 253 1
117 341 1
117 357 1
117 373 1
117 381 1
117 405 1
117 421 1
117 437 1
117 445 1
117 469 1
117 485 1
117 501 1
117 509 1
118 214 1
118 230 1
118 246 1
118 254 1
118 342 1
118 358 1
118 374 1
118 382 1
118 406 1
118 422 1
118 438 1
118 446 1
118 470 1
118 486 1
118 502 1
118 510 1
119 215 1
119 231 1
119 247 1
119 255 1
119 343 1
119 359 1
119 375 1
119 383 1
119 407 1
119 423 1
119 439 1
119 447 1
119 471 1
119 487 1
119 503 1
119 511 1
120 216 1
120 232 1
120 248 1
120 256 1
120 344 1
120 360 1
120 376 1
120 384 1
120 408 1
120 424 1
120 440 1
120 448 1
120 472 1
120 488 1
120 504 1
120 512 1
121 217 1
121 233 1
121 241 1
121 249 1
121 345 1
121 361 1
121 369 1
121 377 1
121 409 1
121 425 1
121 433 1
121 441 1
121 473 1
121 489 1
121 497 1
121 505 1
122 218 1
122 234 1
122 242 1
122 250 1
122 346 1
122 362 1
122 370 1
122 378 1
122 410 1
122 426 1
122 434 1
122 442 1
122 474 1
122 490 1
122 498 1
122 506 1
123 219 1
123 235 1
123 243 1
123 251 1
123 347 1
123 363 1
123 371 1
123 379 1
123 411 1
123 427 1
123 435 1
123 443 1
123 475 1
123 491 1
123 499 1
123 507 1
124 220 1
124 236 1
124 244 1
124 252 1
124 348 1
124 364 1
124 372 1
124 380 1
124 412 1
124 428 1
124 436 1
124 444 1
124 476 1
124 492 1
124 500 1
124 508 1
125 221 1
125 237 1
125 245 1
125 253 1
125 349 1
125 365 1
125 373 1
125 381 1
125 413 1
125 429 1
125 437 1
125 445 1
125 477 1
125 493 1
125 501 1
125 509 1
126 222 1
126 238 1
126 246 1
126 254 1
126 350 1
126 366 1
126 374 1
126 382 1
126 414 1
126 430 1
126 438 1
126 446 1
126 478 1
126 494 1
126 502 1
126 510 1
127 223 1
127 239 1
127 247 1
127 255 1
127 351 1
127 367 1
127 375 1
127 383 1
127 415 1
127 431 1
127 439 1
127 447 1
127 479 1
127 495 1
127 503 1
127 511 1
128 224 1
128 240 1
128 248 1
128 256 1
128 352 1
128 368 1
128 376 1
128 384 1
128 416 1
128 432 1
128 440 1
128 448 1
128 480 1
128 496 1
128 504 1
128 512 1
129 1 1
129 31 1
129 45 1
129 51 1
129 259 1
129 281 1
129 302 1
129 308 1
129 324 1
129 347 1
129 368 1
129 375 1
129 454 1
129 477 1
129 489 1
129 504 1
130 2 1
130 32 1
130 44 1
130 53 1
130 261 1
130 282 1
130 303 1
130 310 1
130 326 1
130 349 1
130 361 1
130 376 1
130 455 1
130 476 1
130 490 1
130 497 1
131 3 1
131 25 1
131 46 1
131 52 1
131 260 1
131 283 1
131 304 1
131 311 1
131 327 1
131 348 1
131 362 1
131 369 1
131 456 1
131 478 1
131 491 1
131 498 1
132 4 1
132 27 1
132 48 1
132 55 1
132 263 1
132 284 1
132 298 1
132 305 1
132 321 1
132 351 1
132 365 1
132 371 1
132 450 1
132 480 1
132 492 1
132 501 1
133 5 1
133 26 1
133 47 1
133 54 1
133 262 1
133 285 1
133 297 1
133 312 1
133 328 1
133 350 1
133 363 1
133 370 1
133 449 1
133 479 1
133 493 1
133 499 1
134 6 1
134 29 1
134 41 1
134 56 1
134 264 1
134 286 1
134 299 1
134 306 1
134 322 1
134 352 1
134 364 1
134 373 1
134 451 1
134 473 1
134 494 1
134 500 1
135 7 1
135 28 1
135 42 1
135 49 1
135 257 1
135 287 1
135 301 1
135 307 1
135 323 1
135 345 1
135 366 1
135 372 1
135 453 1
135 474 1
135 495 1
135 502 1
136 8 1
136 30 1
136 43 1
136 50 1
136 258 1
136 288 1
136 300 1
136 309 1
136 325 1
136 346 1
136 367 1
136 374 1
136 452 1
136 475 1
136 496 1
136 503 1
137 9 1
137 31 1
137 45 1
137 58 1
137 267 1
137 281 1
137 302 1
137 317 1
137 332 1
137 347 1
137 368 1
137 382 1
137 462 1
137 477 1
137 489 1
137 511 1
138 10 1
138 32 1
138 44 1
138 59 1
138 269 1
138 282 1
138 303 1
138 316 1
138 334 1
138 349 1
138 361 1
138 383 1
138 463 1
138 476 1
138 490 1
138 512 1
139 11 1
139 25 1
139 46 1
139 61 1
139 268 1
139 283 1
139 304 1
139 318 1
139 335 1
139 348 1
139 362 1
139 384 1
139 464 1
139 478 1
139 491 1
139 505 1
140 12 1
140 27 1
140 48 1
140 62 1
140 271 1
140 284 1
140 298 1
140 320 1
140 329 1
140 351 1
140 365 1
140 378 1
140 458 1
140 480 1
140 492 1
140 507 1
141 13 1
141 26 1
141 47 1
141 60 1
141 270 1
141 285 1
141 297 1
141 319 1
141 336 1
141 350 1
141 363 1
141 377 1
141 457 1
141 479 1
141 493 1
141 506 1
142 14 1
142 29 1
142 41 1
142 63 1
142 272 1
142 286 1
142 299 1
142 313 1
142 330 1
142 352 1
142 364 1
142 379 1
142 459 1
142 473 1
142 494 1
142 509 1
143 15 1
143 28 1
143 42 1
143 64 1
143 265 1
143 287 1
143 301 1
143 314 1
143 331 1
143 345 1
143 366 1
143 381 1
143 461 1
143 474 1
143 495 1
143 508 1
144 16 1
144 30 1
144 43 1
144 57 1
144 266 1
144 288 1
144 300 1
144 315 1
144 333 1
144 346 1
144 367 1
144 380 1
144 460 1
144 475 1
144 496 1
144 510 1
145 24 1
145 31 1
145 51 1
145 58 1
145 274 1
145 281 1
145 308 1
145 317 1
145 341 1
145 347 1
145 375 1
145 382 1
145 468 1
145 477 1
145 504 1
145 511 1
146 17 1
146 32 1
146 53 1
146 59 1
146 275 1
146 282 1
146 310 1
146 316 1
146 340 1
146 349 1
146 376 1
146 383 1
146 470 1
146 476 1
146 497 1
146 512 1
147 18 1
147 25 1
147 52 1
147 61 1
147 277 1
147 283 1
147 311 1
147 318 1
147 342 1
147 348 1
147 369 1
147 384 1
147 471 1
147 478 1
147 498 1
147 505 1
148 21 1
148 27 1
148 55 1
148 62 1
148 278 1
148 284 1
148 305 1
148 320 1
148 344 1
148 351 1
148 371 1
148 378 1
148 465 1
148 480 1
148 501 1
148 507 1
149 19 1
149 26 1
149 54 1
149 60 1
149 276 1
149 285 1
149 312 1
149 319 1
149 343 1
149 350 1
149 370 1
149 377 1
149 472 1
149 479 1
149 499 1
149 506 1
150 20 1
150 29 1
150 56 1
150 63 1
150 279 1
150 286 1
150 306 1
150 313 1
150 337 1
150 352 1
150 373 1
150 379 1
150 466 1
150 473 1
150 500 1
150 509 1
151 22 1
151 28 1
151 49 1
151 64 1
151 280 1
151 287 1
151 307 1
151 314 1
151 338 1
151 345 1
151 372 1
151 381 1
151 467 1
151 474 1
151 502 1
151 508 1
152 23 1
152 30 1
152 50 1
152 57 1
152 273 1
152 288 1
152 309 1
152 315 1
152 339 1
152 346 1
152 374 1
152 380 1
152 469 1
152 475 1
152 503 1
152 510 1
153 38 1
153 45 1
153 51 1
153 58 1
153 296 1
153 302 1
153 308 1
153 317 1
153 354 1
153 368 1
153 375 1
153 382 1
153 483 1
153 489 1
153 504 1
153 511 1
154 39 1
154 44 1
154 53 1
154 59 1
154 289 1
154 303 1
154 310 1
154 316 1
154 355 1
154 361 1
154 376 1
154 383 1
154 485 1
154 490 1
154 497 1
154 512 1
155 40 1
155 46 1
155 52 1
155 61 1
155 290 1
155 304 1
155 311 1
155 318 1
155 357 1
155 362 1
155 369 1
155 384 1
155 484 1
155 491 1
155 498 1
155 505 1
156 34 1
156 48 1
156 55 1
156 62 1
156 293 1
156 298 1
156 305 1
156 320 1
156 358 1
156 365 1
156 371 1
156 378 1
156 487 1
156 492 1
156 501 1
156 507 1
157 33 1
157 47 1
157 54 1
157 60 1
157 291 1
157 297 1
157 312 1
157 319 1
157 356 1
157 363 1
157 370 1
157 377 1
157 486 1
157 493 1
157 499 1
157 506 1
158 35 1
158 41 1
158 56 1
158 63 1
158 292 1
158 299 1
158 306 1
158 313 1
158 359 1
158 364 1
158 373 1
158 379 1
158 488 1
158 494 1
158 500 1
158 509 1
159 37 1
159 42 1
159 49 1
159 64 1
159 294 1
159 301 1
159 307 1
159 314 1
159 360 1
159 366 1
159 372 1
159 381 1
159 481 1
159 495 1
159 502 1
159 508 1
160 36 1
160 43 1
160 50 1
160 57 1
160 295 1
160 300 1
160 309 1
160 315 1
160 353 1
160 367 1
160 374 1
160 380 1
160 482 1
160 496 1
160 503 1
160 510 1
161 65 1
161 95 1
161 109 1
161 115 1
161 259 1
161 281 1
161 302 1
161 308 1
161 389 1
161 410 1
161 431 1
161 438 1
161 454 1
161 477 1
161 489 1
161 504 1
162 66 1
162 96 1
162 108 1
162 117 1
162 261 1
162 282 1
162 303 1
162 310 1
162 388 1
162 411 1
162 432 1
162 439 1
162 455 1
162 476 1
162 490 1
162 497 1
163 67 1
163 89 1
163 110 1
163 116 1
163 260 1
163 283 1
163 304 1
163 311 1
163 390 1
163 413 1
163 425 1
163 440 1
163 456 1
163 478 1
163 491 1
163 498 1
164 68 1
164 91 1
164 112 1
164 119 1
164 263 1
164 284 1
164 298 1
164 305 1
164 392 1
164 414 1
164 427 1
164 434 1
164 450 1
164 480 1
164 492 1
164 501 1
165 69 1
165 90 1
165 111 1
165 118 1
165 262 1
165 285 1
165 297 1
165 312 1
165 391 1
165 412 1
165 426 1
165 433 1
165 449 1
165 479 1
165 493 1
165 499 1
166 70 1
166 93 1
166 105 1
166 120 1
166 264 1
166 286 1
166 299 1
166 306 1
166 385 1
166 415 1
166 429 1
166 435 1
166 451 1
166 473 1
166 494 1
166 500 1
167 71 1
167 92 1
167 106 1
167 113 1
167 257 1
167 287 1
167 301 1
167 307 1
167 386 1
167 416 1
167 428 1
167 437 1
167 453 1
167 474 1
167 495 1
167 502 1
168 72 1
168 94 1
168 107 1
168 114 1
168 258 1
168 288 1
168 300 1
168 309 1
168 387 1
168 409 1
168 430 1
168 436 1
168 452 1
168 475 1
168 496 1
168 503 1
169 73 1
169 95 1
169 109 1
169 122 1
169 267 1
169 281 1
169 302 1
169 317 1
169 397 1
169 410 1
169 431 1
169 444 1
169 462 1
169 477 1
169 489 1
169 511 1
170 74 1
170 96 1
170 108 1
170 123 1
170 269 1
170 282 1
170 303 1
170 316 1
170 396 1
170 411 1
170 432 1
170 446 1
170 463 1
170 476 1
170 490 1
170 512 1
171 75 1
171 89 1
171 110 1
171 125 1
171 268 1
171 283 1
171 304 1
171 318 1
171 398 1
171 413 1
171 425 1
171 447 1
171 464 1
171 478 1
171 491 1
171 505 1
172 76 1
172 91 1
172 112 1
172 126 1
172 271 1
172 284 1
172 298 1
172 320 1
172 400 1
172 414 1
172 427 1
172 441 1
172 458 1
172 480 1
172 492 1
172 507 1
173 77 1
173 90 1
173 111 1
173 124 1
173 270 1
173 285 1
173 297 1
173 319 1
173 399 1
173 412 1
173 426 1
173 448 1
173 457 1
173 479 1
173 493 1
173 506 1
174 78 1
174 93 1
174 105 1
174 127 1
174 272 1
174 286 1
174 299 1
174 313 1
174 393 1
174 415 1
174 429 1
174 442 1
174 459 1
174 473 1
174 494 1
174 509 1
175 79 1
175 92 1
175 106 1
175 128 1
175 265 1
175 287 1
175 301 1
175 314 1
175 394 1
175 416 1
175 428 1
175 443 1
175 461 1
175 474 1
175 495 1
175 508 1
176 80 1
176 94 1
176 107 1
176 121 1
176 266 1
176 288 1
176 300 1
176 315 1
176 395 1
176 409 1
176 430 1
176 445 1
176 460 1
176 475 1
176 496 1
176 510 1
177 88 1
177 95 1
177 115 1
177 122 1
177 274 1
177 281 1
177 308 1
177 317 1
177 403 1
177 410 1
177 438 1
177 444 1
177 468 1
177 477 1
177 504 1
177 511 1
178 81 1
178 96 1
178 117 1
178 123 1
178 275 1
178 282 1
178 310 1
178 316 1
178 405 1
178 411 1
178 439 1
178 446 1
178 470 1
178 476 1
178 497 1
178 512 1
179 82 1
179 89 1
179 116 1
179 125 1
179 277 1
179 283 1
179 311 1
179 318 1
179 404 1
179 413 1
179 440 1
179 447 1
179 471 1
179 478 1
179 498 1
179 505 1
180 85 1
180 91 1
180 119 1
180 126 1
180 278 1
180 284 1
180 305 1
180 320 1
180 407 1
180 414 1
180 434 1
180 441 1
180 465 1
180 480 1
180 501 1
180 507 1
181 83 1
181 90 1
181 118 1
181 124 1
181 276 1
181 285 1
181 312 1
181 319 1
181 406 1
181 412 1
181 433 1
181 448 1
181 472 1
181 479 1
181 499 1
181 506 1
182 84 1
182 93 1
182 120 1
182 127 1
182 279 1
182 286 1
182 306 1
182 313 1
182 408 1
182 415 1
182 435 1
182 442 1
182 466 1
182 473 1
182 500 1
182 509 1
183 86 1
183 92 1
183 113 1
183 128 1
183 280 1
183 287 1
183 307 1
183 314 1
183 401 1
183 416 1
183 437 1
183 443 1
183 467 1
183 474 1
183 502 1
183 508 1
184 87 1
184 94 1
184 114 1
184 121 1
184 273 1
184 288 1
184 309 1
184 315 1
184 402 1
184 409 1
184 436 1
184 445 1
184 469 1
184 475 1
184 503 1
184 510 1
185 102 1
185 109 1
185 115 1
185 122 1
185 296 1
185 302 1
185 308 1
185 317 1
185 417 1
185 431 1
185 438 1
185 444 1
185 483 1
185 489 1
185 504 1
185 511 1
186 103 1
186 108 1
186 117 1
186 123 1
186 289 1
186 303 1
186 310 1
186 316 1
186 418 1
186 432 1
186 439 1
186 446 1
186 485 1
186 490 1
186 497 1
186 512 1
187 104 1
187 110 1
187 116 1
187 125 1
187 290 1
187 304 1
187 311 1
187 318 1
187 419 1
187 425 1
187 440 1
187 447 1
187 484 1
187 491 1
187 498 1
187 505 1
188 98 1
188 112 1
188 119 1
188 126 1
188 293 1
188 298 1
188 305 1
188 320 1
188 420 1
188 427 1
188 434 1
188 441 1
188 487 1
188 492 1
188 501 1
188 507 1
189 97 1
189 111 1
189 118 1
189 124 1
189 291 1
189 297 1
189 312 1
189 319 1
189 421 1
189 426 1
189 433 1
189 448 1
189 486 1
189 493 1
189 499 1
189 506 1
190 99 1
190 105 1
190 120 1
190 127 1
190 292 1
190 299 1
190 306 1
190 313 1
190 422 1
190 429 1
190 435 1
190 442 1
190 488 1
190 494 1
190 500 1
190 509 1
191 101 1
191 106 1
191 113 1
191 128 1
191 294 1
191 301 1
191 307 1
191 314 1
191 423 1
191 428 1
191 437 1
191 443 1
191 481 1
191 495 1
191 502 1
191 508 1
192 100 1
192 107 1
192 114 1
192 121 1
192 295 1
192 300 1
192 309 1
192 315 1
192 424 1
192 430 1
192 436 1
192 445 1
192 482 1
192 496 1
192 503 1
192 510 1
193 130 1
193 160 1
193 172 1
193 181 1
193 324 1
193 347 1
193 368 1
193 375 1
193 389 1
193 410 1
193 431 1
193 438 1
193 454 1
193 477 1
193 489 1
193 504 1
194 131 1
194 153 1
194 174 1
194 180 1
194 326 1
194 349 1
194 361 1
194 376 1
194 388 1
194 411 1
194 432 1
194 439 1
194 455 1
194 476 1
194 490 1
194 497 1
195 133 1
195 154 1
195 175 1
195 182 1
195 327 1
195 348 1
195 362 1
195 369 1
195 390 1
195 413 1
195 425 1
195 440 1
195 456 1
195 478 1
195 491 1
195 498 1
196 134 1
196 157 1
196 169 1
196 184 1
196 321 1
196 351 1
196 365 1
196 371 1
196 392 1
196 414 1
196 427 1
196 434 1
196 450 1
196 480 1
196 492 1
196 501 1
197 132 1
197 155 1
197 176 1
197 183 1
197 328 1
197 350 1
197 363 1
197 370 1
197 391 1
197 412 1
197 426 1
197 433 1
197 449 1
197 479 1
197 493 1
197 499 1
198 135 1
198 156 1
198 170 1
198 177 1
198 322 1
198 352 1
198 364 1
198 373 1
198 385 1
198 415 1
198 429 1
198 435 1
198 451 1
198 473 1
198 494 1
198 500 1
199 136 1
199 158 1
199 171 1
199 178 1
199 323 1
199 345 1
199 366 1
199 372 1
199 386 1
199 416 1
199 428 1
199 437 1
199 453 1
199 474 1
199 495 1
199 502 1
200 129 1
200 159 1
200 173 1
200 179 1
200 325 1
200 346 1
200 367 1
200 374 1
200 387 1
200 409 1
200 430 1
200 436 1
200 452 1
200 475 1
200 496 1
200 503 1
201 138 1
201 160 1
201 172 1
201 187 1
201 332 1
201 347 1
201 368 1
201 382 1
201 397 1
201 410 1
201 431 1
201 444 1
201 462 1
201 477 1
201 489 1
201 511 1
202 139 1
202 153 1
202 174 1
202 189 1
202 334 1
202 349 1
202 361 1
202 383 1
202 396 1
202 411 1
202 432 1
202 446 1
202 463 1
202 476 1
202 490 1
202 512 1
203 141 1
203 154 1
203 175 1
203 188 1
203 335 1
203 348 1
203 362 1
203 384 1
203 398 1
203 413 1
203 425 1
203 447 1
203 464 1
203 478 1
203 491 1
203 505 1
204 142 1
204 157 1
204 169 1
204 191 1
204 329 1
204 351 1
204 365 1
204 378 1
204 400 1
204 414 1
204 427 1
204 441 1
204 458 1
204 480 1
204 492 1
204 507 1
205 140 1
205 155 1
205 176 1
205 190 1
205 336 1
205 350 1
205 363 1
205 377 1
205 399 1
205 412 1
205 426 1
205 448 1
205 457 1
205 479 1
205 493 1
205 506 1
206 143 1
206 156 1
206 170 1
206 192 1
206 330 1
206 352 1
206 364 1
206 379 1
206 393 1
206 415 1
206 429 1
206 442 1
206 459 1
206 473 1
206 494 1
206 509 1
207 144 1
207 158 1
207 171 1
207 185 1
207 331 1
207 345 1
207 366 1
207 381 1
207 394 1
207 416 1
207 428 1
207 443 1
207 461 1
207 474 1
207 495 1
207 508 1
208 137 1
208 159 1
208 173 1
208 186 1
208 333 1
208 346 1
208 367 1
208 380 1
208 395 1
208 409 1
208 430 1
208 445 1
208 460 1
208 475 1
208 496 1
208 510 1
209 145 1
209 160 1
209 181 1
209 187 1
209 341 1
209 347 1
209 375 1
209 382 1
209 403 1
209 410 1
209 438 1
209 444 1
209 468 1
209 477 1
209 504 1
209 511 1
210 146 1
210 153 1
210 180 1
210 189 1
210 340 1
210 349 1
210 376 1
210 383 1
210 405 1
210 411 1
210 439 1
210 446 1
210 470 1
210 476 1
210 497 1
210 512 1
211 147 1
211 154 1
211 182 1
211 188 1
211 342 1
211 348 1
211 369 1
211 384 1
211 404 1
211 413 1
211 440 1
211 447 1
211 471 1
211 478 1
211 498 1
211 505 1
212 148 1
212 157 1
212 184 1
212 191 1
212 344 1
212 351 1
212 371 1
212 378 1
212 407 1
212 414 1
212 434 1
212 441 1
212 465 1
212 480 1
212 501 1
212 507 1
213 149 1
213 155 1
213 183 1
213 190 1
213 343 1
213 350 1
213 370 1
213 377 1
213 406 1
213 412 1
213 433 1
213 448 1
213 472 1
213 479 1
213 499 1
213 506 1
214 150 1
214 156 1
214 177 1
214 192 1
214 337 1
214 352 1
214 373 1
214 379 1
214 408 1
214 415 1
214 435 1
214 442 1
214 466 1
214 473 1
214 500 1
214 509 1
215 151 1
215 158 1
215 178 1
215 185 1
215 338 1
215 345 1
215 372 1
215 381 1
215 401 1
215 416 1
215 437 1
215 443 1
215 467 1
215 474 1
215 502 1
215 508 1
216 152 1
216 159 1
216 179 1
216 186 1
216 339 1
216 346 1
216 374 1
216 380 1
216 402 1
216 409 1
216 436 1
216 445 1
216 469 1
216 475 1
216 503 1
216 510 1
217 167 1
217 172 1
217 181 1
217 187 1
217 354 1
217 368 1
217 375 1
217 382 1
217 417 1
217 431 1
217 438 1
217 444 1
217 483 1
217 489 1
217 504 1
217 511 1
218 168 1
218 174 1
218 180 1
218 189 1
218 355 1
218 361 1
218 376 1
218 383 1
218 418 1
218 432 1
218 439 1
218 446 1
218 485 1
218 490 1
218 497 1
218 512 1
219 161 1
219 175 1
219 182 1
219 188 1
219 357 1
219 362 1
219 369 1
219 384 1
219 419 1
219 425 1
219 440 1
219 447 1
219 484 1
219 491 1
219 498 1
219 505 1
220 163 1
220 169 1
220 184 1
220 191 1
220 358 1
220 365 1
220 371 1
220 378 1
220 420 1
220 427 1
220 434 1
220 441 1
220 487 1
220 492 1
220 501 1
220 507 1
221 162 1
221 176 1
221 183 1
221 190 1
221 356 1
221 363 1
221 370 1
221 377 1
221 421 1
221 426 1
221 433 1
221 448 1
221 486 1
221 493 1
221 499 1
221 506 1
222 165 1
222 170 1
222 177 1
222 192 1
222 359 1
222 364 1
222 373 1
222 379 1
222 422 1
222 429 1
222 435 1
222 442 1
222 488 1
222 494 1
222 500 1
222 509 1
223 164 1
223 171 1
223 178 1
223 185 1
223 360 1
223 366 1
223 372 1
223 381 1
223 423 1
223 428 1
223 437 1
223 443 1
223 481 1
223 495 1
223 502 1
223 508 1
224 166 1
224 173 1
224 179 1
224 186 1
224 353 1
224 367 1
224 374 1
224 380 1
224 424 1
224 430 1
224 436 1
224 445 1
224 482 1
224 496 1
224 503 1
224 510 1
225 194 1
225 224 1
225 236 1
225 245 1
225 259 1
225 281 1
225 302 1
225 308 1
225 324 1
225 347 1
225 368 1
225 375 1
225 389 1
225 410 1
225 431 1
225 438 1
226 195 1
226 217 1
226 238 1
226 244 1
226 261 1
226 282 1
226 303 1
226 310 1
226 326 1
226 349 1
226 361 1
226 376 1
226 388 1
226 411 1
226 432 1
226 439 1
227 197 1
227 218 1
227 239 1
227 246 1
227 260 1
227 283 1
227 304 1
227 311 1
227 327 1
227 348 1
227 362 1
227 369 1
227 390 1
227 413 1
227 425 1
227 440 1
228 198 1
228 221 1
228 233 1
228 248 1
228 263 1
228 284 1
228 298 1
228 305 1
228 321 1
228 351 1
228 365 1
228 371 1
228 392 1
228 414 1
228 427 1
228 434 1
229 196 1
229 219 1
229 240 1
229 247 1
229 262 1
229 285 1
229 297 1
229 312 1
229 328 1
229 350 1
229 363 1
229 370 1
229 391 1
229 412 1
229 426 1
229 433 1
230 199 1
230 220 1
230 234 1
230 241 1
230 264 1
230 286 1
230 299 1
230 306 1
230 322 1
230 352 1
230 364 1
230 373 1
230 385 1
230 415 1
230 429 1
230 435 1
231 200 1
231 222 1
231 235 1
231 242 1
231 257 1
231 287 1
231 301 1
231 307 1
231 323 1
231 345 1
231 366 1
231 372 1
231 386 1
231 416 1
231 428 1
231 437 1
232 193 1
232 223 1
232 237 1
232 243 1
232 258 1
232 288 1
232 300 1
232 309 1
232 325 1
232 346 1
232 367 1
232 374 1
232 387 1
232 409 1
232 430 1
232 436 1
233 202 1
233 224 1
233 236 1
233 251 1
233 267 1
233 281 1
233 302 1
233 317 1
233 332 1
233 347 1
233 368 1
233 382 1
233 397 1
233 410 1
233 431 1
233 444 1
234 203 1
234 217 1
234 238 1
234 253 1
234 269 1
234 282 1
234 303 1
234 316 1
234 334 1
234 349 1
234 361 1
234 383 1
234 396 1
234 411 1
234 432 1
234 446 1
235 205 1
235 218 1
235 239 1
235 252 1
235 268 1
235 283 1
235 304 1
235 318 1
235 335 1
235 348 1
235 362 1
235 384 1
235 398 1
235 413 1
235 425 1
235 447 1
236 206 1
236 221 1
236 233 1
236 255 1
236 271 1
236 284 1
236 298 1
236 320 1
236 329 1
236 351 1
236 365 1
236 378 1
236 400 1
236 414 1
236 427 1
236 441 1
237 204 1
237 219 1
237 240 1
237 254 1
237 270 1
237 285 1
237 297 1
237 319 1
237 336 1
237 350 1
237 363 1
237 377 1
237 399 1
237 412 1
237 426 1
237 448 1
238 207 1
238 220 1
238 234 1
238 256 1
238 272 1
238 286 1
238 299 1
238 313 1
238 330 1
238 352 1
238 364 1
238 379 1
238 393 1
238 415 1
238 429 1
238 442 1
239 208 1
239 222 1
239 235 1
239 249 1
239 265 1
239 287 1
239 301 1
239 314 1
239 331 1
239 345 1
239 366 1
239 381 1
239 394 1
239 416 1
239 428 1
239 443 1
240 201 1
240 223 1
240 237 1
240 250 1
240 266 1
240 288 1
240 300 1
240 315 1
240 333 1
240 346 1
240 367 1
240 380 1
240 395 1
240 409 1
240 430 1
240 445 1
241 209 1
241 224 1
241 245 1
241 251 1
241 274 1
241 281 1
241 308 1
241 317 1
241 341 1
241 347 1
241 375 1
241 382 1
241 403 1
241 410 1
241 438 1
241 444 1
242 210 1
242 217 1
242 244 1
242 253 1
242 275 1
242 282 1
242 310 1
242 316 1
242 340 1
242 349 1
242 376 1
242 383 1
242 405 1
242 411 1
242 439 1
242 446 1
243 211 1
243 218 1
243 246 1
243 252 1
243 277 1
243 283 1
243 311 1
243 318 1
243 342 1
243 348 1
243 369 1
243 384 1
243 404 1
243 413 1
243 440 1
243 447 1
244 212 1
244 221 1
244 248 1
244 255 1
244 278 1
244 284 1
244 305 1
244 320 1
244 344 1
244 351 1
244 371 1
244 378 1
244 407 1
244 414 1
244 434 1
244 441 1
245 213 1
245 219 1
245 247 1
245 254 1
245 276 1
245 285 1
245 312 1
245 319 1
245 343 1
245 350 1
245 370 1
245 377 1
245 406 1
245 412 1
245 433 1
245 448 1
246 214 1
246 220 1
246 241 1
246 256 1
246 279 1
246 286 1
246 306 1
246 313 1
246 337 1
246 352 1
246 373 1
246 379 1
246 408 1
246 415 1
246 435 1
246 442 1
247 215 1
247 222 1
247 242 1
247 249 1
247 280 1
247 287 1
247 307 1
247 314 1
247 338 1
247 345 1
247 372 1
247 381 1
247 401 1
247 416 1
247 437 1
247 443 1
248 216 1
248 223 1
248 243 1
248 250 1
248 273 1
248 288 1
248 309 1
248 315 1
248 339 1
248 346 1
248 374 1
248 380 1
248 402 1
248 409 1
248 436 1
248 445 1
249 231 1
249 236 1
249 245 1
249 251 1
249 296 1
249 302 1
249 308 1
249 317 1
249 354 1
249 368 1
249 375 1
249 382 1
249 417 1
249 431 1
249 438 1
249 444 1
250 232 1
250 238 1
250 244 1
250 253 1
250 289 1
250 303 1
250 310 1
250 316 1
250 355 1
250 361 1
250 376 1
250 383 1
250 418 1
250 432 1
250 439 1
250 446 1
251 225 1
251 239 1
251 246 1
251 252 1
251 290 1
251 304 1
251 311 1
251 318 1
251 357 1
251 362 1
251 369 1
251 384 1
251 419 1
251 425 1
251 440 1
251 447 1
252 227 1
252 233 1
252 248 1
252 255 1
252 293 1
252 298 1
252 305 1
252 320 1
252 358 1
252 365 1
252 371 1
252 378 1
252 420 1
252 427 1
252 434 1
252 441 1
253 226 1
253 240 1
253 247 1
253 254 1
253 291 1
253 297 1
253 312 1
253 319 1
253 356 1
253 363 1
253 370 1
253 377 1
253 421 1
253 426 1
253 433 1
253 448 1
254 229 1
254 234 1
254 241 1
254 256 1
254 292 1
254 299 1
254 306 1
254 313 1
254 359 1
254 364 1
254 373 1
254 379 1
254 422 1
254 429 1
254 435 1
254 442 1
255 228 1
255 235 1
255 242 1
255 249 1
255 294 1
255 301 1
255 307 1
255 314 1
255 360 1
255 366 1
255 372 1
255 381 1
255 423 1
255 428 1
255 437 1
255 443 1
256 230 1
256 237 1
256 243 1
256 250 1
256 295 1
256 300 1
256 309 1
256 315 1
256 353 1
256 367 1
256 374 1
256 380 1
256 424 1
256 430 1
256 436 1
256 445 1
