%%MatrixMarket matrix coordinate integer general
128 256 2048
1 1 1
1 13 1
1 23 1
1 27 1
1 129 1
1 141 1
1 151 1
1 155 1
1 161 1
1 173 1
1 183 1
1 187 1
1 193 1
1 205 1
1 215 1
1 219 1
2 2 1
2 14 1
2 24 1
2 28 1
2 130 1
2 142 1
2 152 1
2 156 1
2 162 1
2 174 1
2 184 1
2 188 1
2 194 1
2 206 1
2 216 1
2 220 1
3 3 1
3 15 1
3 21 1
3 25 1
3 131 1
3 143 1
3 149 1
3 153 1
3 163 1
3 175 1
3 181 1
3 185 1
3 195 1
3 207 1
3 213 1
3 217 1
4 4 1
4 16 1
4 22 1
4 26 1
4 132 1
4 144 1
4 150 1
4 154 1
4 164 1
4 176 1
4 182 1
4 186 1
4 196 1
4 208 1
4 214 1
4 218 1
5 5 1
5 13 1
5 23 1
5 31 1
5 133 1
5 141 1
5 151 1
5 159 1
5 165 1
5 173 1
5 183 1
5 191 1
5 197 1
5 205 1
5 215 1
5 223 1
6 6 1
6 14 1
6 24 1
6 32 1
6 134 1
6 142 1
6 152 1
6 160 1
6 166 1
6 174 1
6 184 1
6 192 1
6 198 1
6 206 1
6 216 1
6 224 1
7 7 1
7 15 1
7 21 1
7 29 1
7 135 1
7 143 1
7 149 1
7 157 1
7 167 1
7 175 1
7 181 1
7 189 1
7 199 1
7 207 1
7 213 1
7 221 1
8 8 1
8 16 1
8 22 1
8 30 1
8 136 1
8 144 1
8 150 1
8 158 1
8 168 1
8 176 1
8 182 1
8 190 1
8 200 1
8 208 1
8 214 1
8 222 1
9 9 1
9 13 1
9 27 1
9 31 1
9 137 1
9 141 1
9 155 1
9 159 1
9 169 1
9 173 1
9 187 1
9 191 1
9 201 1
9 205 1
9 219 1
9 223 1
10 10 1
10 14 1
10 28 1
10 32 1
10 138 1
10 142 1
10 156 1
10 160 1
10 170 1
10 174 1
10 188 1
10 192 1
10 202 1
10 206 1
10 220 1
10 224 1
11 11 1
11 15 1
11 25 1
11 29 1
11 139 1
11 143 1
11 153 1
11 157 1
11 171 1
11 175 1
11 185 1
11 189 1
11 203 1
11 207 1
11 217 1
11 221 1
12 12 1
12 16 1
12 26 1
12 30 1
12 140 1
12 144 1
12 154 1
12 158 1
12 172 1
12 176 1
12 186 1
12 190 1
12 204 1
12 208 1
12 218 1
12 222 1
13 19 1
13 23 1
13 27 1
13 31 1
13 147 1
13 151 1
13 155 1
13 159 1
13 179 1
13 183 1
13 187 1
13 191 1
13 211 1
13 215 1
13 219 1
13 223 1
14 20 1
14 24 1
14 28 1
14 32 1
14 148 1
14 152 1
14 156 1
14 160 1
14 180 1
14 184 1
14 188 1
14 192 1
14 212 1
14 216 1
14 220 1
14 224 1
15 17 1
15 21 1
15 25 1
15 29 1
15 145 1
15 149 1
15 153 1
15 157 1
15 177 1
15 181 1
15 185 1
15 189 1
15 209 1
15 213 1
15 217 1
15 221 1
16 18 1
16 22 1
16 26 1
16 30 1
16 146 1
16 150 1
16 154 1
16 158 1
16 178 1
16 182 1
16 186 1
16 190 1
16 210 1
16 214 1
16 218 1
16 222 1
17 33 1
17 45 1
17 55 1
17 59 1
17 129 1
17 141 1
17 151 1
17 155 1
17 161 1
17 173 1
17 183 1
17 187 1
17 225 1
17 237 1
17 247 1
17 251 1
18 34 1
18 46 1
18 56 1
18 60 1
18 130 1
18 142 1
18 152 1
18 156 1
18 162 1
18 174 1
18 184 1
18 188 1
18 226 1
18 238 1
18 248 1
18 252 1
19 35 1
19 47 1
19 53 1
19 57 1
19 131 1
19 143 1
19 149 1
19 153 1
19 163 1
19 175 1
19 181 1
19 185 1
19 227 1
19 239 1
19 245 1
19 249 1
20 36 1
20 48 1
20 54 1
20 58 1
20 132 1
20 144 1
20 150 1
20 154 1
20 164 1
20 176 1
20 182 1
20 186 1
20 228 1
20 240 1
20 246 1
20 250 1
21 37 1
21 45 1
21 55 1
21 63 1
21 133 1
21 141 1
21 151 1
21 159 1
21 165 1
21 173 1
21 183 1
21 191 1
21 229 1
21 237 1
21 247 1
21 255 1
22 38 1
22 46 1
22 56 1
22 64 1
22 134 1
22 142 1
22 152 1
22 160 1
22 166 1
22 174 1
22 184 1
22 192 1
22 230 1
22 238 1
22 248 1
22 256 1
23 39 1
23 47 1
23 53 1
23 61 1
23 135 1
23 143 1
23 149 1
23 157 1
23 167 1
23 175 1
23 181 1
23 189 1
23 231 1
23 239 1
23 245 1
23 253 1
24 40 1
24 48 1
24 54 1
24 62 1
24 136 1
24 144 1
24 150 1
24 158 1
24 168 1
24 176 1
24 182 1
24 190 1
24 232 1
24 240 1
24 246 1
24 254 1
25 41 1
25 45 1
25 59 1
25 63 1
25 137 1
25 141 1
25 155 1
25 159 1
25 169 1
25 173 1
25 187 1
25 191 1
25 233 1
25 237 1
25 251 1
25 255 1
26 42 1
26 46 1
26 60 1
26 64 1
26 138 1
26 142 1
26 156 1
26 160 1
26 170 1
26 174 1
26 188 1
26 192 1
26 234 1
26 238 1
26 252 1
26 256 1
27 43 1
27 47 1
27 57 1
27 61 1
27 139 1
27 143 1
27 153 1
27 157 1
27 171 1
27 175 1
27 185 1
27 189 1
27 235 1
27 239 1
27 249 1
27 253 1
28 44 1
28 48 1
28 58 1
28 62 1
28 140 1
28 144 1
28 154 1
28 158 1
28 172 1
28 176 1
28 186 1
28 190 1
28 236 1
28 240 1
28 250 1
28 254 1
29 51 1
29 55 1
29 59 1
29 63 1
29 147 1
29 151 1
29 155 1
29 159 1
29 179 1
29 183 1
29 187 1
29 191 1
29 243 1
29 247 1
29 251 1
29 255 1
30 52 1
30 56 1
30 60 1
30 64 1
30 148 1
30 152 1
30 156 1
30 160 1
30 180 1
30 184 1
30 188 1
30 192 1
30 244 1
30 248 1
30 252 1
30 256 1
31 49 1
31 53 1
31 57 1
31 61 1
31 145 1
31 149 1
31 153 1
31 157 1
31 177 1
31 181 1
31 185 1
31 189 1
31 241 1
31 245 1
31 249 1
31 253 1
32 50 1
32 54 1
32 58 1
32 62 1
32 146 1
32 150 1
32 154 1
32 158 1
32 178 1
32 182 1
32 186 1
32 190 1
32 242 1
32 246 1
32 250 1
32 254 1
33 65 1
33 77 1
33 87 1
33 91 1
33 129 1
33 141 1
33 151 1
33 155 1
33 193 1
33 205 1
33 215 1
33 219 1
33 225 1
33 237 1
33 247 1
33 251 1
34 66 1
34 78 1
34 88 1
34 92 1
34 130 1
34 142 1
34 152 1
34 156 1
34 194 1
34 206 1
34 216 1
34 220 1
34 226 1
34 238 1
34 248 1
34 252 1
35 67 1
35 79 1
35 85 1
35 89 1
35 131 1
35 143 1
35 149 1
35 153 1
35 195 1
35 207 1
35 213 1
35 217 1
35 227 1
35 239 1
35 245 1
35 249 1
36 68 1
36 80 1
36 86 1
36 90 1
36 132 1
36 144 1
36 150 1
36 154 1
36 196 1
36 208 1
36 214 1
36 218 1
36 228 1
36 240 1
36 246 1
36 250 1
37 69 1
37 77 1
37 87 1
37 95 1
37 133 1
37 141 1
37 151 1
37 159 1
37 197 1
37 205 1
37 215 1
37 223 1
37 229 1
37 237 1
37 247 1
37 255 1
38 70 1
38 78 1
38 88 1
38 96 1
38 134 1
38 142 1
38 152 1
38 160 1
38 198 1
38 206 1
38 216 1
38 224 1
38 230 1
38 238 1
38 248 1
38 256 1
39 71 1
39 79 1
39 85 1
39 93 1
39 135 1
39 143 1
39 149 1
39 157 1
39 199 1
39 207 1
39 213 1
39 221 1
39 231 1
39 239 1
39 245 1
39 253 1
40 72 1
40 80 1
40 86 1
40 94 1
40 136 1
40 144 1
40 150 1
40 158 1
40 200 1
40 208 1
40 214 1
40 222 1
40 232 1
40 240 1
40 246 1
40 254 1
41 73 1
41 77 1
41 91 1
41 95 1
41 137 1
41 141 1
41 155 1
41 159 1
41 201 1
41 205 1
41 219 1
41 223 1
41 233 1
41 237 1
41 251 1
41 255 1
42 74 1
42 78 1
42 92 1
42 96 1
42 138 1
42 142 1
42 156 1
42 160 1
42 202 1
42 206 1
42 220 1
42 224 1
42 234 1
42 238 1
42 252 1
42 256 1
43 75 1
43 79 1
43 89 1
43 93 1
43 139 1
43 143 1
43 153 1
43 157 1
43 203 1
43 207 1
43 217 1
43 221 1
43 235 1
43 239 1
43 249 1
43 253 1
44 76 1
44 80 1
44 90 1
44 94 1
44 140 1
44 144 1
44 154 1
44 158 1
44 204 1
44 208 1
44 218 1
44 222 1
44 236 1
44 240 1
44 250 1
44 254 1
45 83 1
45 87 1
45 91 1
45 95 1
45 147 1
45 151 1
45 155 1
45 159 1
45 211 1
45 215 1
45 219 1
45 223 1
45 243 1
45 247 1
45 251 1
45 255 1
46 84 1
46 88 1
46 92 1
46 96 1
46 148 1
46 152 1
46 156 1
46 160 1
46 212 1
46 216 1
46 220 1
46 224 1
46 244 1
46 248 1
46 252 1
46 256 1
47 81 1
47 85 1
47 89 1
47 93 1
47 145 1
47 149 1
47 153 1
47 157 1
47 209 1
47 213 1
47 217 1
47 221 1
47 241 1
47 245 1
47 249 1
47 253 1
48 82 1
48 86 1
48 90 1
48 94 1
48 146 1
48 150 1
48 154 1
48 158 1
48 210 1
48 214 1
48 218 1
48 222 1
48 242 1
48 246 1
48 250 1
48 254 1
49 97 1
49 109 1
49 119 1
49 123 1
49 161 1
49 173 1
49 183 1
49 187 1
49 193 1
49 205 1
49 215 1
49 219 1
49 225 1
49 237 1
49 247 1
49 251 1
50 98 1
50 110 1
50 120 1
50 124 1
50 162 1
50 174 1
50 184 1
50 188 1
50 194 1
50 206 1
50 216 1
50 220 1
50 226 1
50 238 1
50 248 1
50 252 1
51 99 1
51 111 1
51 117 1
51 121 1
51 163 1
51 175 1
51 181 1
51 185 1
51 195 1
51 207 1
51 213 1
51 217 1
51 227 1
51 239 1
51 245 1
51 249 1
52 100 1
52 112 1
52 118 1
52 122 1
52 164 1
52 176 1
52 182 1
52 186 1
52 196 1
52 208 1
52 214 1
52 218 1
52 228 1
52 240 1
52 246 1
52 250 1
53 101 1
53 109 1
53 119 1
53 127 1
53 165 1
53 173 1
53 183 1
53 191 1
53 197 1
53 205 1
53 215 1
53 223 1
53 229 1
53 237 1
53 247 1
53 255 1
54 102 1
54 110 1
54 120 1
54 128 1
54 166 1
54 174 1
54 184 1
54 192 1
54 198 1
54 206 1
54 216 1
54 224 1
54 230 1
54 238 1
54 248 1
54 256 1
55 103 1
55 111 1
55 117 1
55 125 1
55 167 1
55 175 1
55 181 1
55 189 1
55 199 1
55 207 1
55 213 1
55 221 1
55 231 1
55 239 1
55 245 1
55 253 1
56 104 1
56 112 1
56 118 1
56 126 1
56 168 1
56 176 1
56 182 1
56 190 1
56 200 1
56 208 1
56 214 1
56 222 1
56 232 1
56 240 1
56 246 1
56 254 1
57 105 1
57 109 1
57 123 1
57 127 1
57 169 1
57 173 1
57 187 1
57 191 1
57 201 1
57 205 1
57 219 1
57 223 1
57 233 1
57 237 1
57 251 1
57 255 1
58 106 1
58 110 1
58 124 1
58 128 1
58 170 1
58 174 1
58 188 1
58 192 1
58 202 1
58 206 1
58 220 1
58 224 1
58 234 1
58 238 1
58 252 1
58 256 1
59 107 1
59 111 1
59 121 1
59 125 1
59 171 1
59 175 1
59 185 1
59 189 1
59 203 1
59 207 1
59 217 1
59 221 1
59 235 1
59 239 1
59 249 1
59 253 1
60 108 1
60 112 1
60 122 1
60 126 1
60 172 1
60 176 1
60 186 1
60 190 1
60 204 1
60 208 1
60 218 1
60 222 1
60 236 1
60 240 1
60 250 1
60 254 1
61 115 1
61 119 1
61 123 1
61 127 1
61 179 1
61 183 1
61 187 1
61 191 1
61 211 1
61 215 1
61 219 1
61 223 1
61 243 1
61 247 1
61 251 1
61 255 1
62 116 1
62 120 1
62 124 1
62 128 1
62 180 1
62 184 1
62 188 1
62 192 1
62 212 1
62 216 1
62 220 1
62 224 1
62 244 1
62 248 1
62 252 1
62 256 1
63 113 1
63 117 1
63 121 1
63 125 1
63 177 1
63 181 1
63 185 1
63 189 1
63 209 1
63 213 1
63 217 1
63 221 1
63 241 1
63 245 1
63 249 1
63 253 1
64 114 1
64 118 1
64 122 1
64 126 1
64 178 1
64 182 1
64 186 1
64 190 1
64 210 1
64 214 1
64 218 1
64 222 1
64 242 1
64 246 1
64 250 1
64 254 1
65 1 1
65 17 1
65 21 1
65 25 1
65 130 1
65 146 1
65 150 1
65 154 1
65 194 1
65 210 1
65 214 1
65 218 1
65 227 1
65 243 1
65 247 1
65 251 1
66 2 1
66 18 1
66 22 1
66 26 1
66 131 1
66 147 1
66 151 1
66 155 1
66 195 1
66 211 1
66 215 1
66 219 1
66 228 1
66 244 1
66 248 1
66 252 1
67 3 1
67 19 1
67 23 1
67 27 1
67 132 1
67 148 1
67 152 1
67 156 1
67 196 1
67 212 1
67 216 1
67 220 1
67 225 1
67 241 1
67 245 1
67 249 1
68 4 1
68 20 1
68 24 1
68 28 1
68 129 1
68 145 1
68 149 1
68 153 1
68 193 1
68 209 1
68 213 1
68 217 1
68 226 1
68 242 1
68 246 1
68 250 1
69 5 1
69 17 1
69 21 1
69 29 1
69 134 1
69 146 1
69 150 1
69 158 1
69 198 1
69 210 1
69 214 1
69 222 1
69 231 1
69 243 1
69 247 1
69 255 1
70 6 1
70 18 1
70 22 1
70 30 1
70 135 1
70 147 1
70 151 1
70 159 1
70 199 1
70 211 1
70 215 1
70 223 1
70 232 1
70 244 1
70 248 1
70 256 1
71 7 1
71 19 1
71 23 1
71 31 1
71 136 1
71 148 1
71 152 1
71 160 1
71 200 1
71 212 1
71 216 1
71 224 1
71 229 1
71 241 1
71 245 1
71 253 1
72 8 1
72 20 1
72 24 1
72 32 1
72 133 1
72 145 1
72 149 1
72 157 1
72 197 1
72 209 1
72 213 1
72 221 1
72 230 1
72 242 1
72 246 1
72 254 1
73 9 1
73 17 1
73 25 1
73 29 1
73 138 1
73 146 1
73 154 1
73 158 1
73 202 1
73 210 1
73 218 1
73 222 1
73 235 1
73 243 1
73 251 1
73 255 1
74 10 1
74 18 1
74 26 1
74 30 1
74 139 1
74 147 1
74 155 1
74 159 1
74 203 1
74 211 1
74 219 1
74 223 1
74 236 1
74 244 1
74 252 1
74 256 1
75 11 1
75 19 1
75 27 1
75 31 1
75 140 1
75 148 1
75 156 1
75 160 1
75 204 1
75 212 1
75 220 1
75 224 1
75 233 1
75 241 1
75 249 1
75 253 1
76 12 1
76 20 1
76 28 1
76 32 1
76 137 1
76 145 1
76 153 1
76 157 1
76 201 1
76 209 1
76 217 1
76 221 1
76 234 1
76 242 1
76 250 1
76 254 1
77 13 1
77 21 1
77 25 1
77 29 1
77 142 1
77 150 1
77 154 1
77 158 1
77 206 1
77 214 1
77 218 1
77 222 1
77 239 1
77 247 1
77 251 1
77 255 1
78 14 1
78 22 1
78 26 1
78 30 1
78 143 1
78 151 1
78 155 1
78 159 1
78 207 1
78 215 1
78 219 1
78 223 1
78 240 1
78 248 1
78 252 1
78 256 1
79 15 1
79 23 1
79 27 1
79 31 1
79 144 1
79 152 1
79 156 1
79 160 1
79 208 1
79 216 1
79 220 1
79 224 1
79 237 1
79 245 1
79 249 1
79 253 1
80 16 1
80 24 1
80 28 1
80 32 1
80 141 1
80 149 1
80 153 1
80 157 1
80 205 1
80 213 1
80 217 1
80 221 1
80 238 1
80 246 1
80 250 1
80 254 1
81 33 1
81 49 1
81 53 1
81 57 1
81 130 1
81 146 1
81 150 1
81 154 1
81 162 1
81 178 1
81 182 1
81 186 1
81 194 1
81 210 1
81 214 1
81 218 1
82 34 1
82 50 1
82 54 1
82 58 1
82 131 1
82 147 1
82 151 1
82 155 1
82 163 1
82 179 1
82 183 1
82 187 1
82 195 1
82 211 1
82 215 1
82 219 1
83 35 1
83 51 1
83 55 1
83 59 1
83 132 1
83 148 1
83 152 1
83 156 1
83 164 1
83 180 1
83 184 1
83 188 1
83 196 1
83 212 1
83 216 1
83 220 1
84 36 1
84 52 1
84 56 1
84 60 1
84 129 1
84 145 1
84 149 1
84 153 1
84 161 1
84 177 1
84 181 1
84 185 1
84 193 1
84 209 1
84 213 1
84 217 1
85 37 1
85 49 1
85 53 1
85 61 1
85 134 1
85 146 1
85 150 1
85 158 1
85 166 1
85 178 1
85 182 1
85 190 1
85 198 1
85 210 1
85 214 1
85 222 1
86 38 1
86 50 1
86 54 1
86 62 1
86 135 1
86 147 1
86 151 1
86 159 1
86 167 1
86 179 1
86 183 1
86 191 1
86 199 1
86 211 1
86 215 1
86 223 1
87 39 1
87 51 1
87 55 1
87 63 1
87 136 1
87 148 1
87 152 1
87 160 1
87 168 1
87 180 1
87 184 1
87 192 1
87 200 1
87 212 1
87 216 1
87 224 1
88 40 1
88 52 1
88 56 1
88 64 1
88 133 1
88 145 1
88 149 1
88 157 1
88 165 1
88 177 1
88 181 1
88 189 1
88 197 1
88 209 1
88 213 1
88 221 1
89 41 1
89 49 1
89 57 1
89 61 1
89 138 1
89 146 1
89 154 1
89 158 1
89 170 1
89 178 1
89 186 1
89 190 1
89 202 1
89 210 1
89 218 1
89 222 1
90 42 1
90 50 1
90 58 1
90 62 1
90 139 1
90 147 1
90 155 1
90 159 1
90 171 1
90 179 1
90 187 1
90 191 1
90 203 1
90 211 1
90 219 1
90 223 1
91 43 1
91 51 1
91 59 1
91 63 1
91 140 1
91 148 1
91 156 1
91 160 1
91 172 1
91 180 1
91 188 1
91 192 1
91 204 1
91 212 1
91 220 1
91 224 1
92 44 1
92 52 1
92 60 1
92 64 1
92 137 1
92 145 1
92 153 1
92 157 1
92 169 1
92 177 1
92 185 1
92 189 1
92 201 1
92 209 1
92 217 1
92 221 1
93 45 1
93 53 1
93 57 1
93 61 1
93 142 1
93 150 1
93 154 1
93 158 1
93 174 1
93 182 1
93 186 1
93 190 1
93 206 1
93 214 1
93 218 1
93 222 1
94 46 1
94 54 1
94 58 1
94 62 1
94 143 1
94 151 1
94 155 1
94 159 1
94 175 1
94 183 1
94 187 1
94 191 1
94 207 1
94 215 1
94 219 1
94 223 1
95 47 1
95 55 1
95 59 1
95 63 1
95 144 1
95 152 1
95 156 1
95 160 1
95 176 1
95 184 1
95 188 1
95 192 1
95 208 1
95 216 1
95 220 1
95 224 1
96 48 1
96 56 1
96 60 1
96 64 1
96 141 1
96 149 1
96 153 1
96 157 1
96 173 1
96 181 1
96 185 1
96 189 1
96 205 1
96 213 1
96 217 1
96 221 1
97 65 1
97 81 1
97 85 1
97 89 1
97 130 1
97 146 1
97 150 1
97 154 1
97 162 1
97 178 1
97 182 1
97 186 1
97 227 1
97 243 1
97 247 1
97 251 1
98 66 1
98 82 1
98 86 1
98 90 1
98 131 1
98 147 1
98 151 1
98 155 1
98 163 1
98 179 1
98 183 1
98 187 1
98 228 1
98 244 1
98 248 1
98 252 1
99 67 1
99 83 1
99 87 1
99 91 1
99 132 1
99 148 1
99 152 1
99 156 1
99 164 1
99 180 1
99 184 1
99 188 1
99 225 1
99 241 1
99 245 1
99 249 1
100 68 1
100 84 1
100 88 1
100 92 1
100 129 1
100 145 1
100 149 1
100 153 1
100 161 1
100 177 1
100 181 1
100 185 1
100 226 1
100 242 1
100 246 1
100 250 1
101 69 1
101 81 1
101 85 1
101 93 1
101 134 1
101 146 1
101 150 1
101 158 1
101 166 1
101 178 1
101 182 1
101 190 1
101 231 1
101 243 1
101 247 1
101 255 1
102 70 1
102 82 1
102 86 1
102 94 1
102 135 1
102 147 1
102 151 1
102 159 1
102 167 1
102 179 1
102 183 1
102 191 1
102 232 1
102 244 1
102 248 1
102 256 1
103 71 1
103 83 1
103 87 1
103 95 1
103 136 1
103 148 1
103 152 1
103 160 1
103 168 1
103 180 1
103 184 1
103 192 1
103 229 1
103 241 1
103 245 1
103 253 1
104 72 1
104 84 1
104 88 1
104 96 1
104 133 1
104 145 1
104 149 1
104 157 1
104 165 1
104 177 1
104 181 1
104 189 1
104 230 1
104 242 1
104 246 1
104 254 1
105 73 1
105 81 1
105 89 1
105 93 1
105 138 1
105 146 1
105 154 1
105 158 1
105 170 1
105 178 1
105 186 1
105 190 1
105 235 1
105 243 1
105 251 1
105 255 1
106 74 1
106 82 1
106 90 1
106 94 1
106 139 1
106 147 1
106 155 1
106 159 1
106 171 1
106 179 1
106 187 1
106 191 1
106 236 1
106 244 1
106 252 1
106 256 1
107 75 1
107 83 1
107 91 1
107 95 1
107 140 1
107 148 1
107 156 1
107 160 1
107 172 1
107 180 1
107 188 1
107 192 1
107 233 1
107 241 1
107 249 1
107 253 1
108 76 1
108 84 1
108 92 1
108 96 1
108 137 1
108 145 1
108 153 1
108 157 1
108 169 1
108 177 1
108 185 1
108 189 1
108 234 1
108 242 1
108 250 1
108 254 1
109 77 1
109 85 1
109 89 1
109 93 1
109 142 1
109 150 1
109 154 1
109 158 1
109 174 1
109 182 1
109 186 1
109 190 1
109 239 1
109 247 1
109 251 1
109 255 1
110 78 1
110 86 1
110 90 1
110 94 1
110 143 1
110 151 1
110 155 1
110 159 1
110 175 1
110 183 1
110 187 1
110 191 1
110 240 1
110 248 1
110 252 1
110 256 1
111 79 1
111 87 1
111 91 1
111 95 1
111 144 1
111 152 1
111 156 1
111 160 1
111 176 1
111 184 1
111 188 1
111 192 1
111 237 1
111 245 1
111 249 1
111 253 1
112 80 1
112 88 1
112 92 1
112 96 1
112 141 1
112 149 1
112 153 1
112 157 1
112 173 1
112 181 1
112 185 1
112 189 1
112 238 1
112 246 1
112 250 1
112 254 1
113 97 1
113 113 1
113 117 1
113 121 1
113 162 1
113 178 1
113 182 1
113 186 1
113 194 1
113 210 1
113 214 1
113 218 1
113 227 1
113 243 1
113 247 1
113 251 1
114 98 1
114 114 1
114 118 1
114 122 1
114 163 1
114 179 1
114 183 1
114 187 1
114 195 1
114 211 1
114 215 1
114 219 1
114 228 1
114 244 1
114 248 1
114 252 1
115 99 1
115 115 1
115 119 1
115 123 1
115 164 1
115 180 1
115 184 1
115 188 1
115 196 1
115 212 1
115 216 1
115 220 1
115 225 1
115 241 1
115 245 1
115 249 1
116 100 1
116 116 1
116 120 1
116 124 1
116 161 1
116 177 1
116 181 1
116 185 1
116 193 1
116 209 1
116 213 1
116 217 1
116 226 1
116 242 1
116 246 1
116 250 1
117 101 1
117 113 1
117 117 1
117 125 1
117 166 1
117 178 1
117 182 1
117 190 1
117 198 1
117 210 1
117 214 1
117 222 1
117 231 1
117 243 1
117 247 1
117 255 1
118 102 1
118 114 1
118 118 1
118 126 1
118 167 1
118 179 1
118 183 1
118 191 1
118 199 1
118 211 1
118 215 1
118 223 1
118 232 1
118 244 1
118 248 1
118 256 1
119 103 1
119 115 1
119 119 1
119 127 1
119 168 1
119 180 1
119 184 1
119 192 1
119 200 1
119 212 1
119 216 1
119 224 1
119 229 1
119 241 1
119 245 1
119 253 1
120 104 1
120 116 1
120 120 1
120 128 1
120 165 1
120 177 1
120 181 1
120 189 1
120 197 1
120 209 1
120 213 1
120 221 1
120 230 1
120 242 1
120 246 1
120 254 1
121 105 1
121 113 1
121 121 1
121 125 1
121 170 1
121 178 1
121 186 1
121 190 1
121 202 1
121 210 1
121 218 1
121 222 1
121 235 1
121 243 1
121 251 1
121 255 1
122 106 1
122 114 1
122 122 1
122 126 1
122 171 1
122 179 1
122 187 1
122 191 1
122 203 1
122 211 1
122 219 1
122 223 1
122 236 1
122 244 1
122 252 1
122 256 1
123 107 1
123 115 1
123 123 1
123 127 1
123 172 1
123 180 1
123 188 1
123 192 1
123 204 1
123 212 1
123 220 1
123 224 1
123 233 1
123 241 1
123 249 1
123 253 1
124 108 1
124 116 1
124 124 1
124 128 1
124 169 1
124 177 1
124 185 1
124 189 1
124 201 1
124 209 1
124 217 1
124 221 1
124 234 1
124 242 1
124 250 1
124 254 1
125 109 1
125 117 1
125 121 1
125 125 1
125 174 1
125 182 1
125 186 1
125 190 1
125 206 1
125 214 1
125 218 1
125 222 1
125 239 1
125 247 1
125 251 1
125 255 1
126 110 1
126 118 1
126 122 1
126 126 1
126 175 1
126 183 1
126 187 1
126 191 1
126 207 1
126 215 1
126 219 1
126 223 1
126 240 1
126 248 1
126 252 1
126 256 1
127 111 1
127 119 1
127 123 1
127 127 1
127 176 1
127 184 1
127 188 1
127 192 1
127 208 1
127 216 1
127 220 1
127 224 1
127 237 1
127 245 1
127 249 1
127 253 1
128 112 1
128 120 1
128 124 1
128 128 1
128 173 1
128 181 1
128 185 1
128 189 1
128 205 1
128 213 1
128 217 1
128 221 1
128 238 1
128 246 1
128 250 1
128 254 1
