%%MatrixMarket matrix coordinate integer general
256 512 4096
1 1 1
1 33 1
1 41 1
1 49 1
1 257 1
1 289 1
1 297 1
1 305 1
1 321 1
1 353 1
1 361 1
1 369 1
1 385 1
1 417 1
1 425 1
1 433 1
2 2 1
2 34 1
2 42 1
2 50 1
2 258 1
2 290 1
2 298 1
2 306 1
2 322 1
2 354 1
2 362 1
2 370 1
2 386 1
2 418 1
2 426 1
2 434 1
3 3 1
3 35 1
3 43 1
3 51 1
3 259 1
3 291 1
3 299 1
3 307 1
3 323 1
3 355 1
3 363 1
3 371 1
3 387 1
3 419 1
3 427 1
3 435 1
4 4 1
4 36 1
4 44 1
4 52 1
4 260 1
4 292 1
4 300 1
4 308 1
4 324 1
4 356 1
4 364 1
4 372 1
4 388 1
4 420 1
4 428 1
4 436 1
5 5 1
5 37 1
5 45 1
5 53 1
5 261 1
5 293 1
5 301 1
5 309 1
5 325 1
5 357 1
5 365 1
5 373 1
5 389 1
5 421 1
5 429 1
5 437 1
6 6 1
6 38 1
6 46 1
6 54 1
6 262 1
6 294 1
6 302 1
6 310 1
6 326 1
6 358 1
6 366 1
6 374 1
6 390 1
6 422 1
6 430 1
6 438 1
7 7 1
7 39 1
7 47 1
7 55 1
7 263 1
7 295 1
7 303 1
7 311 1
7 327 1
7 359 1
7 367 1
7 375 1
7 391 1
7 423 1
7 431 1
7 439 1
8 8 1
8 40 1
8 48 1
8 56 1
8 264 1
8 296 1
8 304 1
8 312 1
8 328 1
8 360 1
8 368 1
8 376 1
8 392 1
8 424 1
8 432 1
8 440 1
9 9 1
9 33 1
9 41 1
9 57 1
9 265 1
9 289 1
9 297 1
9 313 1
9 329 1
9 353 1
9 361 1
9 377 1
9 393 1
9 417 1
9 425 1
9 441 1
10 10 1
10 34 1
10 42 1
10 58 1
10 266 1
10 290 1
10 298 1
10 314 1
10 330 1
10 354 1
10 362 1
10 378 1
10 394 1
10 418 1
10 426 1
10 442 1
11 11 1
11 35 1
11 43 1
11 59 1
11 267 1
11 291 1
11 299 1
11 315 1
11 331 1
11 355 1
11 363 1
11 379 1
11 395 1
11 419 1
11 427 1
11 443 1
12 12 1
12 36 1
12 44 1
12 60 1
12 268 1
12 292 1
12 300 1
12 316 1
12 332 1
12 356 1
12 364 1
12 380 1
12 396 1
12 420 1
12 428 1
12 444 1
13 13 1
13 37 1
13 45 1
13 61 1
13 269 1
13 293 1
13 301 1
13 317 1
13 333 1
13 357 1
13 365 1
13 381 1
13 397 1
13 421 1
13 429 1
13 445 1
14 14 1
14 38 1
14 46 1
14 62 1
14 270 1
14 294 1
14 302 1
14 318 1
14 334 1
14 358 1
14 366 1
14 382 1
14 398 1
14 422 1
14 430 1
14 446 1
15 15 1
15 39 1
15 47 1
15 63 1
15 271 1
15 295 1
15 303 1
15 319 1
15 335 1
15 359 1
15 367 1
15 383 1
15 399 1
15 423 1
15 431 1
15 447 1
16 16 1
16 40 1
16 48 1
16 64 1
16 272 1
16 296 1
16 304 1
16 320 1
16 336 1
16 360 1
16 368 1
16 384 1
16 400 1
16 424 1
16 432 1
16 448 1
17 17 1
17 33 1
17 49 1
17 57 1
17 273 1
17 289 1
17 305 1
17 313 1
17 337 1
17 353 1
17 369 1
17 377 1
17 401 1
17 417 1
17 433 1
17 441 1
18 18 1
18 34 1
18 50 1
18 58 1
18 274 1
18 290 1
18 306 1
18 314 1
18 338 1
18 354 1
18 370 1
18 378 1
18 402 1
18 418 1
18 434 1
18 442 1
19 19 1
19 35 1
19 51 1
19 59 1
19 275 1
19 291 1
19 307 1
19 315 1
19 339 1
19 355 1
19 371 1
19 379 1
19 403 1
19 419 1
19 435 1
19 443 1
20 20 1
20 36 1
20 52 1
20 60 1
20 276 1
20 292 1
20 308 1
20 316 1
20 340 1
20 356 1
20 372 1
20 380 1
20 404 1
20 420 1
20 436 1
20 444 1
21 21 1
21 37 1
21 53 1
21 61 1
21 277 1
21 293 1
21 309 1
21 317 1
21 341 1
21 357 1
21 373 1
21 381 1
21 405 1
21 421 1
21 437 1
21 445 1
22 22 1
22 38 1
22 54 1
22 62 1
22 278 1
22 294 1
22 310 1
22 318 1
22 342 1
22 358 1
22 374 1
22 382 1
22 406 1
22 422 1
22 438 1
22 446 1
23 23 1
23 39 1
23 55 1
23 63 1
23 279 1
23 295 1
23 311 1
23 319 1
23 343 1
23 359 1
23 375 1
23 383 1
23 407 1
23 423 1
23 439 1
23 447 1
24 24 1
24 40 1
24 56 1
24 64 1
24 280 1
24 296 1
24 312 1
24 320 1
24 344 1
24 360 1
24 376 1
24 384 1
24 408 1
24 424 1
24 440 1
24 448 1
25 25 1
25 41 1
25 49 1
25 57 1
25 281 1
25 297 1
25 305 1
25 313 1
25 345 1
25 361 1
25 369 1
25 377 1
25 409 1
25 425 1
25 433 1
25 441 1
26 26 1
26 42 1
26 50 1
26 58 1
26 282 1
26 298 1
26 306 1
26 314 1
26 346 1
26 362 1
26 370 1
26 378 1
26 410 1
26 426 1
26 434 1
26 442 1
27 27 1
27 43 1
27 51 1
27 59 1
27 283 1
27 299 1
27 307 1
27 315 1
27 347 1
27 363 1
27 371 1
27 379 1
27 411 1
27 427 1
27 435 1
27 443 1
28 28 1
28 44 1
28 52 1
28 60 1
28 284 1
28 300 1
28 308 1
28 316 1
28 348 1
28 364 1
28 372 1
28 380 1
28 412 1
28 428 1
28 436 1
28 444 1
29 29 1
29 45 1
29 53 1
29 61 1
29 285 1
29 301 1
29 309 1
29 317 1
29 349 1
29 365 1
29 373 1
29 381 1
29 413 1
29 429 1
29 437 1
29 445 1
30 30 1
30 46 1
30 54 1
30 62 1
30 286 1
30 302 1
30 310 1
30 318 1
30 350 1
30 366 1
30 374 1
30 382 1
30 414 1
30 430 1
30 438 1
30 446 1
31 31 1
31 47 1
31 55 1
31 63 1
31 287 1
31 303 1
31 311 1
31 319 1
31 351 1
31 367 1
31 375 1
31 383 1
31 415 1
31 431 1
31 439 1
31 447 1
32 32 1
32 48 1
32 56 1
32 64 1
32 288 1
32 304 1
32 312 1
32 320 1
32 352 1
32 368 1
32 376 1
32 384 1
32 416 1
32 432 1
32 440 1
32 448 1
33 65 1
33 97 1
33 105 1
33 113 1
33 257 1
33 289 1
33 297 1
33 305 1
33 321 1
33 353 1
33 361 1
33 369 1
33 449 1
33 481 1
33 489 1
33 497 1
34 66 1
34 98 1
34 106 1
34 114 1
34 258 1
34 290 1
34 298 1
34 306 1
34 322 1
34 354 1
34 362 1
34 370 1
34 450 1
34 482 1
34 490 1
34 498 1
35 67 1
35 99 1
35 107 1
35 115 1
35 259 1
35 291 1
35 299 1
35 307 1
35 323 1
35 355 1
35 363 1
35 371 1
35 451 1
35 483 1
35 491 1
35 499 1
36 68 1
36 100 1
36 108 1
36 116 1
36 260 1
36 292 1
36 300 1
36 308 1
36 324 1
36 356 1
36 364 1
36 372 1
36 452 1
36 484 1
36 492 1
36 500 1
37 69 1
37 101 1
37 109 1
37 117 1
37 261 1
37 293 1
37 301 1
37 309 1
37 325 1
37 357 1
37 365 1
37 373 1
37 453 1
37 485 1
37 493 1
37 501 1
38 70 1
38 102 1
38 110 1
38 118 1
38 262 1
38 294 1
38 302 1
38 310 1
38 326 1
38 358 1
38 366 1
38 374 1
38 454 1
38 486 1
38 494 1
38 502 1
39 71 1
39 103 1
39 111 1
39 119 1
39 263 1
39 295 1
39 303 1
39 311 1
39 327 1
39 359 1
39 367 1
39 375 1
39 455 1
39 487 1
39 495 1
39 503 1
40 72 1
40 104 1
40 112 1
40 120 1
40 264 1
40 296 1
40 304 1
40 312 1
40 328 1
40 360 1
40 368 1
40 376 1
40 456 1
40 488 1
40 496 1
40 504 1
41 73 1
41 97 1
41 105 1
41 121 1
41 265 1
41 289 1
41 297 1
41 313 1
41 329 1
41 353 1
41 361 1
41 377 1
41 457 1
41 481 1
41 489 1
41 505 1
42 74 1
42 98 1
42 106 1
42 122 1
42 266 1
42 290 1
42 298 1
42 314 1
42 330 1
42 354 1
42 362 1
42 378 1
42 458 1
42 482 1
42 490 1
42 506 1
43 75 1
43 99 1
43 107 1
43 123 1
43 267 1
43 291 1
43 299 1
43 315 1
43 331 1
43 355 1
43 363 1
43 379 1
43 459 1
43 483 1
43 491 1
43 507 1
44 76 1
44 100 1
44 108 1
44 124 1
44 268 1
44 292 1
44 300 1
44 316 1
44 332 1
44 356 1
44 364 1
44 380 1
44 460 1
44 484 1
44 492 1
44 508 1
45 77 1
45 101 1
45 109 1
45 125 1
45 269 1
45 293 1
45 301 1
45 317 1
45 333 1
45 357 1
45 365 1
45 381 1
45 461 1
45 485 1
45 493 1
45 509 1
46 78 1
46 102 1
46 110 1
46 126 1
46 270 1
46 294 1
46 302 1
46 318 1
46 334 1
46 358 1
46 366 1
46 382 1
46 462 1
46 486 1
46 494 1
46 510 1
47 79 1
47 103 1
47 111 1
47 127 1
47 271 1
47 295 1
47 303 1
47 319 1
47 335 1
47 359 1
47 367 1
47 383 1
47 463 1
47 487 1
47 495 1
47 511 1
48 80 1
48 104 1
48 112 1
48 128 1
48 272 1
48 296 1
48 304 1
48 320 1
48 336 1
48 360 1
48 368 1
48 384 1
48 464 1
48 488 1
48 496 1
48 512 1
49 81 1
49 97 1
49 113 1
49 121 1
49 273 1
49 289 1
49 305 1
49 313 1
49 337 1
49 353 1
49 369 1
49 377 1
49 465 1
49 481 1
49 497 1
49 505 1
50 82 1
50 98 1
50 114 1
50 122 1
50 274 1
50 290 1
50 306 1
50 314 1
50 338 1
50 354 1
50 370 1
50 378 1
50 466 1
50 482 1
50 498 1
50 506 1
51 83 1
51 99 1
51 115 1
51 123 1
51 275 1
51 291 1
51 307 1
51 315 1
51 339 1
51 355 1
51 371 1
51 379 1
51 467 1
51 483 1
51 499 1
51 507 1
52 84 1
52 100 1
52 116 1
52 124 1
52 276 1
52 292 1
52 308 1
52 316 1
52 340 1
52 356 1
52 372 1
52 380 1
52 468 1
52 484 1
52 500 1
52 508 1
53 85 1
53 101 1
53 117 1
53 125 1
53 277 1
53 293 1
53 309 1
53 317 1
53 341 1
53 357 1
53 373 1
53 381 1
53 469 1
53 485 1
53 501 1
53 509 1
54 86 1
54 102 1
54 118 1
54 126 1
54 278 1
54 294 1
54 310 1
54 318 1
54 342 1
54 358 1
54 374 1
54 382 1
54 470 1
54 486 1
54 502 1
54 510 1
55 87 1
55 103 1
55 119 1
55 127 1
55 279 1
55 295 1
55 311 1
55 319 1
55 343 1
55 359 1
55 375 1
55 383 1
55 471 1
55 487 1
55 503 1
55 511 1
56 88 1
56 104 1
56 120 1
56 128 1
56 280 1
56 296 1
56 312 1
56 320 1
56 344 1
56 360 1
56 376 1
56 384 1
56 472 1
56 488 1
56 504 1
56 512 1
57 89 1
57 105 1
57 113 1
57 121 1
57 281 1
57 297 1
57 305 1
57 313 1
57 345 1
57 361 1
57 369 1
57 377 1
57 473 1
57 489 1
57 497 1
57 505 1
58 90 1
58 106 1
58 114 1
58 122 1
58 282 1
58 298 1
58 306 1
58 314 1
58 346 1
58 362 1
58 370 1
58 378 1
58 474 1
58 490 1
58 498 1
58 506 1
59 91 1
59 107 1
59 115 1
59 123 1
59 283 1
59 299 1
59 307 1
59 315 1
59 347 1
59 363 1
59 371 1
59 379 1
59 475 1
59 491 1
59 499 1
59 507 1
60 92 1
60 108 1
60 116 1
60 124 1
60 284 1
60 300 1
60 308 1
60 316 1
60 348 1
60 364 1
60 372 1
60 380 1
60 476 1
60 492 1
60 500 1
60 508 1
61 93 1
61 109 1
61 117 1
61 125 1
61 285 1
61 301 1
61 309 1
61 317 1
61 349 1
61 365 1
61 373 1
61 381 1
61 477 1
61 493 1
61 501 1
61 509 1
62 94 1
62 110 1
62 118 1
62 126 1
62 286 1
62 302 1
62 310 1
62 318 1
62 350 1
62 366 1
62 374 1
62 382 1
62 478 1
62 494 1
62 502 1
62 510 1
63 95 1
63 111 1
63 119 1
63 127 1
63 287 1
63 303 1
63 311 1
63 319 1
63 351 1
63 367 1
63 375 1
63 383 1
63 479 1
63 495 1
63 503 1
63 511 1
64 96 1
64 112 1
64 120 1
64 128 1
64 288 1
64 304 1
64 312 1
64 320 1
64 352 1
64 368 1
64 376 1
64 384 1
64 480 1
64 496 1
64 504 1
64 512 1
65 129 1
65 161 1
65 169 1
65 177 1
65 257 1
65 289 1
65 297 1
65 305 1
65 385 1
65 417 1
65 425 1
65 433 1
65 449 1
65 481 1
65 489 1
65 497 1
66 130 1
66 162 1
66 170 1
66 178 1
66 258 1
66 290 1
66 298 1
66 306 1
66 386 1
66 418 1
66 426 1
66 434 1
66 450 1
66 482 1
66 490 1
66 498 1
67 131 1
67 163 1
67 171 1
67 179 1
67 259 1
67 291 1
67 299 1
67 307 1
67 387 1
67 419 1
67 427 1
67 435 1
67 451 1
67 483 1
67 491 1
67 499 1
68 132 1
68 164 1
68 172 1
68 180 1
68 260 1
68 292 1
68 300 1
68 308 1
68 388 1
68 420 1
68 428 1
68 436 1
68 452 1
68 484 1
68 492 1
68 500 1
69 133 1
69 165 1
69 173 1
69 181 1
69 261 1
69 293 1
69 301 1
69 309 1
69 389 1
69 421 1
69 429 1
69 437 1
69 453 1
69 485 1
69 493 1
69 501 1
70 134 1
70 166 1
70 174 1
70 182 1
70 262 1
70 294 1
70 302 1
70 310 1
70 390 1
70 422 1
70 430 1
70 438 1
70 454 1
70 486 1
70 494 1
70 502 1
71 135 1
71 167 1
71 175 1
71 183 1
71 263 1
71 295 1
71 303 1
71 311 1
71 391 1
71 423 1
71 431 1
71 439 1
71 455 1
71 487 1
71 495 1
71 503 1
72 136 1
72 168 1
72 176 1
72 184 1
72 264 1
72 296 1
72 304 1
72 312 1
72 392 1
72 424 1
72 432 1
72 440 1
72 456 1
72 488 1
72 496 1
72 504 1
73 137 1
73 161 1
73 169 1
73 185 1
73 265 1
73 289 1
73 297 1
73 313 1
73 393 1
73 417 1
73 425 1
73 441 1
73 457 1
73 481 1
73 489 1
73 505 1
74 138 1
74 162 1
74 170 1
74 186 1
74 266 1
74 290 1
74 298 1
74 314 1
74 394 1
74 418 1
74 426 1
74 442 1
74 458 1
74 482 1
74 490 1
74 506 1
75 139 1
75 163 1
75 171 1
75 187 1
75 267 1
75 291 1
75 299 1
75 315 1
75 395 1
75 419 1
75 427 1
75 443 1
75 459 1
75 483 1
75 491 1
75 507 1
76 140 1
76 164 1
76 172 1
76 188 1
76 268 1
76 292 1
76 300 1
76 316 1
76 396 1
76 420 1
76 428 1
76 444 1
76 460 1
76 484 1
76 492 1
76 508 1
77 141 1
77 165 1
77 173 1
77 189 1
77 269 1
77 293 1
77 301 1
77 317 1
77 397 1
77 421 1
77 429 1
77 445 1
77 461 1
77 485 1
77 493 1
77 509 1
78 142 1
78 166 1
78 174 1
78 190 1
78 270 1
78 294 1
78 302 1
78 318 1
78 398 1
78 422 1
78 430 1
78 446 1
78 462 1
78 486 1
78 494 1
78 510 1
79 143 1
79 167 1
79 175 1
79 191 1
79 271 1
79 295 1
79 303 1
79 319 1
79 399 1
79 423 1
79 431 1
79 447 1
79 463 1
79 487 1
79 495 1
79 511 1
80 144 1
80 168 1
80 176 1
80 192 1
80 272 1
80 296 1
80 304 1
80 320 1
80 400 1
80 424 1
80 432 1
80 448 1
80 464 1
80 488 1
80 496 1
80 512 1
81 145 1
81 161 1
81 177 1
81 185 1
81 273 1
81 289 1
81 305 1
81 313 1
81 401 1
81 417 1
81 433 1
81 441 1
81 465 1
81 481 1
81 497 1
81 505 1
82 146 1
82 162 1
82 178 1
82 186 1
82 274 1
82 290 1
82 306 1
82 314 1
82 402 1
82 418 1
82 434 1
82 442 1
82 466 1
82 482 1
82 498 1
82 506 1
83 147 1
83 163 1
83 179 1
83 187 1
83 275 1
83 291 1
83 307 1
83 315 1
83 403 1
83 419 1
83 435 1
83 443 1
83 467 1
83 483 1
83 499 1
83 507 1
84 148 1
84 164 1
84 180 1
84 188 1
84 276 1
84 292 1
84 308 1
84 316 1
84 404 1
84 420 1
84 436 1
84 444 1
84 468 1
84 484 1
84 500 1
84 508 1
85 149 1
85 165 1
85 181 1
85 189 1
85 277 1
85 293 1
85 309 1
85 317 1
85 405 1
85 421 1
85 437 1
85 445 1
85 469 1
85 485 1
85 501 1
85 509 1
86 150 1
86 166 1
86 182 1
86 190 1
86 278 1
86 294 1
86 310 1
86 318 1
86 406 1
86 422 1
86 438 1
86 446 1
86 470 1
86 486 1
86 502 1
86 510 1
87 151 1
87 167 1
87 183 1
87 191 1
87 279 1
87 295 1
87 311 1
87 319 1
87 407 1
87 423 1
87 439 1
87 447 1
87 471 1
87 487 1
87 503 1
87 511 1
88 152 1
88 168 1
88 184 1
88 192 1
88 280 1
88 296 1
88 312 1
88 320 1
88 408 1
88 424 1
88 440 1
88 448 1
88 472 1
88 488 1
88 504 1
88 512 1
89 153 1
89 169 1
89 177 1
89 185 1
89 281 1
89 297 1
89 305 1
89 313 1
89 409 1
89 425 1
89 433 1
89 441 1
89 473 1
89 489 1
89 497 1
89 505 1
90 154 1
90 170 1
90 178 1
90 186 1
90 282 1
90 298 1
90 306 1
90 314 1
90 410 1
90 426 1
90 434 1
90 442 1
90 474 1
90 490 1
90 498 1
90 506 1
91 155 1
91 171 1
91 179 1
91 187 1
91 283 1
91 299 1
91 307 1
91 315 1
91 411 1
91 427 1
91 435 1
91 443 1
91 475 1
91 491 1
91 499 1
91 507 1
92 156 1
92 172 1
92 180 1
92 188 1
92 284 1
92 300 1
92 308 1
92 316 1
92 412 1
92 428 1
92 436 1
92 444 1
92 476 1
92 492 1
92 500 1
92 508 1
93 157 1
93 173 1
93 181 1
93 189 1
93 285 1
93 301 1
93 309 1
93 317 1
93 413 1
93 429 1
93 437 1
93 445 1
93 477 1
93 493 1
93 501 1
93 509 1
94 158 1
94 174 1
94 182 1
94 190 1
94 286 1
94 302 1
94 310 1
94 318 1
94 414 1
94 430 1
94 438 1
94 446 1
94 478 1
94 494 1
94 502 1
94 510 1
95 159 1
95 175 1
95 183 1
95 191 1
95 287 1
95 303 1
95 311 1
95 319 1
95 415 1
95 431 1
95 439 1
95 447 1
95 479 1
95 495 1
95 503 1
95 511 1
96 160 1
96 176 1
96 184 1
96 192 1
96 288 1
96 304 1
96 312 1
96 320 1
96 416 1
96 432 1
96 440 1
96 448 1
96 480 1
96 496 1
96 504 1
96 512 1
97 193 1
97 225 1
97 233 1
97 241 1
97 321 1
97 353 1
97 361 1
97 369 1
97 385 1
97 417 1
97 425 1
97 433 1
97 449 1
97 481 1
97 489 1
97 497 1
98 194 1
98 226 1
98 234 1
98 242 1
98 322 1
98 354 1
98 362 1
98 370 1
98 386 1
98 418 1
98 426 1
98 434 1
98 450 1
98 482 1
98 490 1
98 498 1
99 195 1
99 227 1
99 235 1
99 243 1
99 323 1
99 355 1
99 363 1
99 371 1
99 387 1
99 419 1
99 427 1
99 435 1
99 451 1
99 483 1
99 491 1
99 499 1
100 196 1
100 228 1
100 236 1
100 244 1
100 324 1
100 356 1
100 364 1
100 372 1
100 388 1
100 420 1
100 428 1
100 436 1
100 452 1
100 484 1
100 492 1
100 500 1
101 197 1
101 229 1
101 237 1
101 245 1
101 325 1
101 357 1
101 365 1
101 373 1
101 389 1
101 421 1
101 429 1
101 437 1
101 453 1
101 485 1
101 493 1
101 501 1
102 198 1
102 230 1
102 238 1
102 246 1
102 326 1
102 358 1
102 366 1
102 374 1
102 390 1
102 422 1
102 430 1
102 438 1
102 454 1
102 486 1
102 494 1
102 502 1
103 199 1
103 231 1
103 239 1
103 247 1
103 327 1
103 359 1
103 367 1
103 375 1
103 391 1
103 423 1
103 431 1
103 439 1
103 455 1
103 487 1
103 495 1
103 503 1
104 200 1
104 232 1
104 240 1
104 248 1
104 328 1
104 360 1
104 368 1
104 376 1
104 392 1
104 424 1
104 432 1
104 440 1
104 456 1
104 488 1
104 496 1
104 504 1
105 201 1
105 225 1
105 233 1
105 249 1
105 329 1
105 353 1
105 361 1
105 377 1
105 393 1
105 417 1
105 425 1
105 441 1
105 457 1
105 481 1
105 489 1
105 505 1
106 202 1
106 226 1
106 234 1
106 250 1
106 330 1
106 354 1
106 362 1
106 378 1
106 394 1
106 418 1
106 426 1
106 442 1
106 458 1
106 482 1
106 490 1
106 506 1
107 203 1
107 227 1
107 235 1
107 251 1
107 331 1
107 355 1
107 363 1
107 379 1
107 395 1
107 419 1
107 427 1
107 443 1
107 459 1
107 483 1
107 491 1
107 507 1
108 204 1
108 228 1
108 236 1
108 252 1
108 332 1
108 356 1
108 364 1
108 380 1
108 396 1
108 420 1
108 428 1
108 444 1
108 460 1
108 484 1
108 492 1
108 508 1
109 205 1
109 229 1
109 237 1
109 253 1
109 333 1
109 357 1
109 365 1
109 381 1
109 397 1
109 421 1
109 429 1
109 445 1
109 461 1
109 485 1
109 493 1
109 509 1
110 206 1
110 230 1
110 238 1
110 254 1
110 334 1
110 358 1
110 366 1
110 382 1
110 398 1
110 422 1
110 430 1
110 446 1
110 462 1
110 486 1
110 494 1
110 510 1
111 207 1
111 231 1
111 239 1
111 255 1
111 335 1
111 359 1
111 367 1
111 383 1
111 399 1
111 423 1
111 431 1
111 447 1
111 463 1
111 487 1
111 495 1
111 511 1
112 208 1
112 232 1
112 240 1
112 256 1
112 336 1
112 360 1
112 368 1
112 384 1
112 400 1
112 424 1
112 432 1
112 448 1
112 464 1
112 488 1
112 496 1
112 512 1
113 209 1
113 225 1
113 241 1
113 249 1
113 337 1
113 353 1
113 369 1
113 377 1
113 401 1
113 417 1
113 433 1
113 441 1
113 465 1
113 481 1
113 497 1
113 505 1
114 210 1
114 226 1
114 242 1
114 250 1
114 338 1
114 354 1
114 370 1
114 378 1
114 402 1
114 418 1
114 434 1
114 442 1
114 466 1
114 482 1
114 498 1
114 506 1
115 211 1
115 227 1
115 243 1
115 251 1
115 339 1
115 355 1
115 371 1
115 379 1
115 403 1
115 419 1
115 435 1
115 443 1
115 467 1
115 483 1
115 499 1
115 507 1
116 212 1
116 228 1
116 244 1
116 252 1
116 340 1
116 356 1
116 372 1
116 380 1
116 404 1
116 420 1
116 436 1
116 444 1
116 468 1
116 484 1
116 500 1
116 508 1
117 213 1
117 229 1
117 245 1
117 253 1
117 341 1
117 357 1
117 373 1
117 381 1
117 405 1
117 421 1
117 437 1
117 445 1
117 469 1
117 485 1
117 501 1
117 509 1
118 214 1
118 230 1
118 246 1
118 254 1
118 342 1
118 358 1
118 374 1
118 382 1
118 406 1
118 422 1
118 438 1
118 446 1
118 470 1
118 486 1
118 502 1
118 510 1
119 215 1
119 231 1
119 247 1
119 255 1
119 343 1
119 359 1
119 375 1
119 383 1
119 407 1
119 423 1
119 439 1
119 447 1
119 471 1
119 487 1
119 503 1
119 511 1
120 216 1
120 232 1
120 248 1
120 256 1
120 344 1
120 360 1
120 376 1
120 384 1
120 408 1
120 424 1
120 440 1
120 448 1
120 472 1
120 488 1
120 504 1
120 512 1
121 217 1
121 233 1
121 241 1
121 249 1
121 345 1
121 361 1
121 369 1
121 377 1
121 409 1
121 425 1
121 433 1
121 441 1
121 473 1
121 489 1
121 497 1
121 505 1
122 218 1
122 234 1
122 242 1
122 250 1
122 346 1
122 362 1
122 370 1
122 378 1
122 410 1
122 426 1
122 434 1
122 442 1
122 474 1
122 490 1
122 498 1
122 506 1
123 219 1
123 235 1
123 243 1
123 251 1
123 347 1
123 363 1
123 371 1
123 379 1
123 411 1
123 427 1
123 435 1
123 443 1
123 475 1
123 491 1
123 499 1
123 507 1
124 220 1
124 236 1
124 244 1
124 252 1
124 348 1
124 364 1
124 372 1
124 380 1
124 412 1
124 428 1
124 436 1
124 444 1
124 476 1
124 492 1
124 500 1
124 508 1
125 221 1
125 237 1
125 245 1
125 253 1
125 349 1
125 365 1
125 373 1
125 381 1
125 413 1
125 429 1
125 437 1
125 445 1
125 477 1
125 493 1
125 501 1
125 509 1
126 222 1
126 238 1
126 246 1
126 254 1
126 350 1
126 366 1
126 374 1
126 382 1
126 414 1
126 430 1
126 438 1
126 446 1
126 478 1
126 494 1
126 502 1
126 510 1
127 223 1
127 239 1
127 247 1
127 255 1
127 351 1
127 367 1
127 375 1
127 383 1
127 415 1
127 431 1
127 439 1
127 447 1
127 479 1
127 495 1
127 503 1
127 511 1
128 224 1
128 240 1
128 248 1
128 256 1
128 352 1
128 368 1
128 376 1
128 384 1
128 416 1
128 432 1
128 440 1
128 448 1
128 480 1
128 496 1
128 504 1
128 512 1
129 1 1
129 31 1
129 45 1
129 51 1
129 195 1
129 217 1
129 238 1
129 244 1
129 326 1
129 349 1
129 361 1
129 376 1
129 390 1
129 413 1
129 425 1
129 440 1
130 2 1
130 32 1
130 44 1
130 53 1
130 197 1
130 218 1
130 239 1
130 246 1
130 327 1
130 348 1
130 362 1
130 369 1
130 391 1
130 412 1
130 426 1
130 433 1
131 3 1
131 25 1
131 46 1
131 52 1
131 196 1
131 219 1
131 240 1
131 247 1
131 328 1
131 350 1
131 363 1
131 370 1
131 392 1
131 414 1
131 427 1
131 434 1
132 4 1
132 27 1
132 48 1
132 55 1
132 199 1
132 220 1
132 234 1
132 241 1
132 322 1
132 352 1
132 364 1
132 373 1
132 386 1
132 416 1
132 428 1
132 437 1
133 5 1
133 26 1
133 47 1
133 54 1
133 198 1
133 221 1
133 233 1
133 248 1
133 321 1
133 351 1
133 365 1
133 371 1
133 385 1
133 415 1
133 429 1
133 435 1
134 6 1
134 29 1
134 41 1
134 56 1
134 200 1
134 222 1
134 235 1
134 242 1
134 323 1
134 345 1
134 366 1
134 372 1
134 387 1
134 409 1
134 430 1
134 436 1
135 7 1
135 28 1
135 42 1
135 49 1
135 193 1
135 223 1
135 237 1
135 243 1
135 325 1
135 346 1
135 367 1
135 374 1
135 389 1
135 410 1
135 431 1
135 438 1
136 8 1
136 30 1
136 43 1
136 50 1
136 194 1
136 224 1
136 236 1
136 245 1
136 324 1
136 347 1
136 368 1
136 375 1
136 388 1
136 411 1
136 432 1
136 439 1
137 9 1
137 31 1
137 45 1
137 58 1
137 203 1
137 217 1
137 238 1
137 253 1
137 334 1
137 349 1
137 361 1
137 383 1
137 398 1
137 413 1
137 425 1
137 447 1
138 10 1
138 32 1
138 44 1
138 59 1
138 205 1
138 218 1
138 239 1
138 252 1
138 335 1
138 348 1
138 362 1
138 384 1
138 399 1
138 412 1
138 426 1
138 448 1
139 11 1
139 25 1
139 46 1
139 61 1
139 204 1
139 219 1
139 240 1
139 254 1
139 336 1
139 350 1
139 363 1
139 377 1
139 400 1
139 414 1
139 427 1
139 441 1
140 12 1
140 27 1
140 48 1
140 62 1
140 207 1
140 220 1
140 234 1
140 256 1
140 330 1
140 352 1
140 364 1
140 379 1
140 394 1
140 416 1
140 428 1
140 443 1
141 13 1
141 26 1
141 47 1
141 60 1
141 206 1
141 221 1
141 233 1
141 255 1
141 329 1
141 351 1
141 365 1
141 378 1
141 393 1
141 415 1
141 429 1
141 442 1
142 14 1
142 29 1
142 41 1
142 63 1
142 208 1
142 222 1
142 235 1
142 249 1
142 331 1
142 345 1
142 366 1
142 381 1
142 395 1
142 409 1
142 430 1
142 445 1
143 15 1
143 28 1
143 42 1
143 64 1
143 201 1
143 223 1
143 237 1
143 250 1
143 333 1
143 346 1
143 367 1
143 380 1
143 397 1
143 410 1
143 431 1
143 444 1
144 16 1
144 30 1
144 43 1
144 57 1
144 202 1
144 224 1
144 236 1
144 251 1
144 332 1
144 347 1
144 368 1
144 382 1
144 396 1
144 411 1
144 432 1
144 446 1
145 24 1
145 31 1
145 51 1
145 58 1
145 210 1
145 217 1
145 244 1
145 253 1
145 340 1
145 349 1
145 376 1
145 383 1
145 404 1
145 413 1
145 440 1
145 447 1
146 17 1
146 32 1
146 53 1
146 59 1
146 211 1
146 218 1
146 246 1
146 252 1
146 342 1
146 348 1
146 369 1
146 384 1
146 406 1
146 412 1
146 433 1
146 448 1
147 18 1
147 25 1
147 52 1
147 61 1
147 213 1
147 219 1
147 247 1
147 254 1
147 343 1
147 350 1
147 370 1
147 377 1
147 407 1
147 414 1
147 434 1
147 441 1
148 21 1
148 27 1
148 55 1
148 62 1
148 214 1
148 220 1
148 241 1
148 256 1
148 337 1
148 352 1
148 373 1
148 379 1
148 401 1
148 416 1
148 437 1
148 443 1
149 19 1
149 26 1
149 54 1
149 60 1
149 212 1
149 221 1
149 248 1
149 255 1
149 344 1
149 351 1
149 371 1
149 378 1
149 408 1
149 415 1
149 435 1
149 442 1
150 20 1
150 29 1
150 56 1
150 63 1
150 215 1
150 222 1
150 242 1
150 249 1
150 338 1
150 345 1
150 372 1
150 381 1
150 402 1
150 409 1
150 436 1
150 445 1
151 22 1
151 28 1
151 49 1
151 64 1
151 216 1
151 223 1
151 243 1
151 250 1
151 339 1
151 346 1
151 374 1
151 380 1
151 403 1
151 410 1
151 438 1
151 444 1
152 23 1
152 30 1
152 50 1
152 57 1
152 209 1
152 224 1
152 245 1
152 251 1
152 341 1
152 347 1
152 375 1
152 382 1
152 405 1
152 411 1
152 439 1
152 446 1
153 38 1
153 45 1
153 51 1
153 58 1
153 232 1
153 238 1
153 244 1
153 253 1
153 355 1
153 361 1
153 376 1
153 383 1
153 419 1
153 425 1
153 440 1
153 447 1
154 39 1
154 44 1
154 53 1
154 59 1
154 225 1
154 239 1
154 246 1
154 252 1
154 357 1
154 362 1
154 369 1
154 384 1
154 421 1
154 426 1
154 433 1
154 448 1
155 40 1
155 46 1
155 52 1
155 61 1
155 226 1
155 240 1
155 247 1
155 254 1
155 356 1
155 363 1
155 370 1
155 377 1
155 420 1
155 427 1
155 434 1
155 441 1
156 34 1
156 48 1
156 55 1
156 62 1
156 229 1
156 234 1
156 241 1
156 256 1
156 359 1
156 364 1
156 373 1
156 379 1
156 423 1
156 428 1
156 437 1
156 443 1
157 33 1
157 47 1
157 54 1
157 60 1
157 227 1
157 233 1
157 248 1
157 255 1
157 358 1
157 365 1
157 371 1
157 378 1
157 422 1
157 429 1
157 435 1
157 442 1
158 35 1
158 41 1
158 56 1
158 63 1
158 228 1
158 235 1
158 242 1
158 249 1
158 360 1
158 366 1
158 372 1
158 381 1
158 424 1
158 430 1
158 436 1
158 445 1
159 37 1
159 42 1
159 49 1
159 64 1
159 230 1
159 237 1
159 243 1
159 250 1
159 353 1
159 367 1
159 374 1
159 380 1
159 417 1
159 431 1
159 438 1
159 444 1
160 36 1
160 43 1
160 50 1
160 57 1
160 231 1
160 236 1
160 245 1
160 251 1
160 354 1
160 368 1
160 375 1
160 382 1
160 418 1
160 432 1
160 439 1
160 446 1
161 65 1
161 95 1
161 109 1
161 115 1
161 195 1
161 217 1
161 238 1
161 244 1
161 326 1
161 349 1
161 361 1
161 376 1
161 456 1
161 478 1
161 491 1
161 498 1
162 66 1
162 96 1
162 108 1
162 117 1
162 197 1
162 218 1
162 239 1
162 246 1
162 327 1
162 348 1
162 362 1
162 369 1
162 449 1
162 479 1
162 493 1
162 499 1
163 67 1
163 89 1
163 110 1
163 116 1
163 196 1
163 219 1
163 240 1
163 247 1
163 328 1
163 350 1
163 363 1
163 370 1
163 450 1
163 480 1
163 492 1
163 501 1
164 68 1
164 91 1
164 112 1
164 119 1
164 199 1
164 220 1
164 234 1
164 241 1
164 322 1
164 352 1
164 364 1
164 373 1
164 453 1
164 474 1
164 495 1
164 502 1
165 69 1
165 90 1
165 111 1
165 118 1
165 198 1
165 221 1
165 233 1
165 248 1
165 321 1
165 351 1
165 365 1
165 371 1
165 451 1
165 473 1
165 494 1
165 500 1
166 70 1
166 93 1
166 105 1
166 120 1
166 200 1
166 222 1
166 235 1
166 242 1
166 323 1
166 345 1
166 366 1
166 372 1
166 452 1
166 475 1
166 496 1
166 503 1
167 71 1
167 92 1
167 106 1
167 113 1
167 193 1
167 223 1
167 237 1
167 243 1
167 325 1
167 346 1
167 367 1
167 374 1
167 454 1
167 477 1
167 489 1
167 504 1
168 72 1
168 94 1
168 107 1
168 114 1
168 194 1
168 224 1
168 236 1
168 245 1
168 324 1
168 347 1
168 368 1
168 375 1
168 455 1
168 476 1
168 490 1
168 497 1
169 73 1
169 95 1
169 109 1
169 122 1
169 203 1
169 217 1
169 238 1
169 253 1
169 334 1
169 349 1
169 361 1
169 383 1
169 464 1
169 478 1
169 491 1
169 505 1
170 74 1
170 96 1
170 108 1
170 123 1
170 205 1
170 218 1
170 239 1
170 252 1
170 335 1
170 348 1
170 362 1
170 384 1
170 457 1
170 479 1
170 493 1
170 506 1
171 75 1
171 89 1
171 110 1
171 125 1
171 204 1
171 219 1
171 240 1
171 254 1
171 336 1
171 350 1
171 363 1
171 377 1
171 458 1
171 480 1
171 492 1
171 507 1
172 76 1
172 91 1
172 112 1
172 126 1
172 207 1
172 220 1
172 234 1
172 256 1
172 330 1
172 352 1
172 364 1
172 379 1
172 461 1
172 474 1
172 495 1
172 508 1
173 77 1
173 90 1
173 111 1
173 124 1
173 206 1
173 221 1
173 233 1
173 255 1
173 329 1
173 351 1
173 365 1
173 378 1
173 459 1
173 473 1
173 494 1
173 509 1
174 78 1
174 93 1
174 105 1
174 127 1
174 208 1
174 222 1
174 235 1
174 249 1
174 331 1
174 345 1
174 366 1
174 381 1
174 460 1
174 475 1
174 496 1
174 510 1
175 79 1
175 92 1
175 106 1
175 128 1
175 201 1
175 223 1
175 237 1
175 250 1
175 333 1
175 346 1
175 367 1
175 380 1
175 462 1
175 477 1
175 489 1
175 511 1
176 80 1
176 94 1
176 107 1
176 121 1
176 202 1
176 224 1
176 236 1
176 251 1
176 332 1
176 347 1
176 368 1
176 382 1
176 463 1
176 476 1
176 490 1
176 512 1
177 88 1
177 95 1
177 115 1
177 122 1
177 210 1
177 217 1
177 244 1
177 253 1
177 340 1
177 349 1
177 376 1
177 383 1
177 471 1
177 478 1
177 498 1
177 505 1
178 81 1
178 96 1
178 117 1
178 123 1
178 211 1
178 218 1
178 246 1
178 252 1
178 342 1
178 348 1
178 369 1
178 384 1
178 472 1
178 479 1
178 499 1
178 506 1
179 82 1
179 89 1
179 116 1
179 125 1
179 213 1
179 219 1
179 247 1
179 254 1
179 343 1
179 350 1
179 370 1
179 377 1
179 465 1
179 480 1
179 501 1
179 507 1
180 85 1
180 91 1
180 119 1
180 126 1
180 214 1
180 220 1
180 241 1
180 256 1
180 337 1
180 352 1
180 373 1
180 379 1
180 467 1
180 474 1
180 502 1
180 508 1
181 83 1
181 90 1
181 118 1
181 124 1
181 212 1
181 221 1
181 248 1
181 255 1
181 344 1
181 351 1
181 371 1
181 378 1
181 466 1
181 473 1
181 500 1
181 509 1
182 84 1
182 93 1
182 120 1
182 127 1
182 215 1
182 222 1
182 242 1
182 249 1
182 338 1
182 345 1
182 372 1
182 381 1
182 469 1
182 475 1
182 503 1
182 510 1
183 86 1
183 92 1
183 113 1
183 128 1
183 216 1
183 223 1
183 243 1
183 250 1
183 339 1
183 346 1
183 374 1
183 380 1
183 468 1
183 477 1
183 504 1
183 511 1
184 87 1
184 94 1
184 114 1
184 121 1
184 209 1
184 224 1
184 245 1
184 251 1
184 341 1
184 347 1
184 375 1
184 382 1
184 470 1
184 476 1
184 497 1
184 512 1
185 102 1
185 109 1
185 115 1
185 122 1
185 232 1
185 238 1
185 244 1
185 253 1
185 355 1
185 361 1
185 376 1
185 383 1
185 484 1
185 491 1
185 498 1
185 505 1
186 103 1
186 108 1
186 117 1
186 123 1
186 225 1
186 239 1
186 246 1
186 252 1
186 357 1
186 362 1
186 369 1
186 384 1
186 486 1
186 493 1
186 499 1
186 506 1
187 104 1
187 110 1
187 116 1
187 125 1
187 226 1
187 240 1
187 247 1
187 254 1
187 356 1
187 363 1
187 370 1
187 377 1
187 487 1
187 492 1
187 501 1
187 507 1
188 98 1
188 112 1
188 119 1
188 126 1
188 229 1
188 234 1
188 241 1
188 256 1
188 359 1
188 364 1
188 373 1
188 379 1
188 481 1
188 495 1
188 502 1
188 508 1
189 97 1
189 111 1
189 118 1
189 124 1
189 227 1
189 233 1
189 248 1
189 255 1
189 358 1
189 365 1
189 371 1
189 378 1
189 488 1
189 494 1
189 500 1
189 509 1
190 99 1
190 105 1
190 120 1
190 127 1
190 228 1
190 235 1
190 242 1
190 249 1
190 360 1
190 366 1
190 372 1
190 381 1
190 482 1
190 496 1
190 503 1
190 510 1
191 101 1
191 106 1
191 113 1
191 128 1
191 230 1
191 237 1
191 243 1
191 250 1
191 353 1
191 367 1
191 374 1
191 380 1
191 483 1
191 489 1
191 504 1
191 511 1
192 100 1
192 107 1
192 114 1
192 121 1
192 231 1
192 236 1
192 245 1
192 251 1
192 354 1
192 368 1
192 375 1
192 382 1
192 485 1
192 490 1
192 497 1
192 512 1
193 131 1
193 153 1
193 174 1
193 180 1
193 195 1
193 217 1
193 238 1
193 244 1
193 390 1
193 413 1
193 425 1
193 440 1
193 456 1
193 478 1
193 491 1
193 498 1
194 133 1
194 154 1
194 175 1
194 182 1
194 197 1
194 218 1
194 239 1
194 246 1
194 391 1
194 412 1
194 426 1
194 433 1
194 449 1
194 479 1
194 493 1
194 499 1
195 132 1
195 155 1
195 176 1
195 183 1
195 196 1
195 219 1
195 240 1
195 247 1
195 392 1
195 414 1
195 427 1
195 434 1
195 450 1
195 480 1
195 492 1
195 501 1
196 135 1
196 156 1
196 170 1
196 177 1
196 199 1
196 220 1
196 234 1
196 241 1
196 386 1
196 416 1
196 428 1
196 437 1
196 453 1
196 474 1
196 495 1
196 502 1
197 134 1
197 157 1
197 169 1
197 184 1
197 198 1
197 221 1
197 233 1
197 248 1
197 385 1
197 415 1
197 429 1
197 435 1
197 451 1
197 473 1
197 494 1
197 500 1
198 136 1
198 158 1
198 171 1
198 178 1
198 200 1
198 222 1
198 235 1
198 242 1
198 387 1
198 409 1
198 430 1
198 436 1
198 452 1
198 475 1
198 496 1
198 503 1
199 129 1
199 159 1
199 173 1
199 179 1
199 193 1
199 223 1
199 237 1
199 243 1
199 389 1
199 410 1
199 431 1
199 438 1
199 454 1
199 477 1
199 489 1
199 504 1
200 130 1
200 160 1
200 172 1
200 181 1
200 194 1
200 224 1
200 236 1
200 245 1
200 388 1
200 411 1
200 432 1
200 439 1
200 455 1
200 476 1
200 490 1
200 497 1
201 139 1
201 153 1
201 174 1
201 189 1
201 203 1
201 217 1
201 238 1
201 253 1
201 398 1
201 413 1
201 425 1
201 447 1
201 464 1
201 478 1
201 491 1
201 505 1
202 141 1
202 154 1
202 175 1
202 188 1
202 205 1
202 218 1
202 239 1
202 252 1
202 399 1
202 412 1
202 426 1
202 448 1
202 457 1
202 479 1
202 493 1
202 506 1
203 140 1
203 155 1
203 176 1
203 190 1
203 204 1
203 219 1
203 240 1
203 254 1
203 400 1
203 414 1
203 427 1
203 441 1
203 458 1
203 480 1
203 492 1
203 507 1
204 143 1
204 156 1
204 170 1
204 192 1
204 207 1
204 220 1
204 234 1
204 256 1
204 394 1
204 416 1
204 428 1
204 443 1
204 461 1
204 474 1
204 495 1
204 508 1
205 142 1
205 157 1
205 169 1
205 191 1
205 206 1
205 221 1
205 233 1
205 255 1
205 393 1
205 415 1
205 429 1
205 442 1
205 459 1
205 473 1
205 494 1
205 509 1
206 144 1
206 158 1
206 171 1
206 185 1
206 208 1
206 222 1
206 235 1
206 249 1
206 395 1
206 409 1
206 430 1
206 445 1
206 460 1
206 475 1
206 496 1
206 510 1
207 137 1
207 159 1
207 173 1
207 186 1
207 201 1
207 223 1
207 237 1
207 250 1
207 397 1
207 410 1
207 431 1
207 444 1
207 462 1
207 477 1
207 489 1
207 511 1
208 138 1
208 160 1
208 172 1
208 187 1
208 202 1
208 224 1
208 236 1
208 251 1
208 396 1
208 411 1
208 432 1
208 446 1
208 463 1
208 476 1
208 490 1
208 512 1
209 146 1
209 153 1
209 180 1
209 189 1
209 210 1
209 217 1
209 244 1
209 253 1
209 404 1
209 413 1
209 440 1
209 447 1
209 471 1
209 478 1
209 498 1
209 505 1
210 147 1
210 154 1
210 182 1
210 188 1
210 211 1
210 218 1
210 246 1
210 252 1
210 406 1
210 412 1
210 433 1
210 448 1
210 472 1
210 479 1
210 499 1
210 506 1
211 149 1
211 155 1
211 183 1
211 190 1
211 213 1
211 219 1
211 247 1
211 254 1
211 407 1
211 414 1
211 434 1
211 441 1
211 465 1
211 480 1
211 501 1
211 507 1
212 150 1
212 156 1
212 177 1
212 192 1
212 214 1
212 220 1
212 241 1
212 256 1
212 401 1
212 416 1
212 437 1
212 443 1
212 467 1
212 474 1
212 502 1
212 508 1
213 148 1
213 157 1
213 184 1
213 191 1
213 212 1
213 221 1
213 248 1
213 255 1
213 408 1
213 415 1
213 435 1
213 442 1
213 466 1
213 473 1
213 500 1
213 509 1
214 151 1
214 158 1
214 178 1
214 185 1
214 215 1
214 222 1
214 242 1
214 249 1
214 402 1
214 409 1
214 436 1
214 445 1
214 469 1
214 475 1
214 503 1
214 510 1
215 152 1
215 159 1
215 179 1
215 186 1
215 216 1
215 223 1
215 243 1
215 250 1
215 403 1
215 410 1
215 438 1
215 444 1
215 468 1
215 477 1
215 504 1
215 511 1
216 145 1
216 160 1
216 181 1
216 187 1
216 209 1
216 224 1
216 245 1
216 251 1
216 405 1
216 411 1
216 439 1
216 446 1
216 470 1
216 476 1
216 497 1
216 512 1
217 168 1
217 174 1
217 180 1
217 189 1
217 232 1
217 238 1
217 244 1
217 253 1
217 419 1
217 425 1
217 440 1
217 447 1
217 484 1
217 491 1
217 498 1
217 505 1
218 161 1
218 175 1
218 182 1
218 188 1
218 225 1
218 239 1
218 246 1
218 252 1
218 421 1
218 426 1
218 433 1
218 448 1
218 486 1
218 493 1
218 499 1
218 506 1
219 162 1
219 176 1
219 183 1
219 190 1
219 226 1
219 240 1
219 247 1
219 254 1
219 420 1
219 427 1
219 434 1
219 441 1
219 487 1
219 492 1
219 501 1
219 507 1
220 165 1
220 170 1
220 177 1
220 192 1
220 229 1
220 234 1
220 241 1
220 256 1
220 423 1
220 428 1
220 437 1
220 443 1
220 481 1
220 495 1
220 502 1
220 508 1
221 163 1
221 169 1
221 184 1
221 191 1
221 227 1
221 233 1
221 248 1
221 255 1
221 422 1
221 429 1
221 435 1
221 442 1
221 488 1
221 494 1
221 500 1
221 509 1
222 164 1
222 171 1
222 178 1
222 185 1
222 228 1
222 235 1
222 242 1
222 249 1
222 424 1
222 430 1
222 436 1
222 445 1
222 482 1
222 496 1
222 503 1
222 510 1
223 166 1
223 173 1
223 179 1
223 186 1
223 230 1
223 237 1
223 243 1
223 250 1
223 417 1
223 431 1
223 438 1
223 444 1
223 483 1
223 489 1
223 504 1
223 511 1
224 167 1
224 172 1
224 181 1
224 187 1
224 231 1
224 236 1
224 245 1
224 251 1
224 418 1
224 432 1
224 439 1
224 446 1
224 485 1
224 490 1
224 497 1
224 512 1
225 261 1
225 282 1
225 303 1
225 310 1
225 326 1
225 349 1
225 361 1
225 376 1
225 390 1
225 413 1
225 425 1
225 440 1
225 456 1
225 478 1
225 491 1
225 498 1
226 260 1
226 283 1
226 304 1
226 311 1
226 327 1
226 348 1
226 362 1
226 369 1
226 391 1
226 412 1
226 426 1
226 433 1
226 449 1
226 479 1
226 493 1
226 499 1
227 262 1
227 285 1
227 297 1
227 312 1
227 328 1
227 350 1
227 363 1
227 370 1
227 392 1
227 414 1
227 427 1
227 434 1
227 450 1
227 480 1
227 492 1
227 501 1
228 264 1
228 286 1
228 299 1
228 306 1
228 322 1
228 352 1
228 364 1
228 373 1
228 386 1
228 416 1
228 428 1
228 437 1
228 453 1
228 474 1
228 495 1
228 502 1
229 263 1
229 284 1
229 298 1
229 305 1
229 321 1
229 351 1
229 365 1
229 371 1
229 385 1
229 415 1
229 429 1
229 435 1
229 451 1
229 473 1
229 494 1
229 500 1
230 257 1
230 287 1
230 301 1
230 307 1
230 323 1
230 345 1
230 366 1
230 372 1
230 387 1
230 409 1
230 430 1
230 436 1
230 452 1
230 475 1
230 496 1
230 503 1
231 258 1
231 288 1
231 300 1
231 309 1
231 325 1
231 346 1
231 367 1
231 374 1
231 389 1
231 410 1
231 431 1
231 438 1
231 454 1
231 477 1
231 489 1
231 504 1
232 259 1
232 281 1
232 302 1
232 308 1
232 324 1
232 347 1
232 368 1
232 375 1
232 388 1
232 411 1
232 432 1
232 439 1
232 455 1
232 476 1
232 490 1
232 497 1
233 269 1
233 282 1
233 303 1
233 316 1
233 334 1
233 349 1
233 361 1
233 383 1
233 398 1
233 413 1
233 425 1
233 447 1
233 464 1
233 478 1
233 491 1
233 505 1
234 268 1
234 283 1
234 304 1
234 318 1
234 335 1
234 348 1
234 362 1
234 384 1
234 399 1
234 412 1
234 426 1
234 448 1
234 457 1
234 479 1
234 493 1
234 506 1
235 270 1
235 285 1
235 297 1
235 319 1
235 336 1
235 350 1
235 363 1
235 377 1
235 400 1
235 414 1
235 427 1
235 441 1
235 458 1
235 480 1
235 492 1
235 507 1
236 272 1
236 286 1
236 299 1
236 313 1
236 330 1
236 352 1
236 364 1
236 379 1
236 394 1
236 416 1
236 428 1
236 443 1
236 461 1
236 474 1
236 495 1
236 508 1
237 271 1
237 284 1
237 298 1
237 320 1
237 329 1
237 351 1
237 365 1
237 378 1
237 393 1
237 415 1
237 429 1
237 442 1
237 459 1
237 473 1
237 494 1
237 509 1
238 265 1
238 287 1
238 301 1
238 314 1
238 331 1
238 345 1
238 366 1
238 381 1
238 395 1
238 409 1
238 430 1
238 445 1
238 460 1
238 475 1
238 496 1
238 510 1
239 266 1
239 288 1
239 300 1
239 315 1
239 333 1
239 346 1
239 367 1
239 380 1
239 397 1
239 410 1
239 431 1
239 444 1
239 462 1
239 477 1
239 489 1
239 511 1
240 267 1
240 281 1
240 302 1
240 317 1
240 332 1
240 347 1
240 368 1
240 382 1
240 396 1
240 411 1
240 432 1
240 446 1
240 463 1
240 476 1
240 490 1
240 512 1
241 275 1
241 282 1
241 310 1
241 316 1
241 340 1
241 349 1
241 376 1
241 383 1
241 404 1
241 413 1
241 440 1
241 447 1
241 471 1
241 478 1
241 498 1
241 505 1
242 277 1
242 283 1
242 311 1
242 318 1
242 342 1
242 348 1
242 369 1
242 384 1
242 406 1
242 412 1
242 433 1
242 448 1
242 472 1
242 479 1
242 499 1
242 506 1
243 276 1
243 285 1
243 312 1
243 319 1
243 343 1
243 350 1
243 370 1
243 377 1
243 407 1
243 414 1
243 434 1
243 441 1
243 465 1
243 480 1
243 501 1
243 507 1
244 279 1
244 286 1
244 306 1
244 313 1
244 337 1
244 352 1
244 373 1
244 379 1
244 401 1
244 416 1
244 437 1
244 443 1
244 467 1
244 474 1
244 502 1
244 508 1
245 278 1
245 284 1
245 305 1
245 320 1
245 344 1
245 351 1
245 371 1
245 378 1
245 408 1
245 415 1
245 435 1
245 442 1
245 466 1
245 473 1
245 500 1
245 509 1
246 280 1
246 287 1
246 307 1
246 314 1
246 338 1
246 345 1
246 372 1
246 381 1
246 402 1
246 409 1
246 436 1
246 445 1
246 469 1
246 475 1
246 503 1
246 510 1
247 273 1
247 288 1
247 309 1
247 315 1
247 339 1
247 346 1
247 374 1
247 380 1
247 403 1
247 410 1
247 438 1
247 444 1
247 468 1
247 477 1
247 504 1
247 511 1
248 274 1
248 281 1
248 308 1
248 317 1
248 341 1
248 347 1
248 375 1
248 382 1
248 405 1
248 411 1
248 439 1
248 446 1
248 470 1
248 476 1
248 497 1
248 512 1
249 289 1
249 303 1
249 310 1
249 316 1
249 355 1
249 361 1
249 376 1
249 383 1
249 419 1
249 425 1
249 440 1
249 447 1
249 484 1
249 491 1
249 498 1
249 505 1
250 290 1
250 304 1
250 311 1
250 318 1
250 357 1
250 362 1
250 369 1
250 384 1
250 421 1
250 426 1
250 433 1
250 448 1
250 486 1
250 493 1
250 499 1
250 506 1
251 291 1
251 297 1
251 312 1
251 319 1
251 356 1
251 363 1
251 370 1
251 377 1
251 420 1
251 427 1
251 434 1
251 441 1
251 487 1
251 492 1
251 501 1
251 507 1
252 292 1
252 299 1
252 306 1
252 313 1
252 359 1
252 364 1
252 373 1
252 379 1
252 423 1
252 428 1
252 437 1
252 443 1
252 481 1
252 495 1
252 502 1
252 508 1
253 293 1
253 298 1
253 305 1
253 320 1
253 358 1
253 365 1
253 371 1
253 378 1
253 422 1
253 429 1
253 435 1
253 442 1
253 488 1
253 494 1
253 500 1
253 509 1
254 294 1
254 301 1
254 307 1
254 314 1
254 360 1
254 366 1
254 372 1
254 381 1
254 424 1
254 430 1
254 436 1
254 445 1
254 482 1
254 496 1
254 503 1
254 510 1
255 295 1
255 300 1
255 309 1
255 315 1
255 353 1
255 367 1
255 374 1
255 380 1
255 417 1
255 431 1
255 438 1
255 444 1
255 483 1
255 489 1
255 504 1
255 511 1
256 296 1
256 302 1
256 308 1
256 317 1
256 354 1
256 368 1
256 375 1
256 382 1
256 418 1
256 432 1
256 439 1
256 446 1
256 485 1
256 490 1
256 497 1
256 512 1
