%%MatrixMarket matrix coordinate integer general
224 448 3584
1 1 1
1 29 1
1 36 1
1 43 1
1 225 1
1 253 1
1 260 1
1 267 1
1 281 1
1 309 1
1 316 1
1 323 1
1 337 1
1 365 1
1 372 1
1 379 1
2 2 1
2 30 1
2 37 1
2 44 1
2 226 1
2 254 1
2 261 1
2 268 1
2 282 1
2 310 1
2 317 1
2 324 1
2 338 1
2 366 1
2 373 1
2 380 1
3 3 1
3 31 1
3 38 1
3 45 1
3 227 1
3 255 1
3 262 1
3 269 1
3 283 1
3 311 1
3 318 1
3 325 1
3 339 1
3 367 1
3 374 1
3 381 1
4 4 1
4 32 1
4 39 1
4 46 1
4 228 1
4 256 1
4 263 1
4 270 1
4 284 1
4 312 1
4 319 1
4 326 1
4 340 1
4 368 1
4 375 1
4 382 1
5 5 1
5 33 1
5 40 1
5 47 1
5 229 1
5 257 1
5 264 1
5 271 1
5 285 1
5 313 1
5 320 1
5 327 1
5 341 1
5 369 1
5 376 1
5 383 1
6 6 1
6 34 1
6 41 1
6 48 1
6 230 1
6 258 1
6 265 1
6 272 1
6 286 1
6 314 1
6 321 1
6 328 1
6 342 1
6 370 1
6 377 1
6 384 1
7 7 1
7 35 1
7 42 1
7 49 1
7 231 1
7 259 1
7 266 1
7 273 1
7 287 1
7 315 1
7 322 1
7 329 1
7 343 1
7 371 1
7 378 1
7 385 1
8 8 1
8 29 1
8 36 1
8 50 1
8 232 1
8 253 1
8 260 1
8 274 1
8 288 1
8 309 1
8 316 1
8 330 1
8 344 1
8 365 1
8 372 1
8 386 1
9 9 1
9 30 1
9 37 1
9 51 1
9 233 1
9 254 1
9 261 1
9 275 1
9 289 1
9 310 1
9 317 1
9 331 1
9 345 1
9 366 1
9 373 1
9 387 1
10 10 1
10 31 1
10 38 1
10 52 1
10 234 1
10 255 1
10 262 1
10 276 1
10 290 1
10 311 1
10 318 1
10 332 1
10 346 1
10 367 1
10 374 1
10 388 1
11 11 1
11 32 1
11 39 1
11 53 1
11 235 1
11 256 1
11 263 1
11 277 1
11 291 1
11 312 1
11 319 1
11 333 1
11 347 1
11 368 1
11 375 1
11 389 1
12 12 1
12 33 1
12 40 1
12 54 1
12 236 1
12 257 1
12 264 1
12 278 1
12 292 1
12 313 1
12 320 1
12 334 1
12 348 1
12 369 1
12 376 1
12 390 1
13 13 1
13 34 1
13 41 1
13 55 1
13 237 1
13 258 1
13 265 1
13 279 1
13 293 1
13 314 1
13 321 1
13 335 1
13 349 1
13 370 1
13 377 1
13 391 1
14 14 1
14 35 1
14 42 1
14 56 1
14 238 1
14 259 1
14 266 1
14 280 1
14 294 1
14 315 1
14 322 1
14 336 1
14 350 1
14 371 1
14 378 1
14 392 1
15 15 1
15 29 1
15 43 1
15 50 1
15 239 1
15 253 1
15 267 1
15 274 1
15 295 1
15 309 1
15 323 1
15 330 1
15 351 1
15 365 1
15 379 1
15 386 1
16 16 1
16 30 1
16 44 1
16 51 1
16 240 1
16 254 1
16 268 1
16 275 1
16 296 1
16 310 1
16 324 1
16 331 1
16 352 1
16 366 1
16 380 1
16 387 1
17 17 1
17 31 1
17 45 1
17 52 1
17 241 1
17 255 1
17 269 1
17 276 1
17 297 1
17 311 1
17 325 1
17 332 1
17 353 1
17 367 1
17 381 1
17 388 1
18 18 1
18 32 1
18 46 1
18 53 1
18 242 1
18 256 1
18 270 1
18 277 1
18 298 1
18 312 1
18 326 1
18 333 1
18 354 1
18 368 1
18 382 1
18 389 1
19 19 1
19 33 1
19 47 1
19 54 1
19 243 1
19 257 1
19 271 1
19 278 1
19 299 1
19 313 1
19 327 1
19 334 1
19 355 1
19 369 1
19 383 1
19 390 1
20 20 1
20 34 1
20 48 1
20 55 1
20 244 1
20 258 1
20 272 1
20 279 1
20 300 1
20 314 1
20 328 1
20 335 1
20 356 1
20 370 1
20 384 1
20 391 1
21 21 1
21 35 1
21 49 1
21 56 1
21 245 1
21 259 1
21 273 1
21 280 1
21 301 1
21 315 1
21 329 1
21 336 1
21 357 1
21 371 1
21 385 1
21 392 1
22 22 1
22 36 1
22 43 1
22 50 1
22 246 1
22 260 1
22 267 1
22 274 1
22 302 1
22 316 1
22 323 1
22 330 1
22 358 1
22 372 1
22 379 1
22 386 1
23 23 1
23 37 1
23 44 1
23 51 1
23 247 1
23 261 1
23 268 1
23 275 1
23 303 1
23 317 1
23 324 1
23 331 1
23 359 1
23 373 1
23 380 1
23 387 1
24 24 1
24 38 1
24 45 1
24 52 1
24 248 1
24 262 1
24 269 1
24 276 1
24 304 1
24 318 1
24 325 1
24 332 1
24 360 1
24 374 1
24 381 1
24 388 1
25 25 1
25 39 1
25 46 1
25 53 1
25 249 1
25 263 1
25 270 1
25 277 1
25 305 1
25 319 1
25 326 1
25 333 1
25 361 1
25 375 1
25 382 1
25 389 1
26 26 1
26 40 1
26 47 1
26 54 1
26 250 1
26 264 1
26 271 1
26 278 1
26 306 1
26 320 1
26 327 1
26 334 1
26 362 1
26 376 1
26 383 1
26 390 1
27 27 1
27 41 1
27 48 1
27 55 1
27 251 1
27 265 1
27 272 1
27 279 1
27 307 1
27 321 1
27 328 1
27 335 1
27 363 1
27 377 1
27 384 1
27 391 1
28 28 1
28 42 1
28 49 1
28 56 1
28 252 1
28 266 1
28 273 1
28 280 1
28 308 1
28 322 1
28 329 1
28 336 1
28 364 1
28 378 1
28 385 1
28 392 1
29 57 1
29 85 1
29 92 1
29 99 1
29 225 1
29 253 1
29 260 1
29 267 1
29 281 1
29 309 1
29 316 1
29 323 1
29 393 1
29 421 1
29 428 1
29 435 1
30 58 1
30 86 1
30 93 1
30 100 1
30 226 1
30 254 1
30 261 1
30 268 1
30 282 1
30 310 1
30 317 1
30 324 1
30 394 1
30 422 1
30 429 1
30 436 1
31 59 1
31 87 1
31 94 1
31 101 1
31 227 1
31 255 1
31 262 1
31 269 1
31 283 1
31 311 1
31 318 1
31 325 1
31 395 1
31 423 1
31 430 1
31 437 1
32 60 1
32 88 1
32 95 1
32 102 1
32 228 1
32 256 1
32 263 1
32 270 1
32 284 1
32 312 1
32 319 1
32 326 1
32 396 1
32 424 1
32 431 1
32 438 1
33 61 1
33 89 1
33 96 1
33 103 1
33 229 1
33 257 1
33 264 1
33 271 1
33 285 1
33 313 1
33 320 1
33 327 1
33 397 1
33 425 1
33 432 1
33 439 1
34 62 1
34 90 1
34 97 1
34 104 1
34 230 1
34 258 1
34 265 1
34 272 1
34 286 1
34 314 1
34 321 1
34 328 1
34 398 1
34 426 1
34 433 1
34 440 1
35 63 1
35 91 1
35 98 1
35 105 1
35 231 1
35 259 1
35 266 1
35 273 1
35 287 1
35 315 1
35 322 1
35 329 1
35 399 1
35 427 1
35 434 1
35 441 1
36 64 1
36 85 1
36 92 1
36 106 1
36 232 1
36 253 1
36 260 1
36 274 1
36 288 1
36 309 1
36 316 1
36 330 1
36 400 1
36 421 1
36 428 1
36 442 1
37 65 1
37 86 1
37 93 1
37 107 1
37 233 1
37 254 1
37 261 1
37 275 1
37 289 1
37 310 1
37 317 1
37 331 1
37 401 1
37 422 1
37 429 1
37 443 1
38 66 1
38 87 1
38 94 1
38 108 1
38 234 1
38 255 1
38 262 1
38 276 1
38 290 1
38 311 1
38 318 1
38 332 1
38 402 1
38 423 1
38 430 1
38 444 1
39 67 1
39 88 1
39 95 1
39 109 1
39 235 1
39 256 1
39 263 1
39 277 1
39 291 1
39 312 1
39 319 1
39 333 1
39 403 1
39 424 1
39 431 1
39 445 1
40 68 1
40 89 1
40 96 1
40 110 1
40 236 1
40 257 1
40 264 1
40 278 1
40 292 1
40 313 1
40 320 1
40 334 1
40 404 1
40 425 1
40 432 1
40 446 1
41 69 1
41 90 1
41 97 1
41 111 1
41 237 1
41 258 1
41 265 1
41 279 1
41 293 1
41 314 1
41 321 1
41 335 1
41 405 1
41 426 1
41 433 1
41 447 1
42 70 1
42 91 1
42 98 1
42 112 1
42 238 1
42 259 1
42 266 1
42 280 1
42 294 1
42 315 1
42 322 1
42 336 1
42 406 1
42 427 1
42 434 1
42 448 1
43 71 1
43 85 1
43 99 1
43 106 1
43 239 1
43 253 1
43 267 1
43 274 1
43 295 1
43 309 1
43 323 1
43 330 1
43 407 1
43 421 1
43 435 1
43 442 1
44 72 1
44 86 1
44 100 1
44 107 1
44 240 1
44 254 1
44 268 1
44 275 1
44 296 1
44 310 1
44 324 1
44 331 1
44 408 1
44 422 1
44 436 1
44 443 1
45 73 1
45 87 1
45 101 1
45 108 1
45 241 1
45 255 1
45 269 1
45 276 1
45 297 1
45 311 1
45 325 1
45 332 1
45 409 1
45 423 1
45 437 1
45 444 1
46 74 1
46 88 1
46 102 1
46 109 1
46 242 1
46 256 1
46 270 1
46 277 1
46 298 1
46 312 1
46 326 1
46 333 1
46 410 1
46 424 1
46 438 1
46 445 1
47 75 1
47 89 1
47 103 1
47 110 1
47 243 1
47 257 1
47 271 1
47 278 1
47 299 1
47 313 1
47 327 1
47 334 1
47 411 1
47 425 1
47 439 1
47 446 1
48 76 1
48 90 1
48 104 1
48 111 1
48 244 1
48 258 1
48 272 1
48 279 1
48 300 1
48 314 1
48 328 1
48 335 1
48 412 1
48 426 1
48 440 1
48 447 1
49 77 1
49 91 1
49 105 1
49 112 1
49 245 1
49 259 1
49 273 1
49 280 1
49 301 1
49 315 1
49 329 1
49 336 1
49 413 1
49 427 1
49 441 1
49 448 1
50 78 1
50 92 1
50 99 1
50 106 1
50 246 1
50 260 1
50 267 1
50 274 1
50 302 1
50 316 1
50 323 1
50 330 1
50 414 1
50 428 1
50 435 1
50 442 1
51 79 1
51 93 1
51 100 1
51 107 1
51 247 1
51 261 1
51 268 1
51 275 1
51 303 1
51 317 1
51 324 1
51 331 1
51 415 1
51 429 1
51 436 1
51 443 1
52 80 1
52 94 1
52 101 1
52 108 1
52 248 1
52 262 1
52 269 1
52 276 1
52 304 1
52 318 1
52 325 1
52 332 1
52 416 1
52 430 1
52 437 1
52 444 1
53 81 1
53 95 1
53 102 1
53 109 1
53 249 1
53 263 1
53 270 1
53 277 1
53 305 1
53 319 1
53 326 1
53 333 1
53 417 1
53 431 1
53 438 1
53 445 1
54 82 1
54 96 1
54 103 1
54 110 1
54 250 1
54 264 1
54 271 1
54 278 1
54 306 1
54 320 1
54 327 1
54 334 1
54 418 1
54 432 1
54 439 1
54 446 1
55 83 1
55 97 1
55 104 1
55 111 1
55 251 1
55 265 1
55 272 1
55 279 1
55 307 1
55 321 1
55 328 1
55 335 1
55 419 1
55 433 1
55 440 1
55 447 1
56 84 1
56 98 1
56 105 1
56 112 1
56 252 1
56 266 1
56 273 1
56 280 1
56 308 1
56 322 1
56 329 1
56 336 1
56 420 1
56 434 1
56 441 1
56 448 1
57 113 1
57 141 1
57 148 1
57 155 1
57 225 1
57 253 1
57 260 1
57 267 1
57 337 1
57 365 1
57 372 1
57 379 1
57 393 1
57 421 1
57 428 1
57 435 1
58 114 1
58 142 1
58 149 1
58 156 1
58 226 1
58 254 1
58 261 1
58 268 1
58 338 1
58 366 1
58 373 1
58 380 1
58 394 1
58 422 1
58 429 1
58 436 1
59 115 1
59 143 1
59 150 1
59 157 1
59 227 1
59 255 1
59 262 1
59 269 1
59 339 1
59 367 1
59 374 1
59 381 1
59 395 1
59 423 1
59 430 1
59 437 1
60 116 1
60 144 1
60 151 1
60 158 1
60 228 1
60 256 1
60 263 1
60 270 1
60 340 1
60 368 1
60 375 1
60 382 1
60 396 1
60 424 1
60 431 1
60 438 1
61 117 1
61 145 1
61 152 1
61 159 1
61 229 1
61 257 1
61 264 1
61 271 1
61 341 1
61 369 1
61 376 1
61 383 1
61 397 1
61 425 1
61 432 1
61 439 1
62 118 1
62 146 1
62 153 1
62 160 1
62 230 1
62 258 1
62 265 1
62 272 1
62 342 1
62 370 1
62 377 1
62 384 1
62 398 1
62 426 1
62 433 1
62 440 1
63 119 1
63 147 1
63 154 1
63 161 1
63 231 1
63 259 1
63 266 1
63 273 1
63 343 1
63 371 1
63 378 1
63 385 1
63 399 1
63 427 1
63 434 1
63 441 1
64 120 1
64 141 1
64 148 1
64 162 1
64 232 1
64 253 1
64 260 1
64 274 1
64 344 1
64 365 1
64 372 1
64 386 1
64 400 1
64 421 1
64 428 1
64 442 1
65 121 1
65 142 1
65 149 1
65 163 1
65 233 1
65 254 1
65 261 1
65 275 1
65 345 1
65 366 1
65 373 1
65 387 1
65 401 1
65 422 1
65 429 1
65 443 1
66 122 1
66 143 1
66 150 1
66 164 1
66 234 1
66 255 1
66 262 1
66 276 1
66 346 1
66 367 1
66 374 1
66 388 1
66 402 1
66 423 1
66 430 1
66 444 1
67 123 1
67 144 1
67 151 1
67 165 1
67 235 1
67 256 1
67 263 1
67 277 1
67 347 1
67 368 1
67 375 1
67 389 1
67 403 1
67 424 1
67 431 1
67 445 1
68 124 1
68 145 1
68 152 1
68 166 1
68 236 1
68 257 1
68 264 1
68 278 1
68 348 1
68 369 1
68 376 1
68 390 1
68 404 1
68 425 1
68 432 1
68 446 1
69 125 1
69 146 1
69 153 1
69 167 1
69 237 1
69 258 1
69 265 1
69 279 1
69 349 1
69 370 1
69 377 1
69 391 1
69 405 1
69 426 1
69 433 1
69 447 1
70 126 1
70 147 1
70 154 1
70 168 1
70 238 1
70 259 1
70 266 1
70 280 1
70 350 1
70 371 1
70 378 1
70 392 1
70 406 1
70 427 1
70 434 1
70 448 1
71 127 1
71 141 1
71 155 1
71 162 1
71 239 1
71 253 1
71 267 1
71 274 1
71 351 1
71 365 1
71 379 1
71 386 1
71 407 1
71 421 1
71 435 1
71 442 1
72 128 1
72 142 1
72 156 1
72 163 1
72 240 1
72 254 1
72 268 1
72 275 1
72 352 1
72 366 1
72 380 1
72 387 1
72 408 1
72 422 1
72 436 1
72 443 1
73 129 1
73 143 1
73 157 1
73 164 1
73 241 1
73 255 1
73 269 1
73 276 1
73 353 1
73 367 1
73 381 1
73 388 1
73 409 1
73 423 1
73 437 1
73 444 1
74 130 1
74 144 1
74 158 1
74 165 1
74 242 1
74 256 1
74 270 1
74 277 1
74 354 1
74 368 1
74 382 1
74 389 1
74 410 1
74 424 1
74 438 1
74 445 1
75 131 1
75 145 1
75 159 1
75 166 1
75 243 1
75 257 1
75 271 1
75 278 1
75 355 1
75 369 1
75 383 1
75 390 1
75 411 1
75 425 1
75 439 1
75 446 1
76 132 1
76 146 1
76 160 1
76 167 1
76 244 1
76 258 1
76 272 1
76 279 1
76 356 1
76 370 1
76 384 1
76 391 1
76 412 1
76 426 1
76 440 1
76 447 1
77 133 1
77 147 1
77 161 1
77 168 1
77 245 1
77 259 1
77 273 1
77 280 1
77 357 1
77 371 1
77 385 1
77 392 1
77 413 1
77 427 1
77 441 1
77 448 1
78 134 1
78 148 1
78 155 1
78 162 1
78 246 1
78 260 1
78 267 1
78 274 1
78 358 1
78 372 1
78 379 1
78 386 1
78 414 1
78 428 1
78 435 1
78 442 1
79 135 1
79 149 1
79 156 1
79 163 1
79 247 1
79 261 1
79 268 1
79 275 1
79 359 1
79 373 1
79 380 1
79 387 1
79 415 1
79 429 1
79 436 1
79 443 1
80 136 1
80 150 1
80 157 1
80 164 1
80 248 1
80 262 1
80 269 1
80 276 1
80 360 1
80 374 1
80 381 1
80 388 1
80 416 1
80 430 1
80 437 1
80 444 1
81 137 1
81 151 1
81 158 1
81 165 1
81 249 1
81 263 1
81 270 1
81 277 1
81 361 1
81 375 1
81 382 1
81 389 1
81 417 1
81 431 1
81 438 1
81 445 1
82 138 1
82 152 1
82 159 1
82 166 1
82 250 1
82 264 1
82 271 1
82 278 1
82 362 1
82 376 1
82 383 1
82 390 1
82 418 1
82 432 1
82 439 1
82 446 1
83 139 1
83 153 1
83 160 1
83 167 1
83 251 1
83 265 1
83 272 1
83 279 1
83 363 1
83 377 1
83 384 1
83 391 1
83 419 1
83 433 1
83 440 1
83 447 1
84 140 1
84 154 1
84 161 1
84 168 1
84 252 1
84 266 1
84 273 1
84 280 1
84 364 1
84 378 1
84 385 1
84 392 1
84 420 1
84 434 1
84 441 1
84 448 1
85 169 1
85 197 1
85 204 1
85 211 1
85 281 1
85 309 1
85 316 1
85 323 1
85 337 1
85 365 1
85 372 1
85 379 1
85 393 1
85 421 1
85 428 1
85 435 1
86 170 1
86 198 1
86 205 1
86 212 1
86 282 1
86 310 1
86 317 1
86 324 1
86 338 1
86 366 1
86 373 1
86 380 1
86 394 1
86 422 1
86 429 1
86 436 1
87 171 1
87 199 1
87 206 1
87 213 1
87 283 1
87 311 1
87 318 1
87 325 1
87 339 1
87 367 1
87 374 1
87 381 1
87 395 1
87 423 1
87 430 1
87 437 1
88 172 1
88 200 1
88 207 1
88 214 1
88 284 1
88 312 1
88 319 1
88 326 1
88 340 1
88 368 1
88 375 1
88 382 1
88 396 1
88 424 1
88 431 1
88 438 1
89 173 1
89 201 1
89 208 1
89 215 1
89 285 1
89 313 1
89 320 1
89 327 1
89 341 1
89 369 1
89 376 1
89 383 1
89 397 1
89 425 1
89 432 1
89 439 1
90 174 1
90 202 1
90 209 1
90 216 1
90 286 1
90 314 1
90 321 1
90 328 1
90 342 1
90 370 1
90 377 1
90 384 1
90 398 1
90 426 1
90 433 1
90 440 1
91 175 1
91 203 1
91 210 1
91 217 1
91 287 1
91 315 1
91 322 1
91 329 1
91 343 1
91 371 1
91 378 1
91 385 1
91 399 1
91 427 1
91 434 1
91 441 1
92 176 1
92 197 1
92 204 1
92 218 1
92 288 1
92 309 1
92 316 1
92 330 1
92 344 1
92 365 1
92 372 1
92 386 1
92 400 1
92 421 1
92 428 1
92 442 1
93 177 1
93 198 1
93 205 1
93 219 1
93 289 1
93 310 1
93 317 1
93 331 1
93 345 1
93 366 1
93 373 1
93 387 1
93 401 1
93 422 1
93 429 1
93 443 1
94 178 1
94 199 1
94 206 1
94 220 1
94 290 1
94 311 1
94 318 1
94 332 1
94 346 1
94 367 1
94 374 1
94 388 1
94 402 1
94 423 1
94 430 1
94 444 1
95 179 1
95 200 1
95 207 1
95 221 1
95 291 1
95 312 1
95 319 1
95 333 1
95 347 1
95 368 1
95 375 1
95 389 1
95 403 1
95 424 1
95 431 1
95 445 1
96 180 1
96 201 1
96 208 1
96 222 1
96 292 1
96 313 1
96 320 1
96 334 1
96 348 1
96 369 1
96 376 1
96 390 1
96 404 1
96 425 1
96 432 1
96 446 1
97 181 1
97 202 1
97 209 1
97 223 1
97 293 1
97 314 1
97 321 1
97 335 1
97 349 1
97 370 1
97 377 1
97 391 1
97 405 1
97 426 1
97 433 1
97 447 1
98 182 1
98 203 1
98 210 1
98 224 1
98 294 1
98 315 1
98 322 1
98 336 1
98 350 1
98 371 1
98 378 1
98 392 1
98 406 1
98 427 1
98 434 1
98 448 1
99 183 1
99 197 1
99 211 1
99 218 1
99 295 1
99 309 1
99 323 1
99 330 1
99 351 1
99 365 1
99 379 1
99 386 1
99 407 1
99 421 1
99 435 1
99 442 1
100 184 1
100 198 1
100 212 1
100 219 1
100 296 1
100 310 1
100 324 1
100 331 1
100 352 1
100 366 1
100 380 1
100 387 1
100 408 1
100 422 1
100 436 1
100 443 1
101 185 1
101 199 1
101 213 1
101 220 1
101 297 1
101 311 1
101 325 1
101 332 1
101 353 1
101 367 1
101 381 1
101 388 1
101 409 1
101 423 1
101 437 1
101 444 1
102 186 1
102 200 1
102 214 1
102 221 1
102 298 1
102 312 1
102 326 1
102 333 1
102 354 1
102 368 1
102 382 1
102 389 1
102 410 1
102 424 1
102 438 1
102 445 1
103 187 1
103 201 1
103 215 1
103 222 1
103 299 1
103 313 1
103 327 1
103 334 1
103 355 1
103 369 1
103 383 1
103 390 1
103 411 1
103 425 1
103 439 1
103 446 1
104 188 1
104 202 1
104 216 1
104 223 1
104 300 1
104 314 1
104 328 1
104 335 1
104 356 1
104 370 1
104 384 1
104 391 1
104 412 1
104 426 1
104 440 1
104 447 1
105 189 1
105 203 1
105 217 1
105 224 1
105 301 1
105 315 1
105 329 1
105 336 1
105 357 1
105 371 1
105 385 1
105 392 1
105 413 1
105 427 1
105 441 1
105 448 1
106 190 1
106 204 1
106 211 1
106 218 1
106 302 1
106 316 1
106 323 1
106 330 1
106 358 1
106 372 1
106 379 1
106 386 1
106 414 1
106 428 1
106 435 1
106 442 1
107 191 1
107 205 1
107 212 1
107 219 1
107 303 1
107 317 1
107 324 1
107 331 1
107 359 1
107 373 1
107 380 1
107 387 1
107 415 1
107 429 1
107 436 1
107 443 1
108 192 1
108 206 1
108 213 1
108 220 1
108 304 1
108 318 1
108 325 1
108 332 1
108 360 1
108 374 1
108 381 1
108 388 1
108 416 1
108 430 1
108 437 1
108 444 1
109 193 1
109 207 1
109 214 1
109 221 1
109 305 1
109 319 1
109 326 1
109 333 1
109 361 1
109 375 1
109 382 1
109 389 1
109 417 1
109 431 1
109 438 1
109 445 1
110 194 1
110 208 1
110 215 1
110 222 1
110 306 1
110 320 1
110 327 1
110 334 1
110 362 1
110 376 1
110 383 1
110 390 1
110 418 1
110 432 1
110 439 1
110 446 1
111 195 1
111 209 1
111 216 1
111 223 1
111 307 1
111 321 1
111 328 1
111 335 1
111 363 1
111 377 1
111 384 1
111 391 1
111 419 1
111 433 1
111 440 1
111 447 1
112 196 1
112 210 1
112 217 1
112 224 1
112 308 1
112 322 1
112 329 1
112 336 1
112 364 1
112 378 1
112 385 1
112 392 1
112 420 1
112 434 1
112 441 1
112 448 1
113 1 1
113 35 1
113 41 1
113 53 1
113 228 1
113 255 1
113 261 1
113 280 1
113 286 1
113 313 1
113 319 1
113 331 1
113 342 1
113 369 1
113 375 1
113 387 1
114 2 1
114 29 1
114 42 1
114 54 1
114 229 1
114 256 1
114 262 1
114 274 1
114 287 1
114 314 1
114 320 1
114 332 1
114 343 1
114 370 1
114 376 1
114 388 1
115 3 1
115 30 1
115 36 1
115 55 1
115 230 1
115 257 1
115 263 1
115 275 1
115 281 1
115 315 1
115 321 1
115 333 1
115 337 1
115 371 1
115 377 1
115 389 1
116 4 1
116 31 1
116 37 1
116 56 1
116 231 1
116 258 1
116 264 1
116 276 1
116 282 1
116 309 1
116 322 1
116 334 1
116 338 1
116 365 1
116 378 1
116 390 1
117 5 1
117 32 1
117 38 1
117 50 1
117 225 1
117 259 1
117 265 1
117 277 1
117 283 1
117 310 1
117 316 1
117 335 1
117 339 1
117 366 1
117 372 1
117 391 1
118 6 1
118 33 1
118 39 1
118 51 1
118 226 1
118 253 1
118 266 1
118 278 1
118 284 1
118 311 1
118 317 1
118 336 1
118 340 1
118 367 1
118 373 1
118 392 1
119 7 1
119 34 1
119 40 1
119 52 1
119 227 1
119 254 1
119 260 1
119 279 1
119 285 1
119 312 1
119 318 1
119 330 1
119 341 1
119 368 1
119 374 1
119 386 1
120 8 1
120 35 1
120 46 1
120 53 1
120 235 1
120 255 1
120 273 1
120 280 1
120 293 1
120 313 1
120 324 1
120 331 1
120 349 1
120 369 1
120 380 1
120 387 1
121 9 1
121 29 1
121 47 1
121 54 1
121 236 1
121 256 1
121 267 1
121 274 1
121 294 1
121 314 1
121 325 1
121 332 1
121 350 1
121 370 1
121 381 1
121 388 1
122 10 1
122 30 1
122 48 1
122 55 1
122 237 1
122 257 1
122 268 1
122 275 1
122 288 1
122 315 1
122 326 1
122 333 1
122 344 1
122 371 1
122 382 1
122 389 1
123 11 1
123 31 1
123 49 1
123 56 1
123 238 1
123 258 1
123 269 1
123 276 1
123 289 1
123 309 1
123 327 1
123 334 1
123 345 1
123 365 1
123 383 1
123 390 1
124 12 1
124 32 1
124 43 1
124 50 1
124 232 1
124 259 1
124 270 1
124 277 1
124 290 1
124 310 1
124 328 1
124 335 1
124 346 1
124 366 1
124 384 1
124 391 1
125 13 1
125 33 1
125 44 1
125 51 1
125 233 1
125 253 1
125 271 1
125 278 1
125 291 1
125 311 1
125 329 1
125 336 1
125 347 1
125 367 1
125 385 1
125 392 1
126 14 1
126 34 1
126 45 1
126 52 1
126 234 1
126 254 1
126 272 1
126 279 1
126 292 1
126 312 1
126 323 1
126 330 1
126 348 1
126 368 1
126 379 1
126 386 1
127 15 1
127 41 1
127 46 1
127 53 1
127 242 1
127 261 1
127 273 1
127 280 1
127 300 1
127 319 1
127 324 1
127 331 1
127 356 1
127 375 1
127 380 1
127 387 1
128 16 1
128 42 1
128 47 1
128 54 1
128 243 1
128 262 1
128 267 1
128 274 1
128 301 1
128 320 1
128 325 1
128 332 1
128 357 1
128 376 1
128 381 1
128 388 1
129 17 1
129 36 1
129 48 1
129 55 1
129 244 1
129 263 1
129 268 1
129 275 1
129 295 1
129 321 1
129 326 1
129 333 1
129 351 1
129 377 1
129 382 1
129 389 1
130 18 1
130 37 1
130 49 1
130 56 1
130 245 1
130 264 1
130 269 1
130 276 1
130 296 1
130 322 1
130 327 1
130 334 1
130 352 1
130 378 1
130 383 1
130 390 1
131 19 1
131 38 1
131 43 1
131 50 1
131 239 1
131 265 1
131 270 1
131 277 1
131 297 1
131 316 1
131 328 1
131 335 1
131 353 1
131 372 1
131 384 1
131 391 1
132 20 1
132 39 1
132 44 1
132 51 1
132 240 1
132 266 1
132 271 1
132 278 1
132 298 1
132 317 1
132 329 1
132 336 1
132 354 1
132 373 1
132 385 1
132 392 1
133 21 1
133 40 1
133 45 1
133 52 1
133 241 1
133 260 1
133 272 1
133 279 1
133 299 1
133 318 1
133 323 1
133 330 1
133 355 1
133 374 1
133 379 1
133 386 1
134 28 1
134 35 1
134 41 1
134 46 1
134 248 1
134 255 1
134 261 1
134 273 1
134 306 1
134 313 1
134 319 1
134 324 1
134 362 1
134 369 1
134 375 1
134 380 1
135 22 1
135 29 1
135 42 1
135 47 1
135 249 1
135 256 1
135 262 1
135 267 1
135 307 1
135 314 1
135 320 1
135 325 1
135 363 1
135 370 1
135 376 1
135 381 1
136 23 1
136 30 1
136 36 1
136 48 1
136 250 1
136 257 1
136 263 1
136 268 1
136 308 1
136 315 1
136 321 1
136 326 1
136 364 1
136 371 1
136 377 1
136 382 1
137 24 1
137 31 1
137 37 1
137 49 1
137 251 1
137 258 1
137 264 1
137 269 1
137 302 1
137 309 1
137 322 1
137 327 1
137 358 1
137 365 1
137 378 1
137 383 1
138 25 1
138 32 1
138 38 1
138 43 1
138 252 1
138 259 1
138 265 1
138 270 1
138 303 1
138 310 1
138 316 1
138 328 1
138 359 1
138 366 1
138 372 1
138 384 1
139 26 1
139 33 1
139 39 1
139 44 1
139 246 1
139 253 1
139 266 1
139 271 1
139 304 1
139 311 1
139 317 1
139 329 1
139 360 1
139 367 1
139 373 1
139 385 1
140 27 1
140 34 1
140 40 1
140 45 1
140 247 1
140 254 1
140 260 1
140 272 1
140 305 1
140 312 1
140 318 1
140 323 1
140 361 1
140 368 1
140 374 1
140 379 1
141 57 1
141 91 1
141 97 1
141 109 1
141 228 1
141 255 1
141 261 1
141 280 1
141 286 1
141 313 1
141 319 1
141 331 1
141 399 1
141 426 1
141 432 1
141 444 1
142 58 1
142 85 1
142 98 1
142 110 1
142 229 1
142 256 1
142 262 1
142 274 1
142 287 1
142 314 1
142 320 1
142 332 1
142 393 1
142 427 1
142 433 1
142 445 1
143 59 1
143 86 1
143 92 1
143 111 1
143 230 1
143 257 1
143 263 1
143 275 1
143 281 1
143 315 1
143 321 1
143 333 1
143 394 1
143 421 1
143 434 1
143 446 1
144 60 1
144 87 1
144 93 1
144 112 1
144 231 1
144 258 1
144 264 1
144 276 1
144 282 1
144 309 1
144 322 1
144 334 1
144 395 1
144 422 1
144 428 1
144 447 1
145 61 1
145 88 1
145 94 1
145 106 1
145 225 1
145 259 1
145 265 1
145 277 1
145 283 1
145 310 1
145 316 1
145 335 1
145 396 1
145 423 1
145 429 1
145 448 1
146 62 1
146 89 1
146 95 1
146 107 1
146 226 1
146 253 1
146 266 1
146 278 1
146 284 1
146 311 1
146 317 1
146 336 1
146 397 1
146 424 1
146 430 1
146 442 1
147 63 1
147 90 1
147 96 1
147 108 1
147 227 1
147 254 1
147 260 1
147 279 1
147 285 1
147 312 1
147 318 1
147 330 1
147 398 1
147 425 1
147 431 1
147 443 1
148 64 1
148 91 1
148 102 1
148 109 1
148 235 1
148 255 1
148 273 1
148 280 1
148 293 1
148 313 1
148 324 1
148 331 1
148 406 1
148 426 1
148 437 1
148 444 1
149 65 1
149 85 1
149 103 1
149 110 1
149 236 1
149 256 1
149 267 1
149 274 1
149 294 1
149 314 1
149 325 1
149 332 1
149 400 1
149 427 1
149 438 1
149 445 1
150 66 1
150 86 1
150 104 1
150 111 1
150 237 1
150 257 1
150 268 1
150 275 1
150 288 1
150 315 1
150 326 1
150 333 1
150 401 1
150 421 1
150 439 1
150 446 1
151 67 1
151 87 1
151 105 1
151 112 1
151 238 1
151 258 1
151 269 1
151 276 1
151 289 1
151 309 1
151 327 1
151 334 1
151 402 1
151 422 1
151 440 1
151 447 1
152 68 1
152 88 1
152 99 1
152 106 1
152 232 1
152 259 1
152 270 1
152 277 1
152 290 1
152 310 1
152 328 1
152 335 1
152 403 1
152 423 1
152 441 1
152 448 1
153 69 1
153 89 1
153 100 1
153 107 1
153 233 1
153 253 1
153 271 1
153 278 1
153 291 1
153 311 1
153 329 1
153 336 1
153 404 1
153 424 1
153 435 1
153 442 1
154 70 1
154 90 1
154 101 1
154 108 1
154 234 1
154 254 1
154 272 1
154 279 1
154 292 1
154 312 1
154 323 1
154 330 1
154 405 1
154 425 1
154 436 1
154 443 1
155 71 1
155 97 1
155 102 1
155 109 1
155 242 1
155 261 1
155 273 1
155 280 1
155 300 1
155 319 1
155 324 1
155 331 1
155 413 1
155 432 1
155 437 1
155 444 1
156 72 1
156 98 1
156 103 1
156 110 1
156 243 1
156 262 1
156 267 1
156 274 1
156 301 1
156 320 1
156 325 1
156 332 1
156 407 1
156 433 1
156 438 1
156 445 1
157 73 1
157 92 1
157 104 1
157 111 1
157 244 1
157 263 1
157 268 1
157 275 1
157 295 1
157 321 1
157 326 1
157 333 1
157 408 1
157 434 1
157 439 1
157 446 1
158 74 1
158 93 1
158 105 1
158 112 1
158 245 1
158 264 1
158 269 1
158 276 1
158 296 1
158 322 1
158 327 1
158 334 1
158 409 1
158 428 1
158 440 1
158 447 1
159 75 1
159 94 1
159 99 1
159 106 1
159 239 1
159 265 1
159 270 1
159 277 1
159 297 1
159 316 1
159 328 1
159 335 1
159 410 1
159 429 1
159 441 1
159 448 1
160 76 1
160 95 1
160 100 1
160 107 1
160 240 1
160 266 1
160 271 1
160 278 1
160 298 1
160 317 1
160 329 1
160 336 1
160 411 1
160 430 1
160 435 1
160 442 1
161 77 1
161 96 1
161 101 1
161 108 1
161 241 1
161 260 1
161 272 1
161 279 1
161 299 1
161 318 1
161 323 1
161 330 1
161 412 1
161 431 1
161 436 1
161 443 1
162 84 1
162 91 1
162 97 1
162 102 1
162 248 1
162 255 1
162 261 1
162 273 1
162 306 1
162 313 1
162 319 1
162 324 1
162 419 1
162 426 1
162 432 1
162 437 1
163 78 1
163 85 1
163 98 1
163 103 1
163 249 1
163 256 1
163 262 1
163 267 1
163 307 1
163 314 1
163 320 1
163 325 1
163 420 1
163 427 1
163 433 1
163 438 1
164 79 1
164 86 1
164 92 1
164 104 1
164 250 1
164 257 1
164 263 1
164 268 1
164 308 1
164 315 1
164 321 1
164 326 1
164 414 1
164 421 1
164 434 1
164 439 1
165 80 1
165 87 1
165 93 1
165 105 1
165 251 1
165 258 1
165 264 1
165 269 1
165 302 1
165 309 1
165 322 1
165 327 1
165 415 1
165 422 1
165 428 1
165 440 1
166 81 1
166 88 1
166 94 1
166 99 1
166 252 1
166 259 1
166 265 1
166 270 1
166 303 1
166 310 1
166 316 1
166 328 1
166 416 1
166 423 1
166 429 1
166 441 1
167 82 1
167 89 1
167 95 1
167 100 1
167 246 1
167 253 1
167 266 1
167 271 1
167 304 1
167 311 1
167 317 1
167 329 1
167 417 1
167 424 1
167 430 1
167 435 1
168 83 1
168 90 1
168 96 1
168 101 1
168 247 1
168 254 1
168 260 1
168 272 1
168 305 1
168 312 1
168 318 1
168 323 1
168 418 1
168 425 1
168 431 1
168 436 1
169 114 1
169 141 1
169 154 1
169 166 1
169 228 1
169 255 1
169 261 1
169 280 1
169 342 1
169 369 1
169 375 1
169 387 1
169 399 1
169 426 1
169 432 1
169 444 1
170 115 1
170 142 1
170 148 1
170 167 1
170 229 1
170 256 1
170 262 1
170 274 1
170 343 1
170 370 1
170 376 1
170 388 1
170 393 1
170 427 1
170 433 1
170 445 1
171 116 1
171 143 1
171 149 1
171 168 1
171 230 1
171 257 1
171 263 1
171 275 1
171 337 1
171 371 1
171 377 1
171 389 1
171 394 1
171 421 1
171 434 1
171 446 1
172 117 1
172 144 1
172 150 1
172 162 1
172 231 1
172 258 1
172 264 1
172 276 1
172 338 1
172 365 1
172 378 1
172 390 1
172 395 1
172 422 1
172 428 1
172 447 1
173 118 1
173 145 1
173 151 1
173 163 1
173 225 1
173 259 1
173 265 1
173 277 1
173 339 1
173 366 1
173 372 1
173 391 1
173 396 1
173 423 1
173 429 1
173 448 1
174 119 1
174 146 1
174 152 1
174 164 1
174 226 1
174 253 1
174 266 1
174 278 1
174 340 1
174 367 1
174 373 1
174 392 1
174 397 1
174 424 1
174 430 1
174 442 1
175 113 1
175 147 1
175 153 1
175 165 1
175 227 1
175 254 1
175 260 1
175 279 1
175 341 1
175 368 1
175 374 1
175 386 1
175 398 1
175 425 1
175 431 1
175 443 1
176 121 1
176 141 1
176 159 1
176 166 1
176 235 1
176 255 1
176 273 1
176 280 1
176 349 1
176 369 1
176 380 1
176 387 1
176 406 1
176 426 1
176 437 1
176 444 1
177 122 1
177 142 1
177 160 1
177 167 1
177 236 1
177 256 1
177 267 1
177 274 1
177 350 1
177 370 1
177 381 1
177 388 1
177 400 1
177 427 1
177 438 1
177 445 1
178 123 1
178 143 1
178 161 1
178 168 1
178 237 1
178 257 1
178 268 1
178 275 1
178 344 1
178 371 1
178 382 1
178 389 1
178 401 1
178 421 1
178 439 1
178 446 1
179 124 1
179 144 1
179 155 1
179 162 1
179 238 1
179 258 1
179 269 1
179 276 1
179 345 1
179 365 1
179 383 1
179 390 1
179 402 1
179 422 1
179 440 1
179 447 1
180 125 1
180 145 1
180 156 1
180 163 1
180 232 1
180 259 1
180 270 1
180 277 1
180 346 1
180 366 1
180 384 1
180 391 1
180 403 1
180 423 1
180 441 1
180 448 1
181 126 1
181 146 1
181 157 1
181 164 1
181 233 1
181 253 1
181 271 1
181 278 1
181 347 1
181 367 1
181 385 1
181 392 1
181 404 1
181 424 1
181 435 1
181 442 1
182 120 1
182 147 1
182 158 1
182 165 1
182 234 1
182 254 1
182 272 1
182 279 1
182 348 1
182 368 1
182 379 1
182 386 1
182 405 1
182 425 1
182 436 1
182 443 1
183 128 1
183 154 1
183 159 1
183 166 1
183 242 1
183 261 1
183 273 1
183 280 1
183 356 1
183 375 1
183 380 1
183 387 1
183 413 1
183 432 1
183 437 1
183 444 1
184 129 1
184 148 1
184 160 1
184 167 1
184 243 1
184 262 1
184 267 1
184 274 1
184 357 1
184 376 1
184 381 1
184 388 1
184 407 1
184 433 1
184 438 1
184 445 1
185 130 1
185 149 1
185 161 1
185 168 1
185 244 1
185 263 1
185 268 1
185 275 1
185 351 1
185 377 1
185 382 1
185 389 1
185 408 1
185 434 1
185 439 1
185 446 1
186 131 1
186 150 1
186 155 1
186 162 1
186 245 1
186 264 1
186 269 1
186 276 1
186 352 1
186 378 1
186 383 1
186 390 1
186 409 1
186 428 1
186 440 1
186 447 1
187 132 1
187 151 1
187 156 1
187 163 1
187 239 1
187 265 1
187 270 1
187 277 1
187 353 1
187 372 1
187 384 1
187 391 1
187 410 1
187 429 1
187 441 1
187 448 1
188 133 1
188 152 1
188 157 1
188 164 1
188 240 1
188 266 1
188 271 1
188 278 1
188 354 1
188 373 1
188 385 1
188 392 1
188 411 1
188 430 1
188 435 1
188 442 1
189 127 1
189 153 1
189 158 1
189 165 1
189 241 1
189 260 1
189 272 1
189 279 1
189 355 1
189 374 1
189 379 1
189 386 1
189 412 1
189 431 1
189 436 1
189 443 1
190 134 1
190 141 1
190 154 1
190 159 1
190 248 1
190 255 1
190 261 1
190 273 1
190 362 1
190 369 1
190 375 1
190 380 1
190 419 1
190 426 1
190 432 1
190 437 1
191 135 1
191 142 1
191 148 1
191 160 1
191 249 1
191 256 1
191 262 1
191 267 1
191 363 1
191 370 1
191 376 1
191 381 1
191 420 1
191 427 1
191 433 1
191 438 1
192 136 1
192 143 1
192 149 1
192 161 1
192 250 1
192 257 1
192 263 1
192 268 1
192 364 1
192 371 1
192 377 1
192 382 1
192 414 1
192 421 1
192 434 1
192 439 1
193 137 1
193 144 1
193 150 1
193 155 1
193 251 1
193 258 1
193 264 1
193 269 1
193 358 1
193 365 1
193 378 1
193 383 1
193 415 1
193 422 1
193 428 1
193 440 1
194 138 1
194 145 1
194 151 1
194 156 1
194 252 1
194 259 1
194 265 1
194 270 1
194 359 1
194 366 1
194 372 1
194 384 1
194 416 1
194 423 1
194 429 1
194 441 1
195 139 1
195 146 1
195 152 1
195 157 1
195 246 1
195 253 1
195 266 1
195 271 1
195 360 1
195 367 1
195 373 1
195 385 1
195 417 1
195 424 1
195 430 1
195 435 1
196 140 1
196 147 1
196 153 1
196 158 1
196 247 1
196 254 1
196 260 1
196 272 1
196 361 1
196 368 1
196 374 1
196 379 1
196 418 1
196 425 1
196 431 1
196 436 1
197 171 1
197 198 1
197 204 1
197 223 1
197 286 1
197 313 1
197 319 1
197 331 1
197 342 1
197 369 1
197 375 1
197 387 1
197 399 1
197 426 1
197 432 1
197 444 1
198 172 1
198 199 1
198 205 1
198 224 1
198 287 1
198 314 1
198 320 1
198 332 1
198 343 1
198 370 1
198 376 1
198 388 1
198 393 1
198 427 1
198 433 1
198 445 1
199 173 1
199 200 1
199 206 1
199 218 1
199 281 1
199 315 1
199 321 1
199 333 1
199 337 1
199 371 1
199 377 1
199 389 1
199 394 1
199 421 1
199 434 1
199 446 1
200 174 1
200 201 1
200 207 1
200 219 1
200 282 1
200 309 1
200 322 1
200 334 1
200 338 1
200 365 1
200 378 1
200 390 1
200 395 1
200 422 1
200 428 1
200 447 1
201 175 1
201 202 1
201 208 1
201 220 1
201 283 1
201 310 1
201 316 1
201 335 1
201 339 1
201 366 1
201 372 1
201 391 1
201 396 1
201 423 1
201 429 1
201 448 1
202 169 1
202 203 1
202 209 1
202 221 1
202 284 1
202 311 1
202 317 1
202 336 1
202 340 1
202 367 1
202 373 1
202 392 1
202 397 1
202 424 1
202 430 1
202 442 1
203 170 1
203 197 1
203 210 1
203 222 1
203 285 1
203 312 1
203 318 1
203 330 1
203 341 1
203 368 1
203 374 1
203 386 1
203 398 1
203 425 1
203 431 1
203 443 1
204 178 1
204 198 1
204 216 1
204 223 1
204 293 1
204 313 1
204 324 1
204 331 1
204 349 1
204 369 1
204 380 1
204 387 1
204 406 1
204 426 1
204 437 1
204 444 1
205 179 1
205 199 1
205 217 1
205 224 1
205 294 1
205 314 1
205 325 1
205 332 1
205 350 1
205 370 1
205 381 1
205 388 1
205 400 1
205 427 1
205 438 1
205 445 1
206 180 1
206 200 1
206 211 1
206 218 1
206 288 1
206 315 1
206 326 1
206 333 1
206 344 1
206 371 1
206 382 1
206 389 1
206 401 1
206 421 1
206 439 1
206 446 1
207 181 1
207 201 1
207 212 1
207 219 1
207 289 1
207 309 1
207 327 1
207 334 1
207 345 1
207 365 1
207 383 1
207 390 1
207 402 1
207 422 1
207 440 1
207 447 1
208 182 1
208 202 1
208 213 1
208 220 1
208 290 1
208 310 1
208 328 1
208 335 1
208 346 1
208 366 1
208 384 1
208 391 1
208 403 1
208 423 1
208 441 1
208 448 1
209 176 1
209 203 1
209 214 1
209 221 1
209 291 1
209 311 1
209 329 1
209 336 1
209 347 1
209 367 1
209 385 1
209 392 1
209 404 1
209 424 1
209 435 1
209 442 1
210 177 1
210 197 1
210 215 1
210 222 1
210 292 1
210 312 1
210 323 1
210 330 1
210 348 1
210 368 1
210 379 1
210 386 1
210 405 1
210 425 1
210 436 1
210 443 1
211 185 1
211 204 1
211 216 1
211 223 1
211 300 1
211 319 1
211 324 1
211 331 1
211 356 1
211 375 1
211 380 1
211 387 1
211 413 1
211 432 1
211 437 1
211 444 1
212 186 1
212 205 1
212 217 1
212 224 1
212 301 1
212 320 1
212 325 1
212 332 1
212 357 1
212 376 1
212 381 1
212 388 1
212 407 1
212 433 1
212 438 1
212 445 1
213 187 1
213 206 1
213 211 1
213 218 1
213 295 1
213 321 1
213 326 1
213 333 1
213 351 1
213 377 1
213 382 1
213 389 1
213 408 1
213 434 1
213 439 1
213 446 1
214 188 1
214 207 1
214 212 1
214 219 1
214 296 1
214 322 1
214 327 1
214 334 1
214 352 1
214 378 1
214 383 1
214 390 1
214 409 1
214 428 1
214 440 1
214 447 1
215 189 1
215 208 1
215 213 1
215 220 1
215 297 1
215 316 1
215 328 1
215 335 1
215 353 1
215 372 1
215 384 1
215 391 1
215 410 1
215 429 1
215 441 1
215 448 1
216 183 1
216 209 1
216 214 1
216 221 1
216 298 1
216 317 1
216 329 1
216 336 1
216 354 1
216 373 1
216 385 1
216 392 1
216 411 1
216 430 1
216 435 1
216 442 1
217 184 1
217 210 1
217 215 1
217 222 1
217 299 1
217 318 1
217 323 1
217 330 1
217 355 1
217 374 1
217 379 1
217 386 1
217 412 1
217 431 1
217 436 1
217 443 1
218 191 1
218 198 1
218 204 1
218 216 1
218 306 1
218 313 1
218 319 1
218 324 1
218 362 1
218 369 1
218 375 1
218 380 1
218 419 1
218 426 1
218 432 1
218 437 1
219 192 1
219 199 1
219 205 1
219 217 1
219 307 1
219 314 1
219 320 1
219 325 1
219 363 1
219 370 1
219 376 1
219 381 1
219 420 1
219 427 1
219 433 1
219 438 1
220 193 1
220 200 1
220 206 1
220 211 1
220 308 1
220 315 1
220 321 1
220 326 1
220 364 1
220 371 1
220 377 1
220 382 1
220 414 1
220 421 1
220 434 1
220 439 1
221 194 1
221 201 1
221 207 1
221 212 1
221 302 1
221 309 1
221 322 1
221 327 1
221 358 1
221 365 1
221 378 1
221 383 1
221 415 1
221 422 1
221 428 1
221 440 1
222 195 1
222 202 1
222 208 1
222 213 1
222 303 1
222 310 1
222 316 1
222 328 1
222 359 1
222 366 1
222 372 1
222 384 1
222 416 1
222 423 1
222 429 1
222 441 1
223 196 1
223 203 1
223 209 1
223 214 1
223 304 1
223 311 1
223 317 1
223 329 1
223 360 1
223 367 1
223 373 1
223 385 1
223 417 1
223 424 1
223 430 1
223 435 1
224 190 1
224 197 1
224 210 1
224 215 1
224 305 1
224 312 1
224 318 1
224 323 1
224 361 1
224 368 1
224 374 1
224 379 1
224 418 1
224 425 1
224 431 1
224 436 1
