%%MatrixMarket matrix coordinate integer general
256 512 4096
1 1 1
1 31 1
1 45 1
1 51 1
1 257 1
1 287 1
1 301 1
1 307 1
1 321 1
1 351 1
1 365 1
1 371 1
1 385 1
1 415 1
1 429 1
1 435 1
2 2 1
2 32 1
2 44 1
2 53 1
2 258 1
2 288 1
2 300 1
2 309 1
2 322 1
2 352 1
2 364 1
2 373 1
2 386 1
2 416 1
2 428 1
2 437 1
3 3 1
3 25 1
3 46 1
3 52 1
3 259 1
3 281 1
3 302 1
3 308 1
3 323 1
3 345 1
3 366 1
3 372 1
3 387 1
3 409 1
3 430 1
3 436 1
4 4 1
4 27 1
4 48 1
4 55 1
4 260 1
4 283 1
4 304 1
4 311 1
4 324 1
4 347 1
4 368 1
4 375 1
4 388 1
4 411 1
4 432 1
4 439 1
5 5 1
5 26 1
5 47 1
5 54 1
5 261 1
5 282 1
5 303 1
5 310 1
5 325 1
5 346 1
5 367 1
5 374 1
5 389 1
5 410 1
5 431 1
5 438 1
6 6 1
6 29 1
6 41 1
6 56 1
6 262 1
6 285 1
6 297 1
6 312 1
6 326 1
6 349 1
6 361 1
6 376 1
6 390 1
6 413 1
6 425 1
6 440 1
7 7 1
7 28 1
7 42 1
7 49 1
7 263 1
7 284 1
7 298 1
7 305 1
7 327 1
7 348 1
7 362 1
7 369 1
7 391 1
7 412 1
7 426 1
7 433 1
8 8 1
8 30 1
8 43 1
8 50 1
8 264 1
8 286 1
8 299 1
8 306 1
8 328 1
8 350 1
8 363 1
8 370 1
8 392 1
8 414 1
8 427 1
8 434 1
9 9 1
9 31 1
9 45 1
9 58 1
9 265 1
9 287 1
9 301 1
9 314 1
9 329 1
9 351 1
9 365 1
9 378 1
9 393 1
9 415 1
9 429 1
9 442 1
10 10 1
10 32 1
10 44 1
10 59 1
10 266 1
10 288 1
10 300 1
10 315 1
10 330 1
10 352 1
10 364 1
10 379 1
10 394 1
10 416 1
10 428 1
10 443 1
11 11 1
11 25 1
11 46 1
11 61 1
11 267 1
11 281 1
11 302 1
11 317 1
11 331 1
11 345 1
11 366 1
11 381 1
11 395 1
11 409 1
11 430 1
11 445 1
12 12 1
12 27 1
12 48 1
12 62 1
12 268 1
12 283 1
12 304 1
12 318 1
12 332 1
12 347 1
12 368 1
12 382 1
12 396 1
12 411 1
12 432 1
12 446 1
13 13 1
13 26 1
13 47 1
13 60 1
13 269 1
13 282 1
13 303 1
13 316 1
13 333 1
13 346 1
13 367 1
13 380 1
13 397 1
13 410 1
13 431 1
13 444 1
14 14 1
14 29 1
14 41 1
14 63 1
14 270 1
14 285 1
14 297 1
14 319 1
14 334 1
14 349 1
14 361 1
14 383 1
14 398 1
14 413 1
14 425 1
14 447 1
15 15 1
15 28 1
15 42 1
15 64 1
15 271 1
15 284 1
15 298 1
15 320 1
15 335 1
15 348 1
15 362 1
15 384 1
15 399 1
15 412 1
15 426 1
15 448 1
16 16 1
16 30 1
16 43 1
16 57 1
16 272 1
16 286 1
16 299 1
16 313 1
16 336 1
16 350 1
16 363 1
16 377 1
16 400 1
16 414 1
16 427 1
16 441 1
17 24 1
17 31 1
17 51 1
17 58 1
17 280 1
17 287 1
17 307 1
17 314 1
17 344 1
17 351 1
17 371 1
17 378 1
17 408 1
17 415 1
17 435 1
17 442 1
18 17 1
18 32 1
18 53 1
18 59 1
18 273 1
18 288 1
18 309 1
18 315 1
18 337 1
18 352 1
18 373 1
18 379 1
18 401 1
18 416 1
18 437 1
18 443 1
19 18 1
19 25 1
19 52 1
19 61 1
19 274 1
19 281 1
19 308 1
19 317 1
19 338 1
19 345 1
19 372 1
19 381 1
19 402 1
19 409 1
19 436 1
19 445 1
20 21 1
20 27 1
20 55 1
20 62 1
20 277 1
20 283 1
20 311 1
20 318 1
20 341 1
20 347 1
20 375 1
20 382 1
20 405 1
20 411 1
20 439 1
20 446 1
21 19 1
21 26 1
21 54 1
21 60 1
21 275 1
21 282 1
21 310 1
21 316 1
21 339 1
21 346 1
21 374 1
21 380 1
21 403 1
21 410 1
21 438 1
21 444 1
22 20 1
22 29 1
22 56 1
22 63 1
22 276 1
22 285 1
22 312 1
22 319 1
22 340 1
22 349 1
22 376 1
22 383 1
22 404 1
22 413 1
22 440 1
22 447 1
23 22 1
23 28 1
23 49 1
23 64 1
23 278 1
23 284 1
23 305 1
23 320 1
23 342 1
23 348 1
23 369 1
23 384 1
23 406 1
23 412 1
23 433 1
23 448 1
24 23 1
24 30 1
24 50 1
24 57 1
24 279 1
24 286 1
24 306 1
24 313 1
24 343 1
24 350 1
24 370 1
24 377 1
24 407 1
24 414 1
24 434 1
24 441 1
25 38 1
25 45 1
25 51 1
25 58 1
25 294 1
25 301 1
25 307 1
25 314 1
25 358 1
25 365 1
25 371 1
25 378 1
25 422 1
25 429 1
25 435 1
25 442 1
26 39 1
26 44 1
26 53 1
26 59 1
26 295 1
26 300 1
26 309 1
26 315 1
26 359 1
26 364 1
26 373 1
26 379 1
26 423 1
26 428 1
26 437 1
26 443 1
27 40 1
27 46 1
27 52 1
27 61 1
27 296 1
27 302 1
27 308 1
27 317 1
27 360 1
27 366 1
27 372 1
27 381 1
27 424 1
27 430 1
27 436 1
27 445 1
28 34 1
28 48 1
28 55 1
28 62 1
28 290 1
28 304 1
28 311 1
28 318 1
28 354 1
28 368 1
28 375 1
28 382 1
28 418 1
28 432 1
28 439 1
28 446 1
29 33 1
29 47 1
29 54 1
29 60 1
29 289 1
29 303 1
29 310 1
29 316 1
29 353 1
29 367 1
29 374 1
29 380 1
29 417 1
29 431 1
29 438 1
29 444 1
30 35 1
30 41 1
30 56 1
30 63 1
30 291 1
30 297 1
30 312 1
30 319 1
30 355 1
30 361 1
30 376 1
30 383 1
30 419 1
30 425 1
30 440 1
30 447 1
31 37 1
31 42 1
31 49 1
31 64 1
31 293 1
31 298 1
31 305 1
31 320 1
31 357 1
31 362 1
31 369 1
31 384 1
31 421 1
31 426 1
31 433 1
31 448 1
32 36 1
32 43 1
32 50 1
32 57 1
32 292 1
32 299 1
32 306 1
32 313 1
32 356 1
32 363 1
32 370 1
32 377 1
32 420 1
32 427 1
32 434 1
32 441 1
33 65 1
33 95 1
33 109 1
33 115 1
33 257 1
33 287 1
33 301 1
33 307 1
33 321 1
33 351 1
33 365 1
33 371 1
33 449 1
33 479 1
33 493 1
33 499 1
34 66 1
34 96 1
34 108 1
34 117 1
34 258 1
34 288 1
34 300 1
34 309 1
34 322 1
34 352 1
34 364 1
34 373 1
34 450 1
34 480 1
34 492 1
34 501 1
35 67 1
35 89 1
35 110 1
35 116 1
35 259 1
35 281 1
35 302 1
35 308 1
35 323 1
35 345 1
35 366 1
35 372 1
35 451 1
35 473 1
35 494 1
35 500 1
36 68 1
36 91 1
36 112 1
36 119 1
36 260 1
36 283 1
36 304 1
36 311 1
36 324 1
36 347 1
36 368 1
36 375 1
36 452 1
36 475 1
36 496 1
36 503 1
37 69 1
37 90 1
37 111 1
37 118 1
37 261 1
37 282 1
37 303 1
37 310 1
37 325 1
37 346 1
37 367 1
37 374 1
37 453 1
37 474 1
37 495 1
37 502 1
38 70 1
38 93 1
38 105 1
38 120 1
38 262 1
38 285 1
38 297 1
38 312 1
38 326 1
38 349 1
38 361 1
38 376 1
38 454 1
38 477 1
38 489 1
38 504 1
39 71 1
39 92 1
39 106 1
39 113 1
39 263 1
39 284 1
39 298 1
39 305 1
39 327 1
39 348 1
39 362 1
39 369 1
39 455 1
39 476 1
39 490 1
39 497 1
40 72 1
40 94 1
40 107 1
40 114 1
40 264 1
40 286 1
40 299 1
40 306 1
40 328 1
40 350 1
40 363 1
40 370 1
40 456 1
40 478 1
40 491 1
40 498 1
41 73 1
41 95 1
41 109 1
41 122 1
41 265 1
41 287 1
41 301 1
41 314 1
41 329 1
41 351 1
41 365 1
41 378 1
41 457 1
41 479 1
41 493 1
41 506 1
42 74 1
42 96 1
42 108 1
42 123 1
42 266 1
42 288 1
42 300 1
42 315 1
42 330 1
42 352 1
42 364 1
42 379 1
42 458 1
42 480 1
42 492 1
42 507 1
43 75 1
43 89 1
43 110 1
43 125 1
43 267 1
43 281 1
43 302 1
43 317 1
43 331 1
43 345 1
43 366 1
43 381 1
43 459 1
43 473 1
43 494 1
43 509 1
44 76 1
44 91 1
44 112 1
44 126 1
44 268 1
44 283 1
44 304 1
44 318 1
44 332 1
44 347 1
44 368 1
44 382 1
44 460 1
44 475 1
44 496 1
44 510 1
45 77 1
45 90 1
45 111 1
45 124 1
45 269 1
45 282 1
45 303 1
45 316 1
45 333 1
45 346 1
45 367 1
45 380 1
45 461 1
45 474 1
45 495 1
45 508 1
46 78 1
46 93 1
46 105 1
46 127 1
46 270 1
46 285 1
46 297 1
46 319 1
46 334 1
46 349 1
46 361 1
46 383 1
46 462 1
46 477 1
46 489 1
46 511 1
47 79 1
47 92 1
47 106 1
47 128 1
47 271 1
47 284 1
47 298 1
47 320 1
47 335 1
47 348 1
47 362 1
47 384 1
47 463 1
47 476 1
47 490 1
47 512 1
48 80 1
48 94 1
48 107 1
48 121 1
48 272 1
48 286 1
48 299 1
48 313 1
48 336 1
48 350 1
48 363 1
48 377 1
48 464 1
48 478 1
48 491 1
48 505 1
49 88 1
49 95 1
49 115 1
49 122 1
49 280 1
49 287 1
49 307 1
49 314 1
49 344 1
49 351 1
49 371 1
49 378 1
49 472 1
49 479 1
49 499 1
49 506 1
50 81 1
50 96 1
50 117 1
50 123 1
50 273 1
50 288 1
50 309 1
50 315 1
50 337 1
50 352 1
50 373 1
50 379 1
50 465 1
50 480 1
50 501 1
50 507 1
51 82 1
51 89 1
51 116 1
51 125 1
51 274 1
51 281 1
51 308 1
51 317 1
51 338 1
51 345 1
51 372 1
51 381 1
51 466 1
51 473 1
51 500 1
51 509 1
52 85 1
52 91 1
52 119 1
52 126 1
52 277 1
52 283 1
52 311 1
52 318 1
52 341 1
52 347 1
52 375 1
52 382 1
52 469 1
52 475 1
52 503 1
52 510 1
53 83 1
53 90 1
53 118 1
53 124 1
53 275 1
53 282 1
53 310 1
53 316 1
53 339 1
53 346 1
53 374 1
53 380 1
53 467 1
53 474 1
53 502 1
53 508 1
54 84 1
54 93 1
54 120 1
54 127 1
54 276 1
54 285 1
54 312 1
54 319 1
54 340 1
54 349 1
54 376 1
54 383 1
54 468 1
54 477 1
54 504 1
54 511 1
55 86 1
55 92 1
55 113 1
55 128 1
55 278 1
55 284 1
55 305 1
55 320 1
55 342 1
55 348 1
55 369 1
55 384 1
55 470 1
55 476 1
55 497 1
55 512 1
56 87 1
56 94 1
56 114 1
56 121 1
56 279 1
56 286 1
56 306 1
56 313 1
56 343 1
56 350 1
56 370 1
56 377 1
56 471 1
56 478 1
56 498 1
56 505 1
57 102 1
57 109 1
57 115 1
57 122 1
57 294 1
57 301 1
57 307 1
57 314 1
57 358 1
57 365 1
57 371 1
57 378 1
57 486 1
57 493 1
57 499 1
57 506 1
58 103 1
58 108 1
58 117 1
58 123 1
58 295 1
58 300 1
58 309 1
58 315 1
58 359 1
58 364 1
58 373 1
58 379 1
58 487 1
58 492 1
58 501 1
58 507 1
59 104 1
59 110 1
59 116 1
59 125 1
59 296 1
59 302 1
59 308 1
59 317 1
59 360 1
59 366 1
59 372 1
59 381 1
59 488 1
59 494 1
59 500 1
59 509 1
60 98 1
60 112 1
60 119 1
60 126 1
60 290 1
60 304 1
60 311 1
60 318 1
60 354 1
60 368 1
60 375 1
60 382 1
60 482 1
60 496 1
60 503 1
60 510 1
61 97 1
61 111 1
61 118 1
61 124 1
61 289 1
61 303 1
61 310 1
61 316 1
61 353 1
61 367 1
61 374 1
61 380 1
61 481 1
61 495 1
61 502 1
61 508 1
62 99 1
62 105 1
62 120 1
62 127 1
62 291 1
62 297 1
62 312 1
62 319 1
62 355 1
62 361 1
62 376 1
62 383 1
62 483 1
62 489 1
62 504 1
62 511 1
63 101 1
63 106 1
63 113 1
63 128 1
63 293 1
63 298 1
63 305 1
63 320 1
63 357 1
63 362 1
63 369 1
63 384 1
63 485 1
63 490 1
63 497 1
63 512 1
64 100 1
64 107 1
64 114 1
64 121 1
64 292 1
64 299 1
64 306 1
64 313 1
64 356 1
64 363 1
64 370 1
64 377 1
64 484 1
64 491 1
64 498 1
64 505 1
65 129 1
65 159 1
65 173 1
65 179 1
65 257 1
65 287 1
65 301 1
65 307 1
65 385 1
65 415 1
65 429 1
65 435 1
65 449 1
65 479 1
65 493 1
65 499 1
66 130 1
66 160 1
66 172 1
66 181 1
66 258 1
66 288 1
66 300 1
66 309 1
66 386 1
66 416 1
66 428 1
66 437 1
66 450 1
66 480 1
66 492 1
66 501 1
67 131 1
67 153 1
67 174 1
67 180 1
67 259 1
67 281 1
67 302 1
67 308 1
67 387 1
67 409 1
67 430 1
67 436 1
67 451 1
67 473 1
67 494 1
67 500 1
68 132 1
68 155 1
68 176 1
68 183 1
68 260 1
68 283 1
68 304 1
68 311 1
68 388 1
68 411 1
68 432 1
68 439 1
68 452 1
68 475 1
68 496 1
68 503 1
69 133 1
69 154 1
69 175 1
69 182 1
69 261 1
69 282 1
69 303 1
69 310 1
69 389 1
69 410 1
69 431 1
69 438 1
69 453 1
69 474 1
69 495 1
69 502 1
70 134 1
70 157 1
70 169 1
70 184 1
70 262 1
70 285 1
70 297 1
70 312 1
70 390 1
70 413 1
70 425 1
70 440 1
70 454 1
70 477 1
70 489 1
70 504 1
71 135 1
71 156 1
71 170 1
71 177 1
71 263 1
71 284 1
71 298 1
71 305 1
71 391 1
71 412 1
71 426 1
71 433 1
71 455 1
71 476 1
71 490 1
71 497 1
72 136 1
72 158 1
72 171 1
72 178 1
72 264 1
72 286 1
72 299 1
72 306 1
72 392 1
72 414 1
72 427 1
72 434 1
72 456 1
72 478 1
72 491 1
72 498 1
73 137 1
73 159 1
73 173 1
73 186 1
73 265 1
73 287 1
73 301 1
73 314 1
73 393 1
73 415 1
73 429 1
73 442 1
73 457 1
73 479 1
73 493 1
73 506 1
74 138 1
74 160 1
74 172 1
74 187 1
74 266 1
74 288 1
74 300 1
74 315 1
74 394 1
74 416 1
74 428 1
74 443 1
74 458 1
74 480 1
74 492 1
74 507 1
75 139 1
75 153 1
75 174 1
75 189 1
75 267 1
75 281 1
75 302 1
75 317 1
75 395 1
75 409 1
75 430 1
75 445 1
75 459 1
75 473 1
75 494 1
75 509 1
76 140 1
76 155 1
76 176 1
76 190 1
76 268 1
76 283 1
76 304 1
76 318 1
76 396 1
76 411 1
76 432 1
76 446 1
76 460 1
76 475 1
76 496 1
76 510 1
77 141 1
77 154 1
77 175 1
77 188 1
77 269 1
77 282 1
77 303 1
77 316 1
77 397 1
77 410 1
77 431 1
77 444 1
77 461 1
77 474 1
77 495 1
77 508 1
78 142 1
78 157 1
78 169 1
78 191 1
78 270 1
78 285 1
78 297 1
78 319 1
78 398 1
78 413 1
78 425 1
78 447 1
78 462 1
78 477 1
78 489 1
78 511 1
79 143 1
79 156 1
79 170 1
79 192 1
79 271 1
79 284 1
79 298 1
79 320 1
79 399 1
79 412 1
79 426 1
79 448 1
79 463 1
79 476 1
79 490 1
79 512 1
80 144 1
80 158 1
80 171 1
80 185 1
80 272 1
80 286 1
80 299 1
80 313 1
80 400 1
80 414 1
80 427 1
80 441 1
80 464 1
80 478 1
80 491 1
80 505 1
81 152 1
81 159 1
81 179 1
81 186 1
81 280 1
81 287 1
81 307 1
81 314 1
81 408 1
81 415 1
81 435 1
81 442 1
81 472 1
81 479 1
81 499 1
81 506 1
82 145 1
82 160 1
82 181 1
82 187 1
82 273 1
82 288 1
82 309 1
82 315 1
82 401 1
82 416 1
82 437 1
82 443 1
82 465 1
82 480 1
82 501 1
82 507 1
83 146 1
83 153 1
83 180 1
83 189 1
83 274 1
83 281 1
83 308 1
83 317 1
83 402 1
83 409 1
83 436 1
83 445 1
83 466 1
83 473 1
83 500 1
83 509 1
84 149 1
84 155 1
84 183 1
84 190 1
84 277 1
84 283 1
84 311 1
84 318 1
84 405 1
84 411 1
84 439 1
84 446 1
84 469 1
84 475 1
84 503 1
84 510 1
85 147 1
85 154 1
85 182 1
85 188 1
85 275 1
85 282 1
85 310 1
85 316 1
85 403 1
85 410 1
85 438 1
85 444 1
85 467 1
85 474 1
85 502 1
85 508 1
86 148 1
86 157 1
86 184 1
86 191 1
86 276 1
86 285 1
86 312 1
86 319 1
86 404 1
86 413 1
86 440 1
86 447 1
86 468 1
86 477 1
86 504 1
86 511 1
87 150 1
87 156 1
87 177 1
87 192 1
87 278 1
87 284 1
87 305 1
87 320 1
87 406 1
87 412 1
87 433 1
87 448 1
87 470 1
87 476 1
87 497 1
87 512 1
88 151 1
88 158 1
88 178 1
88 185 1
88 279 1
88 286 1
88 306 1
88 313 1
88 407 1
88 414 1
88 434 1
88 441 1
88 471 1
88 478 1
88 498 1
88 505 1
89 166 1
89 173 1
89 179 1
89 186 1
89 294 1
89 301 1
89 307 1
89 314 1
89 422 1
89 429 1
89 435 1
89 442 1
89 486 1
89 493 1
89 499 1
89 506 1
90 167 1
90 172 1
90 181 1
90 187 1
90 295 1
90 300 1
90 309 1
90 315 1
90 423 1
90 428 1
90 437 1
90 443 1
90 487 1
90 492 1
90 501 1
90 507 1
91 168 1
91 174 1
91 180 1
91 189 1
91 296 1
91 302 1
91 308 1
91 317 1
91 424 1
91 430 1
91 436 1
91 445 1
91 488 1
91 494 1
91 500 1
91 509 1
92 162 1
92 176 1
92 183 1
92 190 1
92 290 1
92 304 1
92 311 1
92 318 1
92 418 1
92 432 1
92 439 1
92 446 1
92 482 1
92 496 1
92 503 1
92 510 1
93 161 1
93 175 1
93 182 1
93 188 1
93 289 1
93 303 1
93 310 1
93 316 1
93 417 1
93 431 1
93 438 1
93 444 1
93 481 1
93 495 1
93 502 1
93 508 1
94 163 1
94 169 1
94 184 1
94 191 1
94 291 1
94 297 1
94 312 1
94 319 1
94 419 1
94 425 1
94 440 1
94 447 1
94 483 1
94 489 1
94 504 1
94 511 1
95 165 1
95 170 1
95 177 1
95 192 1
95 293 1
95 298 1
95 305 1
95 320 1
95 421 1
95 426 1
95 433 1
95 448 1
95 485 1
95 490 1
95 497 1
95 512 1
96 164 1
96 171 1
96 178 1
96 185 1
96 292 1
96 299 1
96 306 1
96 313 1
96 420 1
96 427 1
96 434 1
96 441 1
96 484 1
96 491 1
96 498 1
96 505 1
97 193 1
97 223 1
97 237 1
97 243 1
97 321 1
97 351 1
97 365 1
97 371 1
97 385 1
97 415 1
97 429 1
97 435 1
97 449 1
97 479 1
97 493 1
97 499 1
98 194 1
98 224 1
98 236 1
98 245 1
98 322 1
98 352 1
98 364 1
98 373 1
98 386 1
98 416 1
98 428 1
98 437 1
98 450 1
98 480 1
98 492 1
98 501 1
99 195 1
99 217 1
99 238 1
99 244 1
99 323 1
99 345 1
99 366 1
99 372 1
99 387 1
99 409 1
99 430 1
99 436 1
99 451 1
99 473 1
99 494 1
99 500 1
100 196 1
100 219 1
100 240 1
100 247 1
100 324 1
100 347 1
100 368 1
100 375 1
100 388 1
100 411 1
100 432 1
100 439 1
100 452 1
100 475 1
100 496 1
100 503 1
101 197 1
101 218 1
101 239 1
101 246 1
101 325 1
101 346 1
101 367 1
101 374 1
101 389 1
101 410 1
101 431 1
101 438 1
101 453 1
101 474 1
101 495 1
101 502 1
102 198 1
102 221 1
102 233 1
102 248 1
102 326 1
102 349 1
102 361 1
102 376 1
102 390 1
102 413 1
102 425 1
102 440 1
102 454 1
102 477 1
102 489 1
102 504 1
103 199 1
103 220 1
103 234 1
103 241 1
103 327 1
103 348 1
103 362 1
103 369 1
103 391 1
103 412 1
103 426 1
103 433 1
103 455 1
103 476 1
103 490 1
103 497 1
104 200 1
104 222 1
104 235 1
104 242 1
104 328 1
104 350 1
104 363 1
104 370 1
104 392 1
104 414 1
104 427 1
104 434 1
104 456 1
104 478 1
104 491 1
104 498 1
105 201 1
105 223 1
105 237 1
105 250 1
105 329 1
105 351 1
105 365 1
105 378 1
105 393 1
105 415 1
105 429 1
105 442 1
105 457 1
105 479 1
105 493 1
105 506 1
106 202 1
106 224 1
106 236 1
106 251 1
106 330 1
106 352 1
106 364 1
106 379 1
106 394 1
106 416 1
106 428 1
106 443 1
106 458 1
106 480 1
106 492 1
106 507 1
107 203 1
107 217 1
107 238 1
107 253 1
107 331 1
107 345 1
107 366 1
107 381 1
107 395 1
107 409 1
107 430 1
107 445 1
107 459 1
107 473 1
107 494 1
107 509 1
108 204 1
108 219 1
108 240 1
108 254 1
108 332 1
108 347 1
108 368 1
108 382 1
108 396 1
108 411 1
108 432 1
108 446 1
108 460 1
108 475 1
108 496 1
108 510 1
109 205 1
109 218 1
109 239 1
109 252 1
109 333 1
109 346 1
109 367 1
109 380 1
109 397 1
109 410 1
109 431 1
109 444 1
109 461 1
109 474 1
109 495 1
109 508 1
110 206 1
110 221 1
110 233 1
110 255 1
110 334 1
110 349 1
110 361 1
110 383 1
110 398 1
110 413 1
110 425 1
110 447 1
110 462 1
110 477 1
110 489 1
110 511 1
111 207 1
111 220 1
111 234 1
111 256 1
111 335 1
111 348 1
111 362 1
111 384 1
111 399 1
111 412 1
111 426 1
111 448 1
111 463 1
111 476 1
111 490 1
111 512 1
112 208 1
112 222 1
112 235 1
112 249 1
112 336 1
112 350 1
112 363 1
112 377 1
112 400 1
112 414 1
112 427 1
112 441 1
112 464 1
112 478 1
112 491 1
112 505 1
113 216 1
113 223 1
113 243 1
113 250 1
113 344 1
113 351 1
113 371 1
113 378 1
113 408 1
113 415 1
113 435 1
113 442 1
113 472 1
113 479 1
113 499 1
113 506 1
114 209 1
114 224 1
114 245 1
114 251 1
114 337 1
114 352 1
114 373 1
114 379 1
114 401 1
114 416 1
114 437 1
114 443 1
114 465 1
114 480 1
114 501 1
114 507 1
115 210 1
115 217 1
115 244 1
115 253 1
115 338 1
115 345 1
115 372 1
115 381 1
115 402 1
115 409 1
115 436 1
115 445 1
115 466 1
115 473 1
115 500 1
115 509 1
116 213 1
116 219 1
116 247 1
116 254 1
116 341 1
116 347 1
116 375 1
116 382 1
116 405 1
116 411 1
116 439 1
116 446 1
116 469 1
116 475 1
116 503 1
116 510 1
117 211 1
117 218 1
117 246 1
117 252 1
117 339 1
117 346 1
117 374 1
117 380 1
117 403 1
117 410 1
117 438 1
117 444 1
117 467 1
117 474 1
117 502 1
117 508 1
118 212 1
118 221 1
118 248 1
118 255 1
118 340 1
118 349 1
118 376 1
118 383 1
118 404 1
118 413 1
118 440 1
118 447 1
118 468 1
118 477 1
118 504 1
118 511 1
119 214 1
119 220 1
119 241 1
119 256 1
119 342 1
119 348 1
119 369 1
119 384 1
119 406 1
119 412 1
119 433 1
119 448 1
119 470 1
119 476 1
119 497 1
119 512 1
120 215 1
120 222 1
120 242 1
120 249 1
120 343 1
120 350 1
120 370 1
120 377 1
120 407 1
120 414 1
120 434 1
120 441 1
120 471 1
120 478 1
120 498 1
120 505 1
121 230 1
121 237 1
121 243 1
121 250 1
121 358 1
121 365 1
121 371 1
121 378 1
121 422 1
121 429 1
121 435 1
121 442 1
121 486 1
121 493 1
121 499 1
121 506 1
122 231 1
122 236 1
122 245 1
122 251 1
122 359 1
122 364 1
122 373 1
122 379 1
122 423 1
122 428 1
122 437 1
122 443 1
122 487 1
122 492 1
122 501 1
122 507 1
123 232 1
123 238 1
123 244 1
123 253 1
123 360 1
123 366 1
123 372 1
123 381 1
123 424 1
123 430 1
123 436 1
123 445 1
123 488 1
123 494 1
123 500 1
123 509 1
124 226 1
124 240 1
124 247 1
124 254 1
124 354 1
124 368 1
124 375 1
124 382 1
124 418 1
124 432 1
124 439 1
124 446 1
124 482 1
124 496 1
124 503 1
124 510 1
125 225 1
125 239 1
125 246 1
125 252 1
125 353 1
125 367 1
125 374 1
125 380 1
125 417 1
125 431 1
125 438 1
125 444 1
125 481 1
125 495 1
125 502 1
125 508 1
126 227 1
126 233 1
126 248 1
126 255 1
126 355 1
126 361 1
126 376 1
126 383 1
126 419 1
126 425 1
126 440 1
126 447 1
126 483 1
126 489 1
126 504 1
126 511 1
127 229 1
127 234 1
127 241 1
127 256 1
127 357 1
127 362 1
127 369 1
127 384 1
127 421 1
127 426 1
127 433 1
127 448 1
127 485 1
127 490 1
127 497 1
127 512 1
128 228 1
128 235 1
128 242 1
128 249 1
128 356 1
128 363 1
128 370 1
128 377 1
128 420 1
128 427 1
128 434 1
128 441 1
128 484 1
128 491 1
128 498 1
128 505 1
129 1 1
129 33 1
129 41 1
129 49 1
129 259 1
129 291 1
129 299 1
129 307 1
129 324 1
129 356 1
129 364 1
129 372 1
129 454 1
129 486 1
129 494 1
129 502 1
130 2 1
130 34 1
130 42 1
130 50 1
130 261 1
130 293 1
130 301 1
130 309 1
130 326 1
130 358 1
130 366 1
130 374 1
130 455 1
130 487 1
130 495 1
130 503 1
131 3 1
131 35 1
131 43 1
131 51 1
131 260 1
131 292 1
131 300 1
131 308 1
131 327 1
131 359 1
131 367 1
131 375 1
131 456 1
131 488 1
131 496 1
131 504 1
132 4 1
132 36 1
132 44 1
132 52 1
132 263 1
132 295 1
132 303 1
132 311 1
132 321 1
132 353 1
132 361 1
132 369 1
132 450 1
132 482 1
132 490 1
132 498 1
133 5 1
133 37 1
133 45 1
133 53 1
133 262 1
133 294 1
133 302 1
133 310 1
133 328 1
133 360 1
133 368 1
133 376 1
133 449 1
133 481 1
133 489 1
133 497 1
134 6 1
134 38 1
134 46 1
134 54 1
134 264 1
134 296 1
134 304 1
134 312 1
134 322 1
134 354 1
134 362 1
134 370 1
134 451 1
134 483 1
134 491 1
134 499 1
135 7 1
135 39 1
135 47 1
135 55 1
135 257 1
135 289 1
135 297 1
135 305 1
135 323 1
135 355 1
135 363 1
135 371 1
135 453 1
135 485 1
135 493 1
135 501 1
136 8 1
136 40 1
136 48 1
136 56 1
136 258 1
136 290 1
136 298 1
136 306 1
136 325 1
136 357 1
136 365 1
136 373 1
136 452 1
136 484 1
136 492 1
136 500 1
137 9 1
137 33 1
137 41 1
137 57 1
137 267 1
137 291 1
137 299 1
137 315 1
137 332 1
137 356 1
137 364 1
137 380 1
137 462 1
137 486 1
137 494 1
137 510 1
138 10 1
138 34 1
138 42 1
138 58 1
138 269 1
138 293 1
138 301 1
138 317 1
138 334 1
138 358 1
138 366 1
138 382 1
138 463 1
138 487 1
138 495 1
138 511 1
139 11 1
139 35 1
139 43 1
139 59 1
139 268 1
139 292 1
139 300 1
139 316 1
139 335 1
139 359 1
139 367 1
139 383 1
139 464 1
139 488 1
139 496 1
139 512 1
140 12 1
140 36 1
140 44 1
140 60 1
140 271 1
140 295 1
140 303 1
140 319 1
140 329 1
140 353 1
140 361 1
140 377 1
140 458 1
140 482 1
140 490 1
140 506 1
141 13 1
141 37 1
141 45 1
141 61 1
141 270 1
141 294 1
141 302 1
141 318 1
141 336 1
141 360 1
141 368 1
141 384 1
141 457 1
141 481 1
141 489 1
141 505 1
142 14 1
142 38 1
142 46 1
142 62 1
142 272 1
142 296 1
142 304 1
142 320 1
142 330 1
142 354 1
142 362 1
142 378 1
142 459 1
142 483 1
142 491 1
142 507 1
143 15 1
143 39 1
143 47 1
143 63 1
143 265 1
143 289 1
143 297 1
143 313 1
143 331 1
143 355 1
143 363 1
143 379 1
143 461 1
143 485 1
143 493 1
143 509 1
144 16 1
144 40 1
144 48 1
144 64 1
144 266 1
144 290 1
144 298 1
144 314 1
144 333 1
144 357 1
144 365 1
144 381 1
144 460 1
144 484 1
144 492 1
144 508 1
145 17 1
145 33 1
145 49 1
145 57 1
145 275 1
145 291 1
145 307 1
145 315 1
145 340 1
145 356 1
145 372 1
145 380 1
145 470 1
145 486 1
145 502 1
145 510 1
146 18 1
146 34 1
146 50 1
146 58 1
146 277 1
146 293 1
146 309 1
146 317 1
146 342 1
146 358 1
146 374 1
146 382 1
146 471 1
146 487 1
146 503 1
146 511 1
147 19 1
147 35 1
147 51 1
147 59 1
147 276 1
147 292 1
147 308 1
147 316 1
147 343 1
147 359 1
147 375 1
147 383 1
147 472 1
147 488 1
147 504 1
147 512 1
148 20 1
148 36 1
148 52 1
148 60 1
148 279 1
148 295 1
148 311 1
148 319 1
148 337 1
148 353 1
148 369 1
148 377 1
148 466 1
148 482 1
148 498 1
148 506 1
149 21 1
149 37 1
149 53 1
149 61 1
149 278 1
149 294 1
149 310 1
149 318 1
149 344 1
149 360 1
149 376 1
149 384 1
149 465 1
149 481 1
149 497 1
149 505 1
150 22 1
150 38 1
150 54 1
150 62 1
150 280 1
150 296 1
150 312 1
150 320 1
150 338 1
150 354 1
150 370 1
150 378 1
150 467 1
150 483 1
150 499 1
150 507 1
151 23 1
151 39 1
151 55 1
151 63 1
151 273 1
151 289 1
151 305 1
151 313 1
151 339 1
151 355 1
151 371 1
151 379 1
151 469 1
151 485 1
151 501 1
151 509 1
152 24 1
152 40 1
152 56 1
152 64 1
152 274 1
152 290 1
152 306 1
152 314 1
152 341 1
152 357 1
152 373 1
152 381 1
152 468 1
152 484 1
152 500 1
152 508 1
153 25 1
153 41 1
153 49 1
153 57 1
153 283 1
153 299 1
153 307 1
153 315 1
153 348 1
153 364 1
153 372 1
153 380 1
153 478 1
153 494 1
153 502 1
153 510 1
154 26 1
154 42 1
154 50 1
154 58 1
154 285 1
154 301 1
154 309 1
154 317 1
154 350 1
154 366 1
154 374 1
154 382 1
154 479 1
154 495 1
154 503 1
154 511 1
155 27 1
155 43 1
155 51 1
155 59 1
155 284 1
155 300 1
155 308 1
155 316 1
155 351 1
155 367 1
155 375 1
155 383 1
155 480 1
155 496 1
155 504 1
155 512 1
156 28 1
156 44 1
156 52 1
156 60 1
156 287 1
156 303 1
156 311 1
156 319 1
156 345 1
156 361 1
156 369 1
156 377 1
156 474 1
156 490 1
156 498 1
156 506 1
157 29 1
157 45 1
157 53 1
157 61 1
157 286 1
157 302 1
157 310 1
157 318 1
157 352 1
157 368 1
157 376 1
157 384 1
157 473 1
157 489 1
157 497 1
157 505 1
158 30 1
158 46 1
158 54 1
158 62 1
158 288 1
158 304 1
158 312 1
158 320 1
158 346 1
158 362 1
158 370 1
158 378 1
158 475 1
158 491 1
158 499 1
158 507 1
159 31 1
159 47 1
159 55 1
159 63 1
159 281 1
159 297 1
159 305 1
159 313 1
159 347 1
159 363 1
159 371 1
159 379 1
159 477 1
159 493 1
159 501 1
159 509 1
160 32 1
160 48 1
160 56 1
160 64 1
160 282 1
160 298 1
160 306 1
160 314 1
160 349 1
160 365 1
160 373 1
160 381 1
160 476 1
160 492 1
160 500 1
160 508 1
161 65 1
161 97 1
161 105 1
161 113 1
161 259 1
161 291 1
161 299 1
161 307 1
161 389 1
161 421 1
161 429 1
161 437 1
161 454 1
161 486 1
161 494 1
161 502 1
162 66 1
162 98 1
162 106 1
162 114 1
162 261 1
162 293 1
162 301 1
162 309 1
162 388 1
162 420 1
162 428 1
162 436 1
162 455 1
162 487 1
162 495 1
162 503 1
163 67 1
163 99 1
163 107 1
163 115 1
163 260 1
163 292 1
163 300 1
163 308 1
163 390 1
163 422 1
163 430 1
163 438 1
163 456 1
163 488 1
163 496 1
163 504 1
164 68 1
164 100 1
164 108 1
164 116 1
164 263 1
164 295 1
164 303 1
164 311 1
164 392 1
164 424 1
164 432 1
164 440 1
164 450 1
164 482 1
164 490 1
164 498 1
165 69 1
165 101 1
165 109 1
165 117 1
165 262 1
165 294 1
165 302 1
165 310 1
165 391 1
165 423 1
165 431 1
165 439 1
165 449 1
165 481 1
165 489 1
165 497 1
166 70 1
166 102 1
166 110 1
166 118 1
166 264 1
166 296 1
166 304 1
166 312 1
166 385 1
166 417 1
166 425 1
166 433 1
166 451 1
166 483 1
166 491 1
166 499 1
167 71 1
167 103 1
167 111 1
167 119 1
167 257 1
167 289 1
167 297 1
167 305 1
167 386 1
167 418 1
167 426 1
167 434 1
167 453 1
167 485 1
167 493 1
167 501 1
168 72 1
168 104 1
168 112 1
168 120 1
168 258 1
168 290 1
168 298 1
168 306 1
168 387 1
168 419 1
168 427 1
168 435 1
168 452 1
168 484 1
168 492 1
168 500 1
169 73 1
169 97 1
169 105 1
169 121 1
169 267 1
169 291 1
169 299 1
169 315 1
169 397 1
169 421 1
169 429 1
169 445 1
169 462 1
169 486 1
169 494 1
169 510 1
170 74 1
170 98 1
170 106 1
170 122 1
170 269 1
170 293 1
170 301 1
170 317 1
170 396 1
170 420 1
170 428 1
170 444 1
170 463 1
170 487 1
170 495 1
170 511 1
171 75 1
171 99 1
171 107 1
171 123 1
171 268 1
171 292 1
171 300 1
171 316 1
171 398 1
171 422 1
171 430 1
171 446 1
171 464 1
171 488 1
171 496 1
171 512 1
172 76 1
172 100 1
172 108 1
172 124 1
172 271 1
172 295 1
172 303 1
172 319 1
172 400 1
172 424 1
172 432 1
172 448 1
172 458 1
172 482 1
172 490 1
172 506 1
173 77 1
173 101 1
173 109 1
173 125 1
173 270 1
173 294 1
173 302 1
173 318 1
173 399 1
173 423 1
173 431 1
173 447 1
173 457 1
173 481 1
173 489 1
173 505 1
174 78 1
174 102 1
174 110 1
174 126 1
174 272 1
174 296 1
174 304 1
174 320 1
174 393 1
174 417 1
174 425 1
174 441 1
174 459 1
174 483 1
174 491 1
174 507 1
175 79 1
175 103 1
175 111 1
175 127 1
175 265 1
175 289 1
175 297 1
175 313 1
175 394 1
175 418 1
175 426 1
175 442 1
175 461 1
175 485 1
175 493 1
175 509 1
176 80 1
176 104 1
176 112 1
176 128 1
176 266 1
176 290 1
176 298 1
176 314 1
176 395 1
176 419 1
176 427 1
176 443 1
176 460 1
176 484 1
176 492 1
176 508 1
177 81 1
177 97 1
177 113 1
177 121 1
177 275 1
177 291 1
177 307 1
177 315 1
177 405 1
177 421 1
177 437 1
177 445 1
177 470 1
177 486 1
177 502 1
177 510 1
178 82 1
178 98 1
178 114 1
178 122 1
178 277 1
178 293 1
178 309 1
178 317 1
178 404 1
178 420 1
178 436 1
178 444 1
178 471 1
178 487 1
178 503 1
178 511 1
179 83 1
179 99 1
179 115 1
179 123 1
179 276 1
179 292 1
179 308 1
179 316 1
179 406 1
179 422 1
179 438 1
179 446 1
179 472 1
179 488 1
179 504 1
179 512 1
180 84 1
180 100 1
180 116 1
180 124 1
180 279 1
180 295 1
180 311 1
180 319 1
180 408 1
180 424 1
180 440 1
180 448 1
180 466 1
180 482 1
180 498 1
180 506 1
181 85 1
181 101 1
181 117 1
181 125 1
181 278 1
181 294 1
181 310 1
181 318 1
181 407 1
181 423 1
181 439 1
181 447 1
181 465 1
181 481 1
181 497 1
181 505 1
182 86 1
182 102 1
182 118 1
182 126 1
182 280 1
182 296 1
182 312 1
182 320 1
182 401 1
182 417 1
182 433 1
182 441 1
182 467 1
182 483 1
182 499 1
182 507 1
183 87 1
183 103 1
183 119 1
183 127 1
183 273 1
183 289 1
183 305 1
183 313 1
183 402 1
183 418 1
183 434 1
183 442 1
183 469 1
183 485 1
183 501 1
183 509 1
184 88 1
184 104 1
184 120 1
184 128 1
184 274 1
184 290 1
184 306 1
184 314 1
184 403 1
184 419 1
184 435 1
184 443 1
184 468 1
184 484 1
184 500 1
184 508 1
185 89 1
185 105 1
185 113 1
185 121 1
185 283 1
185 299 1
185 307 1
185 315 1
185 413 1
185 429 1
185 437 1
185 445 1
185 478 1
185 494 1
185 502 1
185 510 1
186 90 1
186 106 1
186 114 1
186 122 1
186 285 1
186 301 1
186 309 1
186 317 1
186 412 1
186 428 1
186 436 1
186 444 1
186 479 1
186 495 1
186 503 1
186 511 1
187 91 1
187 107 1
187 115 1
187 123 1
187 284 1
187 300 1
187 308 1
187 316 1
187 414 1
187 430 1
187 438 1
187 446 1
187 480 1
187 496 1
187 504 1
187 512 1
188 92 1
188 108 1
188 116 1
188 124 1
188 287 1
188 303 1
188 311 1
188 319 1
188 416 1
188 432 1
188 440 1
188 448 1
188 474 1
188 490 1
188 498 1
188 506 1
189 93 1
189 109 1
189 117 1
189 125 1
189 286 1
189 302 1
189 310 1
189 318 1
189 415 1
189 431 1
189 439 1
189 447 1
189 473 1
189 489 1
189 497 1
189 505 1
190 94 1
190 110 1
190 118 1
190 126 1
190 288 1
190 304 1
190 312 1
190 320 1
190 409 1
190 425 1
190 433 1
190 441 1
190 475 1
190 491 1
190 499 1
190 507 1
191 95 1
191 111 1
191 119 1
191 127 1
191 281 1
191 297 1
191 305 1
191 313 1
191 410 1
191 426 1
191 434 1
191 442 1
191 477 1
191 493 1
191 501 1
191 509 1
192 96 1
192 112 1
192 120 1
192 128 1
192 282 1
192 298 1
192 306 1
192 314 1
192 411 1
192 427 1
192 435 1
192 443 1
192 476 1
192 492 1
192 500 1
192 508 1
193 130 1
193 162 1
193 170 1
193 178 1
193 324 1
193 356 1
193 364 1
193 372 1
193 389 1
193 421 1
193 429 1
193 437 1
193 454 1
193 486 1
193 494 1
193 502 1
194 131 1
194 163 1
194 171 1
194 179 1
194 326 1
194 358 1
194 366 1
194 374 1
194 388 1
194 420 1
194 428 1
194 436 1
194 455 1
194 487 1
194 495 1
194 503 1
195 133 1
195 165 1
195 173 1
195 181 1
195 327 1
195 359 1
195 367 1
195 375 1
195 390 1
195 422 1
195 430 1
195 438 1
195 456 1
195 488 1
195 496 1
195 504 1
196 134 1
196 166 1
196 174 1
196 182 1
196 321 1
196 353 1
196 361 1
196 369 1
196 392 1
196 424 1
196 432 1
196 440 1
196 450 1
196 482 1
196 490 1
196 498 1
197 132 1
197 164 1
197 172 1
197 180 1
197 328 1
197 360 1
197 368 1
197 376 1
197 391 1
197 423 1
197 431 1
197 439 1
197 449 1
197 481 1
197 489 1
197 497 1
198 135 1
198 167 1
198 175 1
198 183 1
198 322 1
198 354 1
198 362 1
198 370 1
198 385 1
198 417 1
198 425 1
198 433 1
198 451 1
198 483 1
198 491 1
198 499 1
199 136 1
199 168 1
199 176 1
199 184 1
199 323 1
199 355 1
199 363 1
199 371 1
199 386 1
199 418 1
199 426 1
199 434 1
199 453 1
199 485 1
199 493 1
199 501 1
200 129 1
200 161 1
200 169 1
200 177 1
200 325 1
200 357 1
200 365 1
200 373 1
200 387 1
200 419 1
200 427 1
200 435 1
200 452 1
200 484 1
200 492 1
200 500 1
201 138 1
201 162 1
201 170 1
201 186 1
201 332 1
201 356 1
201 364 1
201 380 1
201 397 1
201 421 1
201 429 1
201 445 1
201 462 1
201 486 1
201 494 1
201 510 1
202 139 1
202 163 1
202 171 1
202 187 1
202 334 1
202 358 1
202 366 1
202 382 1
202 396 1
202 420 1
202 428 1
202 444 1
202 463 1
202 487 1
202 495 1
202 511 1
203 141 1
203 165 1
203 173 1
203 189 1
203 335 1
203 359 1
203 367 1
203 383 1
203 398 1
203 422 1
203 430 1
203 446 1
203 464 1
203 488 1
203 496 1
203 512 1
204 142 1
204 166 1
204 174 1
204 190 1
204 329 1
204 353 1
204 361 1
204 377 1
204 400 1
204 424 1
204 432 1
204 448 1
204 458 1
204 482 1
204 490 1
204 506 1
205 140 1
205 164 1
205 172 1
205 188 1
205 336 1
205 360 1
205 368 1
205 384 1
205 399 1
205 423 1
205 431 1
205 447 1
205 457 1
205 481 1
205 489 1
205 505 1
206 143 1
206 167 1
206 175 1
206 191 1
206 330 1
206 354 1
206 362 1
206 378 1
206 393 1
206 417 1
206 425 1
206 441 1
206 459 1
206 483 1
206 491 1
206 507 1
207 144 1
207 168 1
207 176 1
207 192 1
207 331 1
207 355 1
207 363 1
207 379 1
207 394 1
207 418 1
207 426 1
207 442 1
207 461 1
207 485 1
207 493 1
207 509 1
208 137 1
208 161 1
208 169 1
208 185 1
208 333 1
208 357 1
208 365 1
208 381 1
208 395 1
208 419 1
208 427 1
208 443 1
208 460 1
208 484 1
208 492 1
208 508 1
209 146 1
209 162 1
209 178 1
209 186 1
209 340 1
209 356 1
209 372 1
209 380 1
209 405 1
209 421 1
209 437 1
209 445 1
209 470 1
209 486 1
209 502 1
209 510 1
210 147 1
210 163 1
210 179 1
210 187 1
210 342 1
210 358 1
210 374 1
210 382 1
210 404 1
210 420 1
210 436 1
210 444 1
210 471 1
210 487 1
210 503 1
210 511 1
211 149 1
211 165 1
211 181 1
211 189 1
211 343 1
211 359 1
211 375 1
211 383 1
211 406 1
211 422 1
211 438 1
211 446 1
211 472 1
211 488 1
211 504 1
211 512 1
212 150 1
212 166 1
212 182 1
212 190 1
212 337 1
212 353 1
212 369 1
212 377 1
212 408 1
212 424 1
212 440 1
212 448 1
212 466 1
212 482 1
212 498 1
212 506 1
213 148 1
213 164 1
213 180 1
213 188 1
213 344 1
213 360 1
213 376 1
213 384 1
213 407 1
213 423 1
213 439 1
213 447 1
213 465 1
213 481 1
213 497 1
213 505 1
214 151 1
214 167 1
214 183 1
214 191 1
214 338 1
214 354 1
214 370 1
214 378 1
214 401 1
214 417 1
214 433 1
214 441 1
214 467 1
214 483 1
214 499 1
214 507 1
215 152 1
215 168 1
215 184 1
215 192 1
215 339 1
215 355 1
215 371 1
215 379 1
215 402 1
215 418 1
215 434 1
215 442 1
215 469 1
215 485 1
215 501 1
215 509 1
216 145 1
216 161 1
216 177 1
216 185 1
216 341 1
216 357 1
216 373 1
216 381 1
216 403 1
216 419 1
216 435 1
216 443 1
216 468 1
216 484 1
216 500 1
216 508 1
217 154 1
217 170 1
217 178 1
217 186 1
217 348 1
217 364 1
217 372 1
217 380 1
217 413 1
217 429 1
217 437 1
217 445 1
217 478 1
217 494 1
217 502 1
217 510 1
218 155 1
218 171 1
218 179 1
218 187 1
218 350 1
218 366 1
218 374 1
218 382 1
218 412 1
218 428 1
218 436 1
218 444 1
218 479 1
218 495 1
218 503 1
218 511 1
219 157 1
219 173 1
219 181 1
219 189 1
219 351 1
219 367 1
219 375 1
219 383 1
219 414 1
219 430 1
219 438 1
219 446 1
219 480 1
219 496 1
219 504 1
219 512 1
220 158 1
220 174 1
220 182 1
220 190 1
220 345 1
220 361 1
220 369 1
220 377 1
220 416 1
220 432 1
220 440 1
220 448 1
220 474 1
220 490 1
220 498 1
220 506 1
221 156 1
221 172 1
221 180 1
221 188 1
221 352 1
221 368 1
221 376 1
221 384 1
221 415 1
221 431 1
221 439 1
221 447 1
221 473 1
221 489 1
221 497 1
221 505 1
222 159 1
222 175 1
222 183 1
222 191 1
222 346 1
222 362 1
222 370 1
222 378 1
222 409 1
222 425 1
222 433 1
222 441 1
222 475 1
222 491 1
222 499 1
222 507 1
223 160 1
223 176 1
223 184 1
223 192 1
223 347 1
223 363 1
223 371 1
223 379 1
223 410 1
223 426 1
223 434 1
223 442 1
223 477 1
223 493 1
223 501 1
223 509 1
224 153 1
224 169 1
224 177 1
224 185 1
224 349 1
224 365 1
224 373 1
224 381 1
224 411 1
224 427 1
224 435 1
224 443 1
224 476 1
224 492 1
224 500 1
224 508 1
225 194 1
225 226 1
225 234 1
225 242 1
225 259 1
225 291 1
225 299 1
225 307 1
225 324 1
225 356 1
225 364 1
225 372 1
225 389 1
225 421 1
225 429 1
225 437 1
226 195 1
226 227 1
226 235 1
226 243 1
226 261 1
226 293 1
226 301 1
226 309 1
226 326 1
226 358 1
226 366 1
226 374 1
226 388 1
226 420 1
226 428 1
226 436 1
227 197 1
227 229 1
227 237 1
227 245 1
227 260 1
227 292 1
227 300 1
227 308 1
227 327 1
227 359 1
227 367 1
227 375 1
227 390 1
227 422 1
227 430 1
227 438 1
228 198 1
228 230 1
228 238 1
228 246 1
228 263 1
228 295 1
228 303 1
228 311 1
228 321 1
228 353 1
228 361 1
228 369 1
228 392 1
228 424 1
228 432 1
228 440 1
229 196 1
229 228 1
229 236 1
229 244 1
229 262 1
229 294 1
229 302 1
229 310 1
229 328 1
229 360 1
229 368 1
229 376 1
229 391 1
229 423 1
229 431 1
229 439 1
230 199 1
230 231 1
230 239 1
230 247 1
230 264 1
230 296 1
230 304 1
230 312 1
230 322 1
230 354 1
230 362 1
230 370 1
230 385 1
230 417 1
230 425 1
230 433 1
231 200 1
231 232 1
231 240 1
231 248 1
231 257 1
231 289 1
231 297 1
231 305 1
231 323 1
231 355 1
231 363 1
231 371 1
231 386 1
231 418 1
231 426 1
231 434 1
232 193 1
232 225 1
232 233 1
232 241 1
232 258 1
232 290 1
232 298 1
232 306 1
232 325 1
232 357 1
232 365 1
232 373 1
232 387 1
232 419 1
232 427 1
232 435 1
233 202 1
233 226 1
233 234 1
233 250 1
233 267 1
233 291 1
233 299 1
233 315 1
233 332 1
233 356 1
233 364 1
233 380 1
233 397 1
233 421 1
233 429 1
233 445 1
234 203 1
234 227 1
234 235 1
234 251 1
234 269 1
234 293 1
234 301 1
234 317 1
234 334 1
234 358 1
234 366 1
234 382 1
234 396 1
234 420 1
234 428 1
234 444 1
235 205 1
235 229 1
235 237 1
235 253 1
235 268 1
235 292 1
235 300 1
235 316 1
235 335 1
235 359 1
235 367 1
235 383 1
235 398 1
235 422 1
235 430 1
235 446 1
236 206 1
236 230 1
236 238 1
236 254 1
236 271 1
236 295 1
236 303 1
236 319 1
236 329 1
236 353 1
236 361 1
236 377 1
236 400 1
236 424 1
236 432 1
236 448 1
237 204 1
237 228 1
237 236 1
237 252 1
237 270 1
237 294 1
237 302 1
237 318 1
237 336 1
237 360 1
237 368 1
237 384 1
237 399 1
237 423 1
237 431 1
237 447 1
238 207 1
238 231 1
238 239 1
238 255 1
238 272 1
238 296 1
238 304 1
238 320 1
238 330 1
238 354 1
238 362 1
238 378 1
238 393 1
238 417 1
238 425 1
238 441 1
239 208 1
239 232 1
239 240 1
239 256 1
239 265 1
239 289 1
239 297 1
239 313 1
239 331 1
239 355 1
239 363 1
239 379 1
239 394 1
239 418 1
239 426 1
239 442 1
240 201 1
240 225 1
240 233 1
240 249 1
240 266 1
240 290 1
240 298 1
240 314 1
240 333 1
240 357 1
240 365 1
240 381 1
240 395 1
240 419 1
240 427 1
240 443 1
241 210 1
241 226 1
241 242 1
241 250 1
241 275 1
241 291 1
241 307 1
241 315 1
241 340 1
241 356 1
241 372 1
241 380 1
241 405 1
241 421 1
241 437 1
241 445 1
242 211 1
242 227 1
242 243 1
242 251 1
242 277 1
242 293 1
242 309 1
242 317 1
242 342 1
242 358 1
242 374 1
242 382 1
242 404 1
242 420 1
242 436 1
242 444 1
243 213 1
243 229 1
243 245 1
243 253 1
243 276 1
243 292 1
243 308 1
243 316 1
243 343 1
243 359 1
243 375 1
243 383 1
243 406 1
243 422 1
243 438 1
243 446 1
244 214 1
244 230 1
244 246 1
244 254 1
244 279 1
244 295 1
244 311 1
244 319 1
244 337 1
244 353 1
244 369 1
244 377 1
244 408 1
244 424 1
244 440 1
244 448 1
245 212 1
245 228 1
245 244 1
245 252 1
245 278 1
245 294 1
245 310 1
245 318 1
245 344 1
245 360 1
245 376 1
245 384 1
245 407 1
245 423 1
245 439 1
245 447 1
246 215 1
246 231 1
246 247 1
246 255 1
246 280 1
246 296 1
246 312 1
246 320 1
246 338 1
246 354 1
246 370 1
246 378 1
246 401 1
246 417 1
246 433 1
246 441 1
247 216 1
247 232 1
247 248 1
247 256 1
247 273 1
247 289 1
247 305 1
247 313 1
247 339 1
247 355 1
247 371 1
247 379 1
247 402 1
247 418 1
247 434 1
247 442 1
248 209 1
248 225 1
248 241 1
248 249 1
248 274 1
248 290 1
248 306 1
248 314 1
248 341 1
248 357 1
248 373 1
248 381 1
248 403 1
248 419 1
248 435 1
248 443 1
249 218 1
249 234 1
249 242 1
249 250 1
249 283 1
249 299 1
249 307 1
249 315 1
249 348 1
249 364 1
249 372 1
249 380 1
249 413 1
249 429 1
249 437 1
249 445 1
250 219 1
250 235 1
250 243 1
250 251 1
250 285 1
250 301 1
250 309 1
250 317 1
250 350 1
250 366 1
250 374 1
250 382 1
250 412 1
250 428 1
250 436 1
250 444 1
251 221 1
251 237 1
251 245 1
251 253 1
251 284 1
251 300 1
251 308 1
251 316 1
251 351 1
251 367 1
251 375 1
251 383 1
251 414 1
251 430 1
251 438 1
251 446 1
252 222 1
252 238 1
252 246 1
252 254 1
252 287 1
252 303 1
252 311 1
252 319 1
252 345 1
252 361 1
252 369 1
252 377 1
252 416 1
252 432 1
252 440 1
252 448 1
253 220 1
253 236 1
253 244 1
253 252 1
253 286 1
253 302 1
253 310 1
253 318 1
253 352 1
253 368 1
253 376 1
253 384 1
253 415 1
253 431 1
253 439 1
253 447 1
254 223 1
254 239 1
254 247 1
254 255 1
254 288 1
254 304 1
254 312 1
254 320 1
254 346 1
254 362 1
254 370 1
254 378 1
254 409 1
254 425 1
254 433 1
254 441 1
255 224 1
255 240 1
255 248 1
255 256 1
255 281 1
255 297 1
255 305 1
255 313 1
255 347 1
255 363 1
255 371 1
255 379 1
255 410 1
255 426 1
255 434 1
255 442 1
256 217 1
256 233 1
256 241 1
256 249 1
256 282 1
256 298 1
256 306 1
256 314 1
256 349 1
256 365 1
256 373 1
256 381 1
256 411 1
256 427 1
256 435 1
256 443 1
