%%MatrixMarket matrix coordinate integer general
128 256 2048
1 1 1
1 17 1
1 21 1
1 25 1
1 129 1
1 145 1
1 149 1
1 153 1
1 161 1
1 177 1
1 181 1
1 185 1
1 193 1
1 209 1
1 213 1
1 217 1
2 2 1
2 18 1
2 22 1
2 26 1
2 130 1
2 146 1
2 150 1
2 154 1
2 162 1
2 178 1
2 182 1
2 186 1
2 194 1
2 210 1
2 214 1
2 218 1
3 3 1
3 19 1
3 23 1
3 27 1
3 131 1
3 147 1
3 151 1
3 155 1
3 163 1
3 179 1
3 183 1
3 187 1
3 195 1
3 211 1
3 215 1
3 219 1
4 4 1
4 20 1
4 24 1
4 28 1
4 132 1
4 148 1
4 152 1
4 156 1
4 164 1
4 180 1
4 184 1
4 188 1
4 196 1
4 212 1
4 216 1
4 220 1
5 5 1
5 17 1
5 21 1
5 29 1
5 133 1
5 145 1
5 149 1
5 157 1
5 165 1
5 177 1
5 181 1
5 189 1
5 197 1
5 209 1
5 213 1
5 221 1
6 6 1
6 18 1
6 22 1
6 30 1
6 134 1
6 146 1
6 150 1
6 158 1
6 166 1
6 178 1
6 182 1
6 190 1
6 198 1
6 210 1
6 214 1
6 222 1
7 7 1
7 19 1
7 23 1
7 31 1
7 135 1
7 147 1
7 151 1
7 159 1
7 167 1
7 179 1
7 183 1
7 191 1
7 199 1
7 211 1
7 215 1
7 223 1
8 8 1
8 20 1
8 24 1
8 32 1
8 136 1
8 148 1
8 152 1
8 160 1
8 168 1
8 180 1
8 184 1
8 192 1
8 200 1
8 212 1
8 216 1
8 224 1
9 9 1
9 17 1
9 25 1
9 29 1
9 137 1
9 145 1
9 153 1
9 157 1
9 169 1
9 177 1
9 185 1
9 189 1
9 201 1
9 209 1
9 217 1
9 221 1
10 10 1
10 18 1
10 26 1
10 30 1
10 138 1
10 146 1
10 154 1
10 158 1
10 170 1
10 178 1
10 186 1
10 190 1
10 202 1
10 210 1
10 218 1
10 222 1
11 11 1
11 19 1
11 27 1
11 31 1
11 139 1
11 147 1
11 155 1
11 159 1
11 171 1
11 179 1
11 187 1
11 191 1
11 203 1
11 211 1
11 219 1
11 223 1
12 12 1
12 20 1
12 28 1
12 32 1
12 140 1
12 148 1
12 156 1
12 160 1
12 172 1
12 180 1
12 188 1
12 192 1
12 204 1
12 212 1
12 220 1
12 224 1
13 13 1
13 21 1
13 25 1
13 29 1
13 141 1
13 149 1
13 153 1
13 157 1
13 173 1
13 181 1
13 185 1
13 189 1
13 205 1
13 213 1
13 217 1
13 221 1
14 14 1
14 22 1
14 26 1
14 30 1
14 142 1
14 150 1
14 154 1
14 158 1
14 174 1
14 182 1
14 186 1
14 190 1
14 206 1
14 214 1
14 218 1
14 222 1
15 15 1
15 23 1
15 27 1
15 31 1
15 143 1
15 151 1
15 155 1
15 159 1
15 175 1
15 183 1
15 187 1
15 191 1
15 207 1
15 215 1
15 219 1
15 223 1
16 16 1
16 24 1
16 28 1
16 32 1
16 144 1
16 152 1
16 156 1
16 160 1
16 176 1
16 184 1
16 188 1
16 192 1
16 208 1
16 216 1
16 220 1
16 224 1
17 33 1
17 49 1
17 53 1
17 57 1
17 129 1
17 145 1
17 149 1
17 153 1
17 161 1
17 177 1
17 181 1
17 185 1
17 225 1
17 241 1
17 245 1
17 249 1
18 34 1
18 50 1
18 54 1
18 58 1
18 130 1
18 146 1
18 150 1
18 154 1
18 162 1
18 178 1
18 182 1
18 186 1
18 226 1
18 242 1
18 246 1
18 250 1
19 35 1
19 51 1
19 55 1
19 59 1
19 131 1
19 147 1
19 151 1
19 155 1
19 163 1
19 179 1
19 183 1
19 187 1
19 227 1
19 243 1
19 247 1
19 251 1
20 36 1
20 52 1
20 56 1
20 60 1
20 132 1
20 148 1
20 152 1
20 156 1
20 164 1
20 180 1
20 184 1
20 188 1
20 228 1
20 244 1
20 248 1
20 252 1
21 37 1
21 49 1
21 53 1
21 61 1
21 133 1
21 145 1
21 149 1
21 157 1
21 165 1
21 177 1
21 181 1
21 189 1
21 229 1
21 241 1
21 245 1
21 253 1
22 38 1
22 50 1
22 54 1
22 62 1
22 134 1
22 146 1
22 150 1
22 158 1
22 166 1
22 178 1
22 182 1
22 190 1
22 230 1
22 242 1
22 246 1
22 254 1
23 39 1
23 51 1
23 55 1
23 63 1
23 135 1
23 147 1
23 151 1
23 159 1
23 167 1
23 179 1
23 183 1
23 191 1
23 231 1
23 243 1
23 247 1
23 255 1
24 40 1
24 52 1
24 56 1
24 64 1
24 136 1
24 148 1
24 152 1
24 160 1
24 168 1
24 180 1
24 184 1
24 192 1
24 232 1
24 244 1
24 248 1
24 256 1
25 41 1
25 49 1
25 57 1
25 61 1
25 137 1
25 145 1
25 153 1
25 157 1
25 169 1
25 177 1
25 185 1
25 189 1
25 233 1
25 241 1
25 249 1
25 253 1
26 42 1
26 50 1
26 58 1
26 62 1
26 138 1
26 146 1
26 154 1
26 158 1
26 170 1
26 178 1
26 186 1
26 190 1
26 234 1
26 242 1
26 250 1
26 254 1
27 43 1
27 51 1
27 59 1
27 63 1
27 139 1
27 147 1
27 155 1
27 159 1
27 171 1
27 179 1
27 187 1
27 191 1
27 235 1
27 243 1
27 251 1
27 255 1
28 44 1
28 52 1
28 60 1
28 64 1
28 140 1
28 148 1
28 156 1
28 160 1
28 172 1
28 180 1
28 188 1
28 192 1
28 236 1
28 244 1
28 252 1
28 256 1
29 45 1
29 53 1
29 57 1
29 61 1
29 141 1
29 149 1
29 153 1
29 157 1
29 173 1
29 181 1
29 185 1
29 189 1
29 237 1
29 245 1
29 249 1
29 253 1
30 46 1
30 54 1
30 58 1
30 62 1
30 142 1
30 150 1
30 154 1
30 158 1
30 174 1
30 182 1
30 186 1
30 190 1
30 238 1
30 246 1
30 250 1
30 254 1
31 47 1
31 55 1
31 59 1
31 63 1
31 143 1
31 151 1
31 155 1
31 159 1
31 175 1
31 183 1
31 187 1
31 191 1
31 239 1
31 247 1
31 251 1
31 255 1
32 48 1
32 56 1
32 60 1
32 64 1
32 144 1
32 152 1
32 156 1
32 160 1
32 176 1
32 184 1
32 188 1
32 192 1
32 240 1
32 248 1
32 252 1
32 256 1
33 65 1
33 81 1
33 85 1
33 89 1
33 129 1
33 145 1
33 149 1
33 153 1
33 193 1
33 209 1
33 213 1
33 217 1
33 225 1
33 241 1
33 245 1
33 249 1
34 66 1
34 82 1
34 86 1
34 90 1
34 130 1
34 146 1
34 150 1
34 154 1
34 194 1
34 210 1
34 214 1
34 218 1
34 226 1
34 242 1
34 246 1
34 250 1
35 67 1
35 83 1
35 87 1
35 91 1
35 131 1
35 147 1
35 151 1
35 155 1
35 195 1
35 211 1
35 215 1
35 219 1
35 227 1
35 243 1
35 247 1
35 251 1
36 68 1
36 84 1
36 88 1
36 92 1
36 132 1
36 148 1
36 152 1
36 156 1
36 196 1
36 212 1
36 216 1
36 220 1
36 228 1
36 244 1
36 248 1
36 252 1
37 69 1
37 81 1
37 85 1
37 93 1
37 133 1
37 145 1
37 149 1
37 157 1
37 197 1
37 209 1
37 213 1
37 221 1
37 229 1
37 241 1
37 245 1
37 253 1
38 70 1
38 82 1
38 86 1
38 94 1
38 134 1
38 146 1
38 150 1
38 158 1
38 198 1
38 210 1
38 214 1
38 222 1
38 230 1
38 242 1
38 246 1
38 254 1
39 71 1
39 83 1
39 87 1
39 95 1
39 135 1
39 147 1
39 151 1
39 159 1
39 199 1
39 211 1
39 215 1
39 223 1
39 231 1
39 243 1
39 247 1
39 255 1
40 72 1
40 84 1
40 88 1
40 96 1
40 136 1
40 148 1
40 152 1
40 160 1
40 200 1
40 212 1
40 216 1
40 224 1
40 232 1
40 244 1
40 248 1
40 256 1
41 73 1
41 81 1
41 89 1
41 93 1
41 137 1
41 145 1
41 153 1
41 157 1
41 201 1
41 209 1
41 217 1
41 221 1
41 233 1
41 241 1
41 249 1
41 253 1
42 74 1
42 82 1
42 90 1
42 94 1
42 138 1
42 146 1
42 154 1
42 158 1
42 202 1
42 210 1
42 218 1
42 222 1
42 234 1
42 242 1
42 250 1
42 254 1
43 75 1
43 83 1
43 91 1
43 95 1
43 139 1
43 147 1
43 155 1
43 159 1
43 203 1
43 211 1
43 219 1
43 223 1
43 235 1
43 243 1
43 251 1
43 255 1
44 76 1
44 84 1
44 92 1
44 96 1
44 140 1
44 148 1
44 156 1
44 160 1
44 204 1
44 212 1
44 220 1
44 224 1
44 236 1
44 244 1
44 252 1
44 256 1
45 77 1
45 85 1
45 89 1
45 93 1
45 141 1
45 149 1
45 153 1
45 157 1
45 205 1
45 213 1
45 217 1
45 221 1
45 237 1
45 245 1
45 249 1
45 253 1
46 78 1
46 86 1
46 90 1
46 94 1
46 142 1
46 150 1
46 154 1
46 158 1
46 206 1
46 214 1
46 218 1
46 222 1
46 238 1
46 246 1
46 250 1
46 254 1
47 79 1
47 87 1
47 91 1
47 95 1
47 143 1
47 151 1
47 155 1
47 159 1
47 207 1
47 215 1
47 219 1
47 223 1
47 239 1
47 247 1
47 251 1
47 255 1
48 80 1
48 88 1
48 92 1
48 96 1
48 144 1
48 152 1
48 156 1
48 160 1
48 208 1
48 216 1
48 220 1
48 224 1
48 240 1
48 248 1
48 252 1
48 256 1
49 97 1
49 113 1
49 117 1
49 121 1
49 161 1
49 177 1
49 181 1
49 185 1
49 193 1
49 209 1
49 213 1
49 217 1
49 225 1
49 241 1
49 245 1
49 249 1
50 98 1
50 114 1
50 118 1
50 122 1
50 162 1
50 178 1
50 182 1
50 186 1
50 194 1
50 210 1
50 214 1
50 218 1
50 226 1
50 242 1
50 246 1
50 250 1
51 99 1
51 115 1
51 119 1
51 123 1
51 163 1
51 179 1
51 183 1
51 187 1
51 195 1
51 211 1
51 215 1
51 219 1
51 227 1
51 243 1
51 247 1
51 251 1
52 100 1
52 116 1
52 120 1
52 124 1
52 164 1
52 180 1
52 184 1
52 188 1
52 196 1
52 212 1
52 216 1
52 220 1
52 228 1
52 244 1
52 248 1
52 252 1
53 101 1
53 113 1
53 117 1
53 125 1
53 165 1
53 177 1
53 181 1
53 189 1
53 197 1
53 209 1
53 213 1
53 221 1
53 229 1
53 241 1
53 245 1
53 253 1
54 102 1
54 114 1
54 118 1
54 126 1
54 166 1
54 178 1
54 182 1
54 190 1
54 198 1
54 210 1
54 214 1
54 222 1
54 230 1
54 242 1
54 246 1
54 254 1
55 103 1
55 115 1
55 119 1
55 127 1
55 167 1
55 179 1
55 183 1
55 191 1
55 199 1
55 211 1
55 215 1
55 223 1
55 231 1
55 243 1
55 247 1
55 255 1
56 104 1
56 116 1
56 120 1
56 128 1
56 168 1
56 180 1
56 184 1
56 192 1
56 200 1
56 212 1
56 216 1
56 224 1
56 232 1
56 244 1
56 248 1
56 256 1
57 105 1
57 113 1
57 121 1
57 125 1
57 169 1
57 177 1
57 185 1
57 189 1
57 201 1
57 209 1
57 217 1
57 221 1
57 233 1
57 241 1
57 249 1
57 253 1
58 106 1
58 114 1
58 122 1
58 126 1
58 170 1
58 178 1
58 186 1
58 190 1
58 202 1
58 210 1
58 218 1
58 222 1
58 234 1
58 242 1
58 250 1
58 254 1
59 107 1
59 115 1
59 123 1
59 127 1
59 171 1
59 179 1
59 187 1
59 191 1
59 203 1
59 211 1
59 219 1
59 223 1
59 235 1
59 243 1
59 251 1
59 255 1
60 108 1
60 116 1
60 124 1
60 128 1
60 172 1
60 180 1
60 188 1
60 192 1
60 204 1
60 212 1
60 220 1
60 224 1
60 236 1
60 244 1
60 252 1
60 256 1
61 109 1
61 117 1
61 121 1
61 125 1
61 173 1
61 181 1
61 185 1
61 189 1
61 205 1
61 213 1
61 217 1
61 221 1
61 237 1
61 245 1
61 249 1
61 253 1
62 110 1
62 118 1
62 122 1
62 126 1
62 174 1
62 182 1
62 186 1
62 190 1
62 206 1
62 214 1
62 218 1
62 222 1
62 238 1
62 246 1
62 250 1
62 254 1
63 111 1
63 119 1
63 123 1
63 127 1
63 175 1
63 183 1
63 187 1
63 191 1
63 207 1
63 215 1
63 219 1
63 223 1
63 239 1
63 247 1
63 251 1
63 255 1
64 112 1
64 120 1
64 124 1
64 128 1
64 176 1
64 184 1
64 188 1
64 192 1
64 208 1
64 216 1
64 220 1
64 224 1
64 240 1
64 248 1
64 252 1
64 256 1
65 1 1
65 20 1
65 24 1
65 31 1
65 129 1
65 148 1
65 152 1
65 159 1
65 161 1
65 180 1
65 184 1
65 191 1
65 226 1
65 241 1
65 245 1
65 256 1
66 2 1
66 17 1
66 21 1
66 32 1
66 130 1
66 145 1
66 149 1
66 160 1
66 162 1
66 177 1
66 181 1
66 192 1
66 227 1
66 242 1
66 246 1
66 253 1
67 3 1
67 18 1
67 22 1
67 29 1
67 131 1
67 146 1
67 150 1
67 157 1
67 163 1
67 178 1
67 182 1
67 189 1
67 228 1
67 243 1
67 247 1
67 254 1
68 4 1
68 19 1
68 23 1
68 30 1
68 132 1
68 147 1
68 151 1
68 158 1
68 164 1
68 179 1
68 183 1
68 190 1
68 225 1
68 244 1
68 248 1
68 255 1
69 5 1
69 20 1
69 28 1
69 31 1
69 133 1
69 148 1
69 156 1
69 159 1
69 165 1
69 180 1
69 188 1
69 191 1
69 230 1
69 241 1
69 249 1
69 256 1
70 6 1
70 17 1
70 25 1
70 32 1
70 134 1
70 145 1
70 153 1
70 160 1
70 166 1
70 177 1
70 185 1
70 192 1
70 231 1
70 242 1
70 250 1
70 253 1
71 7 1
71 18 1
71 26 1
71 29 1
71 135 1
71 146 1
71 154 1
71 157 1
71 167 1
71 178 1
71 186 1
71 189 1
71 232 1
71 243 1
71 251 1
71 254 1
72 8 1
72 19 1
72 27 1
72 30 1
72 136 1
72 147 1
72 155 1
72 158 1
72 168 1
72 179 1
72 187 1
72 190 1
72 229 1
72 244 1
72 252 1
72 255 1
73 9 1
73 24 1
73 28 1
73 31 1
73 137 1
73 152 1
73 156 1
73 159 1
73 169 1
73 184 1
73 188 1
73 191 1
73 234 1
73 245 1
73 249 1
73 256 1
74 10 1
74 21 1
74 25 1
74 32 1
74 138 1
74 149 1
74 153 1
74 160 1
74 170 1
74 181 1
74 185 1
74 192 1
74 235 1
74 246 1
74 250 1
74 253 1
75 11 1
75 22 1
75 26 1
75 29 1
75 139 1
75 150 1
75 154 1
75 157 1
75 171 1
75 182 1
75 186 1
75 189 1
75 236 1
75 247 1
75 251 1
75 254 1
76 12 1
76 23 1
76 27 1
76 30 1
76 140 1
76 151 1
76 155 1
76 158 1
76 172 1
76 183 1
76 187 1
76 190 1
76 233 1
76 248 1
76 252 1
76 255 1
77 13 1
77 20 1
77 24 1
77 28 1
77 141 1
77 148 1
77 152 1
77 156 1
77 173 1
77 180 1
77 184 1
77 188 1
77 238 1
77 241 1
77 245 1
77 249 1
78 14 1
78 17 1
78 21 1
78 25 1
78 142 1
78 145 1
78 149 1
78 153 1
78 174 1
78 177 1
78 181 1
78 185 1
78 239 1
78 242 1
78 246 1
78 250 1
79 15 1
79 18 1
79 22 1
79 26 1
79 143 1
79 146 1
79 150 1
79 154 1
79 175 1
79 178 1
79 182 1
79 186 1
79 240 1
79 243 1
79 247 1
79 251 1
80 16 1
80 19 1
80 23 1
80 27 1
80 144 1
80 147 1
80 151 1
80 155 1
80 176 1
80 179 1
80 183 1
80 187 1
80 237 1
80 244 1
80 248 1
80 252 1
81 33 1
81 52 1
81 56 1
81 63 1
81 129 1
81 148 1
81 152 1
81 159 1
81 193 1
81 212 1
81 216 1
81 223 1
81 226 1
81 241 1
81 245 1
81 256 1
82 34 1
82 49 1
82 53 1
82 64 1
82 130 1
82 145 1
82 149 1
82 160 1
82 194 1
82 209 1
82 213 1
82 224 1
82 227 1
82 242 1
82 246 1
82 253 1
83 35 1
83 50 1
83 54 1
83 61 1
83 131 1
83 146 1
83 150 1
83 157 1
83 195 1
83 210 1
83 214 1
83 221 1
83 228 1
83 243 1
83 247 1
83 254 1
84 36 1
84 51 1
84 55 1
84 62 1
84 132 1
84 147 1
84 151 1
84 158 1
84 196 1
84 211 1
84 215 1
84 222 1
84 225 1
84 244 1
84 248 1
84 255 1
85 37 1
85 52 1
85 60 1
85 63 1
85 133 1
85 148 1
85 156 1
85 159 1
85 197 1
85 212 1
85 220 1
85 223 1
85 230 1
85 241 1
85 249 1
85 256 1
86 38 1
86 49 1
86 57 1
86 64 1
86 134 1
86 145 1
86 153 1
86 160 1
86 198 1
86 209 1
86 217 1
86 224 1
86 231 1
86 242 1
86 250 1
86 253 1
87 39 1
87 50 1
87 58 1
87 61 1
87 135 1
87 146 1
87 154 1
87 157 1
87 199 1
87 210 1
87 218 1
87 221 1
87 232 1
87 243 1
87 251 1
87 254 1
88 40 1
88 51 1
88 59 1
88 62 1
88 136 1
88 147 1
88 155 1
88 158 1
88 200 1
88 211 1
88 219 1
88 222 1
88 229 1
88 244 1
88 252 1
88 255 1
89 41 1
89 56 1
89 60 1
89 63 1
89 137 1
89 152 1
89 156 1
89 159 1
89 201 1
89 216 1
89 220 1
89 223 1
89 234 1
89 245 1
89 249 1
89 256 1
90 42 1
90 53 1
90 57 1
90 64 1
90 138 1
90 149 1
90 153 1
90 160 1
90 202 1
90 213 1
90 217 1
90 224 1
90 235 1
90 246 1
90 250 1
90 253 1
91 43 1
91 54 1
91 58 1
91 61 1
91 139 1
91 150 1
91 154 1
91 157 1
91 203 1
91 214 1
91 218 1
91 221 1
91 236 1
91 247 1
91 251 1
91 254 1
92 44 1
92 55 1
92 59 1
92 62 1
92 140 1
92 151 1
92 155 1
92 158 1
92 204 1
92 215 1
92 219 1
92 222 1
92 233 1
92 248 1
92 252 1
92 255 1
93 45 1
93 52 1
93 56 1
93 60 1
93 141 1
93 148 1
93 152 1
93 156 1
93 205 1
93 212 1
93 216 1
93 220 1
93 238 1
93 241 1
93 245 1
93 249 1
94 46 1
94 49 1
94 53 1
94 57 1
94 142 1
94 145 1
94 149 1
94 153 1
94 206 1
94 209 1
94 213 1
94 217 1
94 239 1
94 242 1
94 246 1
94 250 1
95 47 1
95 50 1
95 54 1
95 58 1
95 143 1
95 146 1
95 150 1
95 154 1
95 207 1
95 210 1
95 214 1
95 218 1
95 240 1
95 243 1
95 247 1
95 251 1
96 48 1
96 51 1
96 55 1
96 59 1
96 144 1
96 147 1
96 151 1
96 155 1
96 208 1
96 211 1
96 215 1
96 219 1
96 237 1
96 244 1
96 248 1
96 252 1
97 65 1
97 84 1
97 88 1
97 95 1
97 161 1
97 180 1
97 184 1
97 191 1
97 193 1
97 212 1
97 216 1
97 223 1
97 226 1
97 241 1
97 245 1
97 256 1
98 66 1
98 81 1
98 85 1
98 96 1
98 162 1
98 177 1
98 181 1
98 192 1
98 194 1
98 209 1
98 213 1
98 224 1
98 227 1
98 242 1
98 246 1
98 253 1
99 67 1
99 82 1
99 86 1
99 93 1
99 163 1
99 178 1
99 182 1
99 189 1
99 195 1
99 210 1
99 214 1
99 221 1
99 228 1
99 243 1
99 247 1
99 254 1
100 68 1
100 83 1
100 87 1
100 94 1
100 164 1
100 179 1
100 183 1
100 190 1
100 196 1
100 211 1
100 215 1
100 222 1
100 225 1
100 244 1
100 248 1
100 255 1
101 69 1
101 84 1
101 92 1
101 95 1
101 165 1
101 180 1
101 188 1
101 191 1
101 197 1
101 212 1
101 220 1
101 223 1
101 230 1
101 241 1
101 249 1
101 256 1
102 70 1
102 81 1
102 89 1
102 96 1
102 166 1
102 177 1
102 185 1
102 192 1
102 198 1
102 209 1
102 217 1
102 224 1
102 231 1
102 242 1
102 250 1
102 253 1
103 71 1
103 82 1
103 90 1
103 93 1
103 167 1
103 178 1
103 186 1
103 189 1
103 199 1
103 210 1
103 218 1
103 221 1
103 232 1
103 243 1
103 251 1
103 254 1
104 72 1
104 83 1
104 91 1
104 94 1
104 168 1
104 179 1
104 187 1
104 190 1
104 200 1
104 211 1
104 219 1
104 222 1
104 229 1
104 244 1
104 252 1
104 255 1
105 73 1
105 88 1
105 92 1
105 95 1
105 169 1
105 184 1
105 188 1
105 191 1
105 201 1
105 216 1
105 220 1
105 223 1
105 234 1
105 245 1
105 249 1
105 256 1
106 74 1
106 85 1
106 89 1
106 96 1
106 170 1
106 181 1
106 185 1
106 192 1
106 202 1
106 213 1
106 217 1
106 224 1
106 235 1
106 246 1
106 250 1
106 253 1
107 75 1
107 86 1
107 90 1
107 93 1
107 171 1
107 182 1
107 186 1
107 189 1
107 203 1
107 214 1
107 218 1
107 221 1
107 236 1
107 247 1
107 251 1
107 254 1
108 76 1
108 87 1
108 91 1
108 94 1
108 172 1
108 183 1
108 187 1
108 190 1
108 204 1
108 215 1
108 219 1
108 222 1
108 233 1
108 248 1
108 252 1
108 255 1
109 77 1
109 84 1
109 88 1
109 92 1
109 173 1
109 180 1
109 184 1
109 188 1
109 205 1
109 212 1
109 216 1
109 220 1
109 238 1
109 241 1
109 245 1
109 249 1
110 78 1
110 81 1
110 85 1
110 89 1
110 174 1
110 177 1
110 181 1
110 185 1
110 206 1
110 209 1
110 213 1
110 217 1
110 239 1
110 242 1
110 246 1
110 250 1
111 79 1
111 82 1
111 86 1
111 90 1
111 175 1
111 178 1
111 182 1
111 186 1
111 207 1
111 210 1
111 214 1
111 218 1
111 240 1
111 243 1
111 247 1
111 251 1
112 80 1
112 83 1
112 87 1
112 91 1
112 176 1
112 179 1
112 183 1
112 187 1
112 208 1
112 211 1
112 215 1
112 219 1
112 237 1
112 244 1
112 248 1
112 252 1
113 97 1
113 116 1
113 120 1
113 127 1
113 129 1
113 148 1
113 152 1
113 159 1
113 161 1
113 180 1
113 184 1
113 191 1
113 193 1
113 212 1
113 216 1
113 223 1
114 98 1
114 113 1
114 117 1
114 128 1
114 130 1
114 145 1
114 149 1
114 160 1
114 162 1
114 177 1
114 181 1
114 192 1
114 194 1
114 209 1
114 213 1
114 224 1
115 99 1
115 114 1
115 118 1
115 125 1
115 131 1
115 146 1
115 150 1
115 157 1
115 163 1
115 178 1
115 182 1
115 189 1
115 195 1
115 210 1
115 214 1
115 221 1
116 100 1
116 115 1
116 119 1
116 126 1
116 132 1
116 147 1
116 151 1
116 158 1
116 164 1
116 179 1
116 183 1
116 190 1
116 196 1
116 211 1
116 215 1
116 222 1
117 101 1
117 116 1
117 124 1
117 127 1
117 133 1
117 148 1
117 156 1
117 159 1
117 165 1
117 180 1
117 188 1
117 191 1
117 197 1
117 212 1
117 220 1
117 223 1
118 102 1
118 113 1
118 121 1
118 128 1
118 134 1
118 145 1
118 153 1
118 160 1
118 166 1
118 177 1
118 185 1
118 192 1
118 198 1
118 209 1
118 217 1
118 224 1
119 103 1
119 114 1
119 122 1
119 125 1
119 135 1
119 146 1
119 154 1
119 157 1
119 167 1
119 178 1
119 186 1
119 189 1
119 199 1
119 210 1
119 218 1
119 221 1
120 104 1
120 115 1
120 123 1
120 126 1
120 136 1
120 147 1
120 155 1
120 158 1
120 168 1
120 179 1
120 187 1
120 190 1
120 200 1
120 211 1
120 219 1
120 222 1
121 105 1
121 120 1
121 124 1
121 127 1
121 137 1
121 152 1
121 156 1
121 159 1
121 169 1
121 184 1
121 188 1
121 191 1
121 201 1
121 216 1
121 220 1
121 223 1
122 106 1
122 117 1
122 121 1
122 128 1
122 138 1
122 149 1
122 153 1
122 160 1
122 170 1
122 181 1
122 185 1
122 192 1
122 202 1
122 213 1
122 217 1
122 224 1
123 107 1
123 118 1
123 122 1
123 125 1
123 139 1
123 150 1
123 154 1
123 157 1
123 171 1
123 182 1
123 186 1
123 189 1
123 203 1
123 214 1
123 218 1
123 221 1
124 108 1
124 119 1
124 123 1
124 126 1
124 140 1
124 151 1
124 155 1
124 158 1
124 172 1
124 183 1
124 187 1
124 190 1
124 204 1
124 215 1
124 219 1
124 222 1
125 109 1
125 116 1
125 120 1
125 124 1
125 141 1
125 148 1
125 152 1
125 156 1
125 173 1
125 180 1
125 184 1
125 188 1
125 205 1
125 212 1
125 216 1
125 220 1
126 110 1
126 113 1
126 117 1
126 121 1
126 142 1
126 145 1
126 149 1
126 153 1
126 174 1
126 177 1
126 181 1
126 185 1
126 206 1
126 209 1
126 213 1
126 217 1
127 111 1
127 114 1
127 118 1
127 122 1
127 143 1
127 146 1
127 150 1
127 154 1
127 175 1
127 178 1
127 182 1
127 186 1
127 207 1
127 210 1
127 214 1
127 218 1
128 112 1
128 115 1
128 119 1
128 123 1
128 144 1
128 147 1
128 151 1
128 155 1
128 176 1
128 179 1
128 183 1
128 187 1
128 208 1
128 211 1
128 215 1
128 219 1
