%%MatrixMarket matrix coordinate integer general
256 512 4096
1 1 1
1 34 1
1 42 1
1 55 1
1 257 1
1 290 1
1 298 1
1 311 1
1 321 1
1 354 1
1 362 1
1 375 1
1 385 1
1 418 1
1 426 1
1 439 1
2 2 1
2 36 1
2 44 1
2 56 1
2 258 1
2 292 1
2 300 1
2 312 1
2 322 1
2 356 1
2 364 1
2 376 1
2 386 1
2 420 1
2 428 1
2 440 1
3 3 1
3 37 1
3 45 1
3 52 1
3 259 1
3 293 1
3 301 1
3 308 1
3 323 1
3 357 1
3 365 1
3 372 1
3 387 1
3 421 1
3 429 1
3 436 1
4 4 1
4 38 1
4 46 1
4 51 1
4 260 1
4 294 1
4 302 1
4 307 1
4 324 1
4 358 1
4 366 1
4 371 1
4 388 1
4 422 1
4 430 1
4 435 1
5 5 1
5 39 1
5 47 1
5 54 1
5 261 1
5 295 1
5 303 1
5 310 1
5 325 1
5 359 1
5 367 1
5 374 1
5 389 1
5 423 1
5 431 1
5 438 1
6 6 1
6 33 1
6 41 1
6 53 1
6 262 1
6 289 1
6 297 1
6 309 1
6 326 1
6 353 1
6 361 1
6 373 1
6 390 1
6 417 1
6 425 1
6 437 1
7 7 1
7 40 1
7 48 1
7 49 1
7 263 1
7 296 1
7 304 1
7 305 1
7 327 1
7 360 1
7 368 1
7 369 1
7 391 1
7 424 1
7 432 1
7 433 1
8 8 1
8 35 1
8 43 1
8 50 1
8 264 1
8 291 1
8 299 1
8 306 1
8 328 1
8 355 1
8 363 1
8 370 1
8 392 1
8 419 1
8 427 1
8 434 1
9 14 1
9 34 1
9 42 1
9 61 1
9 270 1
9 290 1
9 298 1
9 317 1
9 334 1
9 354 1
9 362 1
9 381 1
9 398 1
9 418 1
9 426 1
9 445 1
10 9 1
10 36 1
10 44 1
10 63 1
10 265 1
10 292 1
10 300 1
10 319 1
10 329 1
10 356 1
10 364 1
10 383 1
10 393 1
10 420 1
10 428 1
10 447 1
11 16 1
11 37 1
11 45 1
11 58 1
11 272 1
11 293 1
11 301 1
11 314 1
11 336 1
11 357 1
11 365 1
11 378 1
11 400 1
11 421 1
11 429 1
11 442 1
12 10 1
12 38 1
12 46 1
12 64 1
12 266 1
12 294 1
12 302 1
12 320 1
12 330 1
12 358 1
12 366 1
12 384 1
12 394 1
12 422 1
12 430 1
12 448 1
13 11 1
13 39 1
13 47 1
13 60 1
13 267 1
13 295 1
13 303 1
13 316 1
13 331 1
13 359 1
13 367 1
13 380 1
13 395 1
13 423 1
13 431 1
13 444 1
14 12 1
14 33 1
14 41 1
14 59 1
14 268 1
14 289 1
14 297 1
14 315 1
14 332 1
14 353 1
14 361 1
14 379 1
14 396 1
14 417 1
14 425 1
14 443 1
15 13 1
15 40 1
15 48 1
15 62 1
15 269 1
15 296 1
15 304 1
15 318 1
15 333 1
15 360 1
15 368 1
15 382 1
15 397 1
15 424 1
15 432 1
15 446 1
16 15 1
16 35 1
16 43 1
16 57 1
16 271 1
16 291 1
16 299 1
16 313 1
16 335 1
16 355 1
16 363 1
16 377 1
16 399 1
16 419 1
16 427 1
16 441 1
17 19 1
17 34 1
17 55 1
17 61 1
17 275 1
17 290 1
17 311 1
17 317 1
17 339 1
17 354 1
17 375 1
17 381 1
17 403 1
17 418 1
17 439 1
17 445 1
18 21 1
18 36 1
18 56 1
18 63 1
18 277 1
18 292 1
18 312 1
18 319 1
18 341 1
18 356 1
18 376 1
18 383 1
18 405 1
18 420 1
18 440 1
18 447 1
19 17 1
19 37 1
19 52 1
19 58 1
19 273 1
19 293 1
19 308 1
19 314 1
19 337 1
19 357 1
19 372 1
19 378 1
19 401 1
19 421 1
19 436 1
19 442 1
20 23 1
20 38 1
20 51 1
20 64 1
20 279 1
20 294 1
20 307 1
20 320 1
20 343 1
20 358 1
20 371 1
20 384 1
20 407 1
20 422 1
20 435 1
20 448 1
21 18 1
21 39 1
21 54 1
21 60 1
21 274 1
21 295 1
21 310 1
21 316 1
21 338 1
21 359 1
21 374 1
21 380 1
21 402 1
21 423 1
21 438 1
21 444 1
22 24 1
22 33 1
22 53 1
22 59 1
22 280 1
22 289 1
22 309 1
22 315 1
22 344 1
22 353 1
22 373 1
22 379 1
22 408 1
22 417 1
22 437 1
22 443 1
23 20 1
23 40 1
23 49 1
23 62 1
23 276 1
23 296 1
23 305 1
23 318 1
23 340 1
23 360 1
23 369 1
23 382 1
23 404 1
23 424 1
23 433 1
23 446 1
24 22 1
24 35 1
24 50 1
24 57 1
24 278 1
24 291 1
24 306 1
24 313 1
24 342 1
24 355 1
24 370 1
24 377 1
24 406 1
24 419 1
24 434 1
24 441 1
25 28 1
25 42 1
25 55 1
25 61 1
25 284 1
25 298 1
25 311 1
25 317 1
25 348 1
25 362 1
25 375 1
25 381 1
25 412 1
25 426 1
25 439 1
25 445 1
26 30 1
26 44 1
26 56 1
26 63 1
26 286 1
26 300 1
26 312 1
26 319 1
26 350 1
26 364 1
26 376 1
26 383 1
26 414 1
26 428 1
26 440 1
26 447 1
27 31 1
27 45 1
27 52 1
27 58 1
27 287 1
27 301 1
27 308 1
27 314 1
27 351 1
27 365 1
27 372 1
27 378 1
27 415 1
27 429 1
27 436 1
27 442 1
28 25 1
28 46 1
28 51 1
28 64 1
28 281 1
28 302 1
28 307 1
28 320 1
28 345 1
28 366 1
28 371 1
28 384 1
28 409 1
28 430 1
28 435 1
28 448 1
29 32 1
29 47 1
29 54 1
29 60 1
29 288 1
29 303 1
29 310 1
29 316 1
29 352 1
29 367 1
29 374 1
29 380 1
29 416 1
29 431 1
29 438 1
29 444 1
30 26 1
30 41 1
30 53 1
30 59 1
30 282 1
30 297 1
30 309 1
30 315 1
30 346 1
30 361 1
30 373 1
30 379 1
30 410 1
30 425 1
30 437 1
30 443 1
31 27 1
31 48 1
31 49 1
31 62 1
31 283 1
31 304 1
31 305 1
31 318 1
31 347 1
31 368 1
31 369 1
31 382 1
31 411 1
31 432 1
31 433 1
31 446 1
32 29 1
32 43 1
32 50 1
32 57 1
32 285 1
32 299 1
32 306 1
32 313 1
32 349 1
32 363 1
32 370 1
32 377 1
32 413 1
32 427 1
32 434 1
32 441 1
33 65 1
33 98 1
33 106 1
33 119 1
33 257 1
33 290 1
33 298 1
33 311 1
33 321 1
33 354 1
33 362 1
33 375 1
33 449 1
33 482 1
33 490 1
33 503 1
34 66 1
34 100 1
34 108 1
34 120 1
34 258 1
34 292 1
34 300 1
34 312 1
34 322 1
34 356 1
34 364 1
34 376 1
34 450 1
34 484 1
34 492 1
34 504 1
35 67 1
35 101 1
35 109 1
35 116 1
35 259 1
35 293 1
35 301 1
35 308 1
35 323 1
35 357 1
35 365 1
35 372 1
35 451 1
35 485 1
35 493 1
35 500 1
36 68 1
36 102 1
36 110 1
36 115 1
36 260 1
36 294 1
36 302 1
36 307 1
36 324 1
36 358 1
36 366 1
36 371 1
36 452 1
36 486 1
36 494 1
36 499 1
37 69 1
37 103 1
37 111 1
37 118 1
37 261 1
37 295 1
37 303 1
37 310 1
37 325 1
37 359 1
37 367 1
37 374 1
37 453 1
37 487 1
37 495 1
37 502 1
38 70 1
38 97 1
38 105 1
38 117 1
38 262 1
38 289 1
38 297 1
38 309 1
38 326 1
38 353 1
38 361 1
38 373 1
38 454 1
38 481 1
38 489 1
38 501 1
39 71 1
39 104 1
39 112 1
39 113 1
39 263 1
39 296 1
39 304 1
39 305 1
39 327 1
39 360 1
39 368 1
39 369 1
39 455 1
39 488 1
39 496 1
39 497 1
40 72 1
40 99 1
40 107 1
40 114 1
40 264 1
40 291 1
40 299 1
40 306 1
40 328 1
40 355 1
40 363 1
40 370 1
40 456 1
40 483 1
40 491 1
40 498 1
41 78 1
41 98 1
41 106 1
41 125 1
41 270 1
41 290 1
41 298 1
41 317 1
41 334 1
41 354 1
41 362 1
41 381 1
41 462 1
41 482 1
41 490 1
41 509 1
42 73 1
42 100 1
42 108 1
42 127 1
42 265 1
42 292 1
42 300 1
42 319 1
42 329 1
42 356 1
42 364 1
42 383 1
42 457 1
42 484 1
42 492 1
42 511 1
43 80 1
43 101 1
43 109 1
43 122 1
43 272 1
43 293 1
43 301 1
43 314 1
43 336 1
43 357 1
43 365 1
43 378 1
43 464 1
43 485 1
43 493 1
43 506 1
44 74 1
44 102 1
44 110 1
44 128 1
44 266 1
44 294 1
44 302 1
44 320 1
44 330 1
44 358 1
44 366 1
44 384 1
44 458 1
44 486 1
44 494 1
44 512 1
45 75 1
45 103 1
45 111 1
45 124 1
45 267 1
45 295 1
45 303 1
45 316 1
45 331 1
45 359 1
45 367 1
45 380 1
45 459 1
45 487 1
45 495 1
45 508 1
46 76 1
46 97 1
46 105 1
46 123 1
46 268 1
46 289 1
46 297 1
46 315 1
46 332 1
46 353 1
46 361 1
46 379 1
46 460 1
46 481 1
46 489 1
46 507 1
47 77 1
47 104 1
47 112 1
47 126 1
47 269 1
47 296 1
47 304 1
47 318 1
47 333 1
47 360 1
47 368 1
47 382 1
47 461 1
47 488 1
47 496 1
47 510 1
48 79 1
48 99 1
48 107 1
48 121 1
48 271 1
48 291 1
48 299 1
48 313 1
48 335 1
48 355 1
48 363 1
48 377 1
48 463 1
48 483 1
48 491 1
48 505 1
49 83 1
49 98 1
49 119 1
49 125 1
49 275 1
49 290 1
49 311 1
49 317 1
49 339 1
49 354 1
49 375 1
49 381 1
49 467 1
49 482 1
49 503 1
49 509 1
50 85 1
50 100 1
50 120 1
50 127 1
50 277 1
50 292 1
50 312 1
50 319 1
50 341 1
50 356 1
50 376 1
50 383 1
50 469 1
50 484 1
50 504 1
50 511 1
51 81 1
51 101 1
51 116 1
51 122 1
51 273 1
51 293 1
51 308 1
51 314 1
51 337 1
51 357 1
51 372 1
51 378 1
51 465 1
51 485 1
51 500 1
51 506 1
52 87 1
52 102 1
52 115 1
52 128 1
52 279 1
52 294 1
52 307 1
52 320 1
52 343 1
52 358 1
52 371 1
52 384 1
52 471 1
52 486 1
52 499 1
52 512 1
53 82 1
53 103 1
53 118 1
53 124 1
53 274 1
53 295 1
53 310 1
53 316 1
53 338 1
53 359 1
53 374 1
53 380 1
53 466 1
53 487 1
53 502 1
53 508 1
54 88 1
54 97 1
54 117 1
54 123 1
54 280 1
54 289 1
54 309 1
54 315 1
54 344 1
54 353 1
54 373 1
54 379 1
54 472 1
54 481 1
54 501 1
54 507 1
55 84 1
55 104 1
55 113 1
55 126 1
55 276 1
55 296 1
55 305 1
55 318 1
55 340 1
55 360 1
55 369 1
55 382 1
55 468 1
55 488 1
55 497 1
55 510 1
56 86 1
56 99 1
56 114 1
56 121 1
56 278 1
56 291 1
56 306 1
56 313 1
56 342 1
56 355 1
56 370 1
56 377 1
56 470 1
56 483 1
56 498 1
56 505 1
57 92 1
57 106 1
57 119 1
57 125 1
57 284 1
57 298 1
57 311 1
57 317 1
57 348 1
57 362 1
57 375 1
57 381 1
57 476 1
57 490 1
57 503 1
57 509 1
58 94 1
58 108 1
58 120 1
58 127 1
58 286 1
58 300 1
58 312 1
58 319 1
58 350 1
58 364 1
58 376 1
58 383 1
58 478 1
58 492 1
58 504 1
58 511 1
59 95 1
59 109 1
59 116 1
59 122 1
59 287 1
59 301 1
59 308 1
59 314 1
59 351 1
59 365 1
59 372 1
59 378 1
59 479 1
59 493 1
59 500 1
59 506 1
60 89 1
60 110 1
60 115 1
60 128 1
60 281 1
60 302 1
60 307 1
60 320 1
60 345 1
60 366 1
60 371 1
60 384 1
60 473 1
60 494 1
60 499 1
60 512 1
61 96 1
61 111 1
61 118 1
61 124 1
61 288 1
61 303 1
61 310 1
61 316 1
61 352 1
61 367 1
61 374 1
61 380 1
61 480 1
61 495 1
61 502 1
61 508 1
62 90 1
62 105 1
62 117 1
62 123 1
62 282 1
62 297 1
62 309 1
62 315 1
62 346 1
62 361 1
62 373 1
62 379 1
62 474 1
62 489 1
62 501 1
62 507 1
63 91 1
63 112 1
63 113 1
63 126 1
63 283 1
63 304 1
63 305 1
63 318 1
63 347 1
63 368 1
63 369 1
63 382 1
63 475 1
63 496 1
63 497 1
63 510 1
64 93 1
64 107 1
64 114 1
64 121 1
64 285 1
64 299 1
64 306 1
64 313 1
64 349 1
64 363 1
64 370 1
64 377 1
64 477 1
64 491 1
64 498 1
64 505 1
65 129 1
65 162 1
65 170 1
65 183 1
65 257 1
65 290 1
65 298 1
65 311 1
65 385 1
65 418 1
65 426 1
65 439 1
65 449 1
65 482 1
65 490 1
65 503 1
66 130 1
66 164 1
66 172 1
66 184 1
66 258 1
66 292 1
66 300 1
66 312 1
66 386 1
66 420 1
66 428 1
66 440 1
66 450 1
66 484 1
66 492 1
66 504 1
67 131 1
67 165 1
67 173 1
67 180 1
67 259 1
67 293 1
67 301 1
67 308 1
67 387 1
67 421 1
67 429 1
67 436 1
67 451 1
67 485 1
67 493 1
67 500 1
68 132 1
68 166 1
68 174 1
68 179 1
68 260 1
68 294 1
68 302 1
68 307 1
68 388 1
68 422 1
68 430 1
68 435 1
68 452 1
68 486 1
68 494 1
68 499 1
69 133 1
69 167 1
69 175 1
69 182 1
69 261 1
69 295 1
69 303 1
69 310 1
69 389 1
69 423 1
69 431 1
69 438 1
69 453 1
69 487 1
69 495 1
69 502 1
70 134 1
70 161 1
70 169 1
70 181 1
70 262 1
70 289 1
70 297 1
70 309 1
70 390 1
70 417 1
70 425 1
70 437 1
70 454 1
70 481 1
70 489 1
70 501 1
71 135 1
71 168 1
71 176 1
71 177 1
71 263 1
71 296 1
71 304 1
71 305 1
71 391 1
71 424 1
71 432 1
71 433 1
71 455 1
71 488 1
71 496 1
71 497 1
72 136 1
72 163 1
72 171 1
72 178 1
72 264 1
72 291 1
72 299 1
72 306 1
72 392 1
72 419 1
72 427 1
72 434 1
72 456 1
72 483 1
72 491 1
72 498 1
73 142 1
73 162 1
73 170 1
73 189 1
73 270 1
73 290 1
73 298 1
73 317 1
73 398 1
73 418 1
73 426 1
73 445 1
73 462 1
73 482 1
73 490 1
73 509 1
74 137 1
74 164 1
74 172 1
74 191 1
74 265 1
74 292 1
74 300 1
74 319 1
74 393 1
74 420 1
74 428 1
74 447 1
74 457 1
74 484 1
74 492 1
74 511 1
75 144 1
75 165 1
75 173 1
75 186 1
75 272 1
75 293 1
75 301 1
75 314 1
75 400 1
75 421 1
75 429 1
75 442 1
75 464 1
75 485 1
75 493 1
75 506 1
76 138 1
76 166 1
76 174 1
76 192 1
76 266 1
76 294 1
76 302 1
76 320 1
76 394 1
76 422 1
76 430 1
76 448 1
76 458 1
76 486 1
76 494 1
76 512 1
77 139 1
77 167 1
77 175 1
77 188 1
77 267 1
77 295 1
77 303 1
77 316 1
77 395 1
77 423 1
77 431 1
77 444 1
77 459 1
77 487 1
77 495 1
77 508 1
78 140 1
78 161 1
78 169 1
78 187 1
78 268 1
78 289 1
78 297 1
78 315 1
78 396 1
78 417 1
78 425 1
78 443 1
78 460 1
78 481 1
78 489 1
78 507 1
79 141 1
79 168 1
79 176 1
79 190 1
79 269 1
79 296 1
79 304 1
79 318 1
79 397 1
79 424 1
79 432 1
79 446 1
79 461 1
79 488 1
79 496 1
79 510 1
80 143 1
80 163 1
80 171 1
80 185 1
80 271 1
80 291 1
80 299 1
80 313 1
80 399 1
80 419 1
80 427 1
80 441 1
80 463 1
80 483 1
80 491 1
80 505 1
81 147 1
81 162 1
81 183 1
81 189 1
81 275 1
81 290 1
81 311 1
81 317 1
81 403 1
81 418 1
81 439 1
81 445 1
81 467 1
81 482 1
81 503 1
81 509 1
82 149 1
82 164 1
82 184 1
82 191 1
82 277 1
82 292 1
82 312 1
82 319 1
82 405 1
82 420 1
82 440 1
82 447 1
82 469 1
82 484 1
82 504 1
82 511 1
83 145 1
83 165 1
83 180 1
83 186 1
83 273 1
83 293 1
83 308 1
83 314 1
83 401 1
83 421 1
83 436 1
83 442 1
83 465 1
83 485 1
83 500 1
83 506 1
84 151 1
84 166 1
84 179 1
84 192 1
84 279 1
84 294 1
84 307 1
84 320 1
84 407 1
84 422 1
84 435 1
84 448 1
84 471 1
84 486 1
84 499 1
84 512 1
85 146 1
85 167 1
85 182 1
85 188 1
85 274 1
85 295 1
85 310 1
85 316 1
85 402 1
85 423 1
85 438 1
85 444 1
85 466 1
85 487 1
85 502 1
85 508 1
86 152 1
86 161 1
86 181 1
86 187 1
86 280 1
86 289 1
86 309 1
86 315 1
86 408 1
86 417 1
86 437 1
86 443 1
86 472 1
86 481 1
86 501 1
86 507 1
87 148 1
87 168 1
87 177 1
87 190 1
87 276 1
87 296 1
87 305 1
87 318 1
87 404 1
87 424 1
87 433 1
87 446 1
87 468 1
87 488 1
87 497 1
87 510 1
88 150 1
88 163 1
88 178 1
88 185 1
88 278 1
88 291 1
88 306 1
88 313 1
88 406 1
88 419 1
88 434 1
88 441 1
88 470 1
88 483 1
88 498 1
88 505 1
89 156 1
89 170 1
89 183 1
89 189 1
89 284 1
89 298 1
89 311 1
89 317 1
89 412 1
89 426 1
89 439 1
89 445 1
89 476 1
89 490 1
89 503 1
89 509 1
90 158 1
90 172 1
90 184 1
90 191 1
90 286 1
90 300 1
90 312 1
90 319 1
90 414 1
90 428 1
90 440 1
90 447 1
90 478 1
90 492 1
90 504 1
90 511 1
91 159 1
91 173 1
91 180 1
91 186 1
91 287 1
91 301 1
91 308 1
91 314 1
91 415 1
91 429 1
91 436 1
91 442 1
91 479 1
91 493 1
91 500 1
91 506 1
92 153 1
92 174 1
92 179 1
92 192 1
92 281 1
92 302 1
92 307 1
92 320 1
92 409 1
92 430 1
92 435 1
92 448 1
92 473 1
92 494 1
92 499 1
92 512 1
93 160 1
93 175 1
93 182 1
93 188 1
93 288 1
93 303 1
93 310 1
93 316 1
93 416 1
93 431 1
93 438 1
93 444 1
93 480 1
93 495 1
93 502 1
93 508 1
94 154 1
94 169 1
94 181 1
94 187 1
94 282 1
94 297 1
94 309 1
94 315 1
94 410 1
94 425 1
94 437 1
94 443 1
94 474 1
94 489 1
94 501 1
94 507 1
95 155 1
95 176 1
95 177 1
95 190 1
95 283 1
95 304 1
95 305 1
95 318 1
95 411 1
95 432 1
95 433 1
95 446 1
95 475 1
95 496 1
95 497 1
95 510 1
96 157 1
96 171 1
96 178 1
96 185 1
96 285 1
96 299 1
96 306 1
96 313 1
96 413 1
96 427 1
96 434 1
96 441 1
96 477 1
96 491 1
96 498 1
96 505 1
97 193 1
97 226 1
97 234 1
97 247 1
97 321 1
97 354 1
97 362 1
97 375 1
97 385 1
97 418 1
97 426 1
97 439 1
97 449 1
97 482 1
97 490 1
97 503 1
98 194 1
98 228 1
98 236 1
98 248 1
98 322 1
98 356 1
98 364 1
98 376 1
98 386 1
98 420 1
98 428 1
98 440 1
98 450 1
98 484 1
98 492 1
98 504 1
99 195 1
99 229 1
99 237 1
99 244 1
99 323 1
99 357 1
99 365 1
99 372 1
99 387 1
99 421 1
99 429 1
99 436 1
99 451 1
99 485 1
99 493 1
99 500 1
100 196 1
100 230 1
100 238 1
100 243 1
100 324 1
100 358 1
100 366 1
100 371 1
100 388 1
100 422 1
100 430 1
100 435 1
100 452 1
100 486 1
100 494 1
100 499 1
101 197 1
101 231 1
101 239 1
101 246 1
101 325 1
101 359 1
101 367 1
101 374 1
101 389 1
101 423 1
101 431 1
101 438 1
101 453 1
101 487 1
101 495 1
101 502 1
102 198 1
102 225 1
102 233 1
102 245 1
102 326 1
102 353 1
102 361 1
102 373 1
102 390 1
102 417 1
102 425 1
102 437 1
102 454 1
102 481 1
102 489 1
102 501 1
103 199 1
103 232 1
103 240 1
103 241 1
103 327 1
103 360 1
103 368 1
103 369 1
103 391 1
103 424 1
103 432 1
103 433 1
103 455 1
103 488 1
103 496 1
103 497 1
104 200 1
104 227 1
104 235 1
104 242 1
104 328 1
104 355 1
104 363 1
104 370 1
104 392 1
104 419 1
104 427 1
104 434 1
104 456 1
104 483 1
104 491 1
104 498 1
105 206 1
105 226 1
105 234 1
105 253 1
105 334 1
105 354 1
105 362 1
105 381 1
105 398 1
105 418 1
105 426 1
105 445 1
105 462 1
105 482 1
105 490 1
105 509 1
106 201 1
106 228 1
106 236 1
106 255 1
106 329 1
106 356 1
106 364 1
106 383 1
106 393 1
106 420 1
106 428 1
106 447 1
106 457 1
106 484 1
106 492 1
106 511 1
107 208 1
107 229 1
107 237 1
107 250 1
107 336 1
107 357 1
107 365 1
107 378 1
107 400 1
107 421 1
107 429 1
107 442 1
107 464 1
107 485 1
107 493 1
107 506 1
108 202 1
108 230 1
108 238 1
108 256 1
108 330 1
108 358 1
108 366 1
108 384 1
108 394 1
108 422 1
108 430 1
108 448 1
108 458 1
108 486 1
108 494 1
108 512 1
109 203 1
109 231 1
109 239 1
109 252 1
109 331 1
109 359 1
109 367 1
109 380 1
109 395 1
109 423 1
109 431 1
109 444 1
109 459 1
109 487 1
109 495 1
109 508 1
110 204 1
110 225 1
110 233 1
110 251 1
110 332 1
110 353 1
110 361 1
110 379 1
110 396 1
110 417 1
110 425 1
110 443 1
110 460 1
110 481 1
110 489 1
110 507 1
111 205 1
111 232 1
111 240 1
111 254 1
111 333 1
111 360 1
111 368 1
111 382 1
111 397 1
111 424 1
111 432 1
111 446 1
111 461 1
111 488 1
111 496 1
111 510 1
112 207 1
112 227 1
112 235 1
112 249 1
112 335 1
112 355 1
112 363 1
112 377 1
112 399 1
112 419 1
112 427 1
112 441 1
112 463 1
112 483 1
112 491 1
112 505 1
113 211 1
113 226 1
113 247 1
113 253 1
113 339 1
113 354 1
113 375 1
113 381 1
113 403 1
113 418 1
113 439 1
113 445 1
113 467 1
113 482 1
113 503 1
113 509 1
114 213 1
114 228 1
114 248 1
114 255 1
114 341 1
114 356 1
114 376 1
114 383 1
114 405 1
114 420 1
114 440 1
114 447 1
114 469 1
114 484 1
114 504 1
114 511 1
115 209 1
115 229 1
115 244 1
115 250 1
115 337 1
115 357 1
115 372 1
115 378 1
115 401 1
115 421 1
115 436 1
115 442 1
115 465 1
115 485 1
115 500 1
115 506 1
116 215 1
116 230 1
116 243 1
116 256 1
116 343 1
116 358 1
116 371 1
116 384 1
116 407 1
116 422 1
116 435 1
116 448 1
116 471 1
116 486 1
116 499 1
116 512 1
117 210 1
117 231 1
117 246 1
117 252 1
117 338 1
117 359 1
117 374 1
117 380 1
117 402 1
117 423 1
117 438 1
117 444 1
117 466 1
117 487 1
117 502 1
117 508 1
118 216 1
118 225 1
118 245 1
118 251 1
118 344 1
118 353 1
118 373 1
118 379 1
118 408 1
118 417 1
118 437 1
118 443 1
118 472 1
118 481 1
118 501 1
118 507 1
119 212 1
119 232 1
119 241 1
119 254 1
119 340 1
119 360 1
119 369 1
119 382 1
119 404 1
119 424 1
119 433 1
119 446 1
119 468 1
119 488 1
119 497 1
119 510 1
120 214 1
120 227 1
120 242 1
120 249 1
120 342 1
120 355 1
120 370 1
120 377 1
120 406 1
120 419 1
120 434 1
120 441 1
120 470 1
120 483 1
120 498 1
120 505 1
121 220 1
121 234 1
121 247 1
121 253 1
121 348 1
121 362 1
121 375 1
121 381 1
121 412 1
121 426 1
121 439 1
121 445 1
121 476 1
121 490 1
121 503 1
121 509 1
122 222 1
122 236 1
122 248 1
122 255 1
122 350 1
122 364 1
122 376 1
122 383 1
122 414 1
122 428 1
122 440 1
122 447 1
122 478 1
122 492 1
122 504 1
122 511 1
123 223 1
123 237 1
123 244 1
123 250 1
123 351 1
123 365 1
123 372 1
123 378 1
123 415 1
123 429 1
123 436 1
123 442 1
123 479 1
123 493 1
123 500 1
123 506 1
124 217 1
124 238 1
124 243 1
124 256 1
124 345 1
124 366 1
124 371 1
124 384 1
124 409 1
124 430 1
124 435 1
124 448 1
124 473 1
124 494 1
124 499 1
124 512 1
125 224 1
125 239 1
125 246 1
125 252 1
125 352 1
125 367 1
125 374 1
125 380 1
125 416 1
125 431 1
125 438 1
125 444 1
125 480 1
125 495 1
125 502 1
125 508 1
126 218 1
126 233 1
126 245 1
126 251 1
126 346 1
126 361 1
126 373 1
126 379 1
126 410 1
126 425 1
126 437 1
126 443 1
126 474 1
126 489 1
126 501 1
126 507 1
127 219 1
127 240 1
127 241 1
127 254 1
127 347 1
127 368 1
127 369 1
127 382 1
127 411 1
127 432 1
127 433 1
127 446 1
127 475 1
127 496 1
127 497 1
127 510 1
128 221 1
128 235 1
128 242 1
128 249 1
128 349 1
128 363 1
128 370 1
128 377 1
128 413 1
128 427 1
128 434 1
128 441 1
128 477 1
128 491 1
128 498 1
128 505 1
129 1 1
129 33 1
129 41 1
129 49 1
129 261 1
129 293 1
129 301 1
129 309 1
129 326 1
129 358 1
129 366 1
129 374 1
129 391 1
129 423 1
129 431 1
129 439 1
130 2 1
130 34 1
130 42 1
130 50 1
130 263 1
130 295 1
130 303 1
130 311 1
130 321 1
130 353 1
130 361 1
130 369 1
130 392 1
130 424 1
130 432 1
130 440 1
131 3 1
131 35 1
131 43 1
131 51 1
131 258 1
131 290 1
131 298 1
131 306 1
131 328 1
131 360 1
131 368 1
131 376 1
131 388 1
131 420 1
131 428 1
131 436 1
132 4 1
132 36 1
132 44 1
132 52 1
132 264 1
132 296 1
132 304 1
132 312 1
132 322 1
132 354 1
132 362 1
132 370 1
132 387 1
132 419 1
132 427 1
132 435 1
133 5 1
133 37 1
133 45 1
133 53 1
133 260 1
133 292 1
133 300 1
133 308 1
133 323 1
133 355 1
133 363 1
133 371 1
133 390 1
133 422 1
133 430 1
133 438 1
134 6 1
134 38 1
134 46 1
134 54 1
134 259 1
134 291 1
134 299 1
134 307 1
134 324 1
134 356 1
134 364 1
134 372 1
134 389 1
134 421 1
134 429 1
134 437 1
135 7 1
135 39 1
135 47 1
135 55 1
135 262 1
135 294 1
135 302 1
135 310 1
135 325 1
135 357 1
135 365 1
135 373 1
135 385 1
135 417 1
135 425 1
135 433 1
136 8 1
136 40 1
136 48 1
136 56 1
136 257 1
136 289 1
136 297 1
136 305 1
136 327 1
136 359 1
136 367 1
136 375 1
136 386 1
136 418 1
136 426 1
136 434 1
137 9 1
137 33 1
137 41 1
137 57 1
137 269 1
137 293 1
137 301 1
137 317 1
137 334 1
137 358 1
137 366 1
137 382 1
137 399 1
137 423 1
137 431 1
137 447 1
138 10 1
138 34 1
138 42 1
138 58 1
138 271 1
138 295 1
138 303 1
138 319 1
138 329 1
138 353 1
138 361 1
138 377 1
138 400 1
138 424 1
138 432 1
138 448 1
139 11 1
139 35 1
139 43 1
139 59 1
139 266 1
139 290 1
139 298 1
139 314 1
139 336 1
139 360 1
139 368 1
139 384 1
139 396 1
139 420 1
139 428 1
139 444 1
140 12 1
140 36 1
140 44 1
140 60 1
140 272 1
140 296 1
140 304 1
140 320 1
140 330 1
140 354 1
140 362 1
140 378 1
140 395 1
140 419 1
140 427 1
140 443 1
141 13 1
141 37 1
141 45 1
141 61 1
141 268 1
141 292 1
141 300 1
141 316 1
141 331 1
141 355 1
141 363 1
141 379 1
141 398 1
141 422 1
141 430 1
141 446 1
142 14 1
142 38 1
142 46 1
142 62 1
142 267 1
142 291 1
142 299 1
142 315 1
142 332 1
142 356 1
142 364 1
142 380 1
142 397 1
142 421 1
142 429 1
142 445 1
143 15 1
143 39 1
143 47 1
143 63 1
143 270 1
143 294 1
143 302 1
143 318 1
143 333 1
143 357 1
143 365 1
143 381 1
143 393 1
143 417 1
143 425 1
143 441 1
144 16 1
144 40 1
144 48 1
144 64 1
144 265 1
144 289 1
144 297 1
144 313 1
144 335 1
144 359 1
144 367 1
144 383 1
144 394 1
144 418 1
144 426 1
144 442 1
145 17 1
145 33 1
145 49 1
145 57 1
145 277 1
145 293 1
145 309 1
145 317 1
145 342 1
145 358 1
145 374 1
145 382 1
145 407 1
145 423 1
145 439 1
145 447 1
146 18 1
146 34 1
146 50 1
146 58 1
146 279 1
146 295 1
146 311 1
146 319 1
146 337 1
146 353 1
146 369 1
146 377 1
146 408 1
146 424 1
146 440 1
146 448 1
147 19 1
147 35 1
147 51 1
147 59 1
147 274 1
147 290 1
147 306 1
147 314 1
147 344 1
147 360 1
147 376 1
147 384 1
147 404 1
147 420 1
147 436 1
147 444 1
148 20 1
148 36 1
148 52 1
148 60 1
148 280 1
148 296 1
148 312 1
148 320 1
148 338 1
148 354 1
148 370 1
148 378 1
148 403 1
148 419 1
148 435 1
148 443 1
149 21 1
149 37 1
149 53 1
149 61 1
149 276 1
149 292 1
149 308 1
149 316 1
149 339 1
149 355 1
149 371 1
149 379 1
149 406 1
149 422 1
149 438 1
149 446 1
150 22 1
150 38 1
150 54 1
150 62 1
150 275 1
150 291 1
150 307 1
150 315 1
150 340 1
150 356 1
150 372 1
150 380 1
150 405 1
150 421 1
150 437 1
150 445 1
151 23 1
151 39 1
151 55 1
151 63 1
151 278 1
151 294 1
151 310 1
151 318 1
151 341 1
151 357 1
151 373 1
151 381 1
151 401 1
151 417 1
151 433 1
151 441 1
152 24 1
152 40 1
152 56 1
152 64 1
152 273 1
152 289 1
152 305 1
152 313 1
152 343 1
152 359 1
152 375 1
152 383 1
152 402 1
152 418 1
152 434 1
152 442 1
153 25 1
153 41 1
153 49 1
153 57 1
153 285 1
153 301 1
153 309 1
153 317 1
153 350 1
153 366 1
153 374 1
153 382 1
153 415 1
153 431 1
153 439 1
153 447 1
154 26 1
154 42 1
154 50 1
154 58 1
154 287 1
154 303 1
154 311 1
154 319 1
154 345 1
154 361 1
154 369 1
154 377 1
154 416 1
154 432 1
154 440 1
154 448 1
155 27 1
155 43 1
155 51 1
155 59 1
155 282 1
155 298 1
155 306 1
155 314 1
155 352 1
155 368 1
155 376 1
155 384 1
155 412 1
155 428 1
155 436 1
155 444 1
156 28 1
156 44 1
156 52 1
156 60 1
156 288 1
156 304 1
156 312 1
156 320 1
156 346 1
156 362 1
156 370 1
156 378 1
156 411 1
156 427 1
156 435 1
156 443 1
157 29 1
157 45 1
157 53 1
157 61 1
157 284 1
157 300 1
157 308 1
157 316 1
157 347 1
157 363 1
157 371 1
157 379 1
157 414 1
157 430 1
157 438 1
157 446 1
158 30 1
158 46 1
158 54 1
158 62 1
158 283 1
158 299 1
158 307 1
158 315 1
158 348 1
158 364 1
158 372 1
158 380 1
158 413 1
158 429 1
158 437 1
158 445 1
159 31 1
159 47 1
159 55 1
159 63 1
159 286 1
159 302 1
159 310 1
159 318 1
159 349 1
159 365 1
159 373 1
159 381 1
159 409 1
159 425 1
159 433 1
159 441 1
160 32 1
160 48 1
160 56 1
160 64 1
160 281 1
160 297 1
160 305 1
160 313 1
160 351 1
160 367 1
160 375 1
160 383 1
160 410 1
160 426 1
160 434 1
160 442 1
161 66 1
161 98 1
161 106 1
161 114 1
161 261 1
161 293 1
161 301 1
161 309 1
161 326 1
161 358 1
161 366 1
161 374 1
161 456 1
161 488 1
161 496 1
161 504 1
162 68 1
162 100 1
162 108 1
162 116 1
162 263 1
162 295 1
162 303 1
162 311 1
162 321 1
162 353 1
162 361 1
162 369 1
162 451 1
162 483 1
162 491 1
162 499 1
163 69 1
163 101 1
163 109 1
163 117 1
163 258 1
163 290 1
163 298 1
163 306 1
163 328 1
163 360 1
163 368 1
163 376 1
163 454 1
163 486 1
163 494 1
163 502 1
164 70 1
164 102 1
164 110 1
164 118 1
164 264 1
164 296 1
164 304 1
164 312 1
164 322 1
164 354 1
164 362 1
164 370 1
164 453 1
164 485 1
164 493 1
164 501 1
165 71 1
165 103 1
165 111 1
165 119 1
165 260 1
165 292 1
165 300 1
165 308 1
165 323 1
165 355 1
165 363 1
165 371 1
165 449 1
165 481 1
165 489 1
165 497 1
166 65 1
166 97 1
166 105 1
166 113 1
166 259 1
166 291 1
166 299 1
166 307 1
166 324 1
166 356 1
166 364 1
166 372 1
166 455 1
166 487 1
166 495 1
166 503 1
167 72 1
167 104 1
167 112 1
167 120 1
167 262 1
167 294 1
167 302 1
167 310 1
167 325 1
167 357 1
167 365 1
167 373 1
167 450 1
167 482 1
167 490 1
167 498 1
168 67 1
168 99 1
168 107 1
168 115 1
168 257 1
168 289 1
168 297 1
168 305 1
168 327 1
168 359 1
168 367 1
168 375 1
168 452 1
168 484 1
168 492 1
168 500 1
169 74 1
169 98 1
169 106 1
169 122 1
169 269 1
169 293 1
169 301 1
169 317 1
169 334 1
169 358 1
169 366 1
169 382 1
169 464 1
169 488 1
169 496 1
169 512 1
170 76 1
170 100 1
170 108 1
170 124 1
170 271 1
170 295 1
170 303 1
170 319 1
170 329 1
170 353 1
170 361 1
170 377 1
170 459 1
170 483 1
170 491 1
170 507 1
171 77 1
171 101 1
171 109 1
171 125 1
171 266 1
171 290 1
171 298 1
171 314 1
171 336 1
171 360 1
171 368 1
171 384 1
171 462 1
171 486 1
171 494 1
171 510 1
172 78 1
172 102 1
172 110 1
172 126 1
172 272 1
172 296 1
172 304 1
172 320 1
172 330 1
172 354 1
172 362 1
172 378 1
172 461 1
172 485 1
172 493 1
172 509 1
173 79 1
173 103 1
173 111 1
173 127 1
173 268 1
173 292 1
173 300 1
173 316 1
173 331 1
173 355 1
173 363 1
173 379 1
173 457 1
173 481 1
173 489 1
173 505 1
174 73 1
174 97 1
174 105 1
174 121 1
174 267 1
174 291 1
174 299 1
174 315 1
174 332 1
174 356 1
174 364 1
174 380 1
174 463 1
174 487 1
174 495 1
174 511 1
175 80 1
175 104 1
175 112 1
175 128 1
175 270 1
175 294 1
175 302 1
175 318 1
175 333 1
175 357 1
175 365 1
175 381 1
175 458 1
175 482 1
175 490 1
175 506 1
176 75 1
176 99 1
176 107 1
176 123 1
176 265 1
176 289 1
176 297 1
176 313 1
176 335 1
176 359 1
176 367 1
176 383 1
176 460 1
176 484 1
176 492 1
176 508 1
177 82 1
177 98 1
177 114 1
177 122 1
177 277 1
177 293 1
177 309 1
177 317 1
177 342 1
177 358 1
177 374 1
177 382 1
177 472 1
177 488 1
177 504 1
177 512 1
178 84 1
178 100 1
178 116 1
178 124 1
178 279 1
178 295 1
178 311 1
178 319 1
178 337 1
178 353 1
178 369 1
178 377 1
178 467 1
178 483 1
178 499 1
178 507 1
179 85 1
179 101 1
179 117 1
179 125 1
179 274 1
179 290 1
179 306 1
179 314 1
179 344 1
179 360 1
179 376 1
179 384 1
179 470 1
179 486 1
179 502 1
179 510 1
180 86 1
180 102 1
180 118 1
180 126 1
180 280 1
180 296 1
180 312 1
180 320 1
180 338 1
180 354 1
180 370 1
180 378 1
180 469 1
180 485 1
180 501 1
180 509 1
181 87 1
181 103 1
181 119 1
181 127 1
181 276 1
181 292 1
181 308 1
181 316 1
181 339 1
181 355 1
181 371 1
181 379 1
181 465 1
181 481 1
181 497 1
181 505 1
182 81 1
182 97 1
182 113 1
182 121 1
182 275 1
182 291 1
182 307 1
182 315 1
182 340 1
182 356 1
182 372 1
182 380 1
182 471 1
182 487 1
182 503 1
182 511 1
183 88 1
183 104 1
183 120 1
183 128 1
183 278 1
183 294 1
183 310 1
183 318 1
183 341 1
183 357 1
183 373 1
183 381 1
183 466 1
183 482 1
183 498 1
183 506 1
184 83 1
184 99 1
184 115 1
184 123 1
184 273 1
184 289 1
184 305 1
184 313 1
184 343 1
184 359 1
184 375 1
184 383 1
184 468 1
184 484 1
184 500 1
184 508 1
185 90 1
185 106 1
185 114 1
185 122 1
185 285 1
185 301 1
185 309 1
185 317 1
185 350 1
185 366 1
185 374 1
185 382 1
185 480 1
185 496 1
185 504 1
185 512 1
186 92 1
186 108 1
186 116 1
186 124 1
186 287 1
186 303 1
186 311 1
186 319 1
186 345 1
186 361 1
186 369 1
186 377 1
186 475 1
186 491 1
186 499 1
186 507 1
187 93 1
187 109 1
187 117 1
187 125 1
187 282 1
187 298 1
187 306 1
187 314 1
187 352 1
187 368 1
187 376 1
187 384 1
187 478 1
187 494 1
187 502 1
187 510 1
188 94 1
188 110 1
188 118 1
188 126 1
188 288 1
188 304 1
188 312 1
188 320 1
188 346 1
188 362 1
188 370 1
188 378 1
188 477 1
188 493 1
188 501 1
188 509 1
189 95 1
189 111 1
189 119 1
189 127 1
189 284 1
189 300 1
189 308 1
189 316 1
189 347 1
189 363 1
189 371 1
189 379 1
189 473 1
189 489 1
189 497 1
189 505 1
190 89 1
190 105 1
190 113 1
190 121 1
190 283 1
190 299 1
190 307 1
190 315 1
190 348 1
190 364 1
190 372 1
190 380 1
190 479 1
190 495 1
190 503 1
190 511 1
191 96 1
191 112 1
191 120 1
191 128 1
191 286 1
191 302 1
191 310 1
191 318 1
191 349 1
191 365 1
191 373 1
191 381 1
191 474 1
191 490 1
191 498 1
191 506 1
192 91 1
192 107 1
192 115 1
192 123 1
192 281 1
192 297 1
192 305 1
192 313 1
192 351 1
192 367 1
192 375 1
192 383 1
192 476 1
192 492 1
192 500 1
192 508 1
193 131 1
193 163 1
193 171 1
193 179 1
193 261 1
193 293 1
193 301 1
193 309 1
193 391 1
193 423 1
193 431 1
193 439 1
193 456 1
193 488 1
193 496 1
193 504 1
194 133 1
194 165 1
194 173 1
194 181 1
194 263 1
194 295 1
194 303 1
194 311 1
194 392 1
194 424 1
194 432 1
194 440 1
194 451 1
194 483 1
194 491 1
194 499 1
195 129 1
195 161 1
195 169 1
195 177 1
195 258 1
195 290 1
195 298 1
195 306 1
195 388 1
195 420 1
195 428 1
195 436 1
195 454 1
195 486 1
195 494 1
195 502 1
196 135 1
196 167 1
196 175 1
196 183 1
196 264 1
196 296 1
196 304 1
196 312 1
196 387 1
196 419 1
196 427 1
196 435 1
196 453 1
196 485 1
196 493 1
196 501 1
197 130 1
197 162 1
197 170 1
197 178 1
197 260 1
197 292 1
197 300 1
197 308 1
197 390 1
197 422 1
197 430 1
197 438 1
197 449 1
197 481 1
197 489 1
197 497 1
198 136 1
198 168 1
198 176 1
198 184 1
198 259 1
198 291 1
198 299 1
198 307 1
198 389 1
198 421 1
198 429 1
198 437 1
198 455 1
198 487 1
198 495 1
198 503 1
199 132 1
199 164 1
199 172 1
199 180 1
199 262 1
199 294 1
199 302 1
199 310 1
199 385 1
199 417 1
199 425 1
199 433 1
199 450 1
199 482 1
199 490 1
199 498 1
200 134 1
200 166 1
200 174 1
200 182 1
200 257 1
200 289 1
200 297 1
200 305 1
200 386 1
200 418 1
200 426 1
200 434 1
200 452 1
200 484 1
200 492 1
200 500 1
201 139 1
201 163 1
201 171 1
201 187 1
201 269 1
201 293 1
201 301 1
201 317 1
201 399 1
201 423 1
201 431 1
201 447 1
201 464 1
201 488 1
201 496 1
201 512 1
202 141 1
202 165 1
202 173 1
202 189 1
202 271 1
202 295 1
202 303 1
202 319 1
202 400 1
202 424 1
202 432 1
202 448 1
202 459 1
202 483 1
202 491 1
202 507 1
203 137 1
203 161 1
203 169 1
203 185 1
203 266 1
203 290 1
203 298 1
203 314 1
203 396 1
203 420 1
203 428 1
203 444 1
203 462 1
203 486 1
203 494 1
203 510 1
204 143 1
204 167 1
204 175 1
204 191 1
204 272 1
204 296 1
204 304 1
204 320 1
204 395 1
204 419 1
204 427 1
204 443 1
204 461 1
204 485 1
204 493 1
204 509 1
205 138 1
205 162 1
205 170 1
205 186 1
205 268 1
205 292 1
205 300 1
205 316 1
205 398 1
205 422 1
205 430 1
205 446 1
205 457 1
205 481 1
205 489 1
205 505 1
206 144 1
206 168 1
206 176 1
206 192 1
206 267 1
206 291 1
206 299 1
206 315 1
206 397 1
206 421 1
206 429 1
206 445 1
206 463 1
206 487 1
206 495 1
206 511 1
207 140 1
207 164 1
207 172 1
207 188 1
207 270 1
207 294 1
207 302 1
207 318 1
207 393 1
207 417 1
207 425 1
207 441 1
207 458 1
207 482 1
207 490 1
207 506 1
208 142 1
208 166 1
208 174 1
208 190 1
208 265 1
208 289 1
208 297 1
208 313 1
208 394 1
208 418 1
208 426 1
208 442 1
208 460 1
208 484 1
208 492 1
208 508 1
209 147 1
209 163 1
209 179 1
209 187 1
209 277 1
209 293 1
209 309 1
209 317 1
209 407 1
209 423 1
209 439 1
209 447 1
209 472 1
209 488 1
209 504 1
209 512 1
210 149 1
210 165 1
210 181 1
210 189 1
210 279 1
210 295 1
210 311 1
210 319 1
210 408 1
210 424 1
210 440 1
210 448 1
210 467 1
210 483 1
210 499 1
210 507 1
211 145 1
211 161 1
211 177 1
211 185 1
211 274 1
211 290 1
211 306 1
211 314 1
211 404 1
211 420 1
211 436 1
211 444 1
211 470 1
211 486 1
211 502 1
211 510 1
212 151 1
212 167 1
212 183 1
212 191 1
212 280 1
212 296 1
212 312 1
212 320 1
212 403 1
212 419 1
212 435 1
212 443 1
212 469 1
212 485 1
212 501 1
212 509 1
213 146 1
213 162 1
213 178 1
213 186 1
213 276 1
213 292 1
213 308 1
213 316 1
213 406 1
213 422 1
213 438 1
213 446 1
213 465 1
213 481 1
213 497 1
213 505 1
214 152 1
214 168 1
214 184 1
214 192 1
214 275 1
214 291 1
214 307 1
214 315 1
214 405 1
214 421 1
214 437 1
214 445 1
214 471 1
214 487 1
214 503 1
214 511 1
215 148 1
215 164 1
215 180 1
215 188 1
215 278 1
215 294 1
215 310 1
215 318 1
215 401 1
215 417 1
215 433 1
215 441 1
215 466 1
215 482 1
215 498 1
215 506 1
216 150 1
216 166 1
216 182 1
216 190 1
216 273 1
216 289 1
216 305 1
216 313 1
216 402 1
216 418 1
216 434 1
216 442 1
216 468 1
216 484 1
216 500 1
216 508 1
217 155 1
217 171 1
217 179 1
217 187 1
217 285 1
217 301 1
217 309 1
217 317 1
217 415 1
217 431 1
217 439 1
217 447 1
217 480 1
217 496 1
217 504 1
217 512 1
218 157 1
218 173 1
218 181 1
218 189 1
218 287 1
218 303 1
218 311 1
218 319 1
218 416 1
218 432 1
218 440 1
218 448 1
218 475 1
218 491 1
218 499 1
218 507 1
219 153 1
219 169 1
219 177 1
219 185 1
219 282 1
219 298 1
219 306 1
219 314 1
219 412 1
219 428 1
219 436 1
219 444 1
219 478 1
219 494 1
219 502 1
219 510 1
220 159 1
220 175 1
220 183 1
220 191 1
220 288 1
220 304 1
220 312 1
220 320 1
220 411 1
220 427 1
220 435 1
220 443 1
220 477 1
220 493 1
220 501 1
220 509 1
221 154 1
221 170 1
221 178 1
221 186 1
221 284 1
221 300 1
221 308 1
221 316 1
221 414 1
221 430 1
221 438 1
221 446 1
221 473 1
221 489 1
221 497 1
221 505 1
222 160 1
222 176 1
222 184 1
222 192 1
222 283 1
222 299 1
222 307 1
222 315 1
222 413 1
222 429 1
222 437 1
222 445 1
222 479 1
222 495 1
222 503 1
222 511 1
223 156 1
223 172 1
223 180 1
223 188 1
223 286 1
223 302 1
223 310 1
223 318 1
223 409 1
223 425 1
223 433 1
223 441 1
223 474 1
223 490 1
223 498 1
223 506 1
224 158 1
224 174 1
224 182 1
224 190 1
224 281 1
224 297 1
224 305 1
224 313 1
224 410 1
224 426 1
224 434 1
224 442 1
224 476 1
224 492 1
224 500 1
224 508 1
225 197 1
225 229 1
225 237 1
225 245 1
225 326 1
225 358 1
225 366 1
225 374 1
225 391 1
225 423 1
225 431 1
225 439 1
225 456 1
225 488 1
225 496 1
225 504 1
226 199 1
226 231 1
226 239 1
226 247 1
226 321 1
226 353 1
226 361 1
226 369 1
226 392 1
226 424 1
226 432 1
226 440 1
226 451 1
226 483 1
226 491 1
226 499 1
227 194 1
227 226 1
227 234 1
227 242 1
227 328 1
227 360 1
227 368 1
227 376 1
227 388 1
227 420 1
227 428 1
227 436 1
227 454 1
227 486 1
227 494 1
227 502 1
228 200 1
228 232 1
228 240 1
228 248 1
228 322 1
228 354 1
228 362 1
228 370 1
228 387 1
228 419 1
228 427 1
228 435 1
228 453 1
228 485 1
228 493 1
228 501 1
229 196 1
229 228 1
229 236 1
229 244 1
229 323 1
229 355 1
229 363 1
229 371 1
229 390 1
229 422 1
229 430 1
229 438 1
229 449 1
229 481 1
229 489 1
229 497 1
230 195 1
230 227 1
230 235 1
230 243 1
230 324 1
230 356 1
230 364 1
230 372 1
230 389 1
230 421 1
230 429 1
230 437 1
230 455 1
230 487 1
230 495 1
230 503 1
231 198 1
231 230 1
231 238 1
231 246 1
231 325 1
231 357 1
231 365 1
231 373 1
231 385 1
231 417 1
231 425 1
231 433 1
231 450 1
231 482 1
231 490 1
231 498 1
232 193 1
232 225 1
232 233 1
232 241 1
232 327 1
232 359 1
232 367 1
232 375 1
232 386 1
232 418 1
232 426 1
232 434 1
232 452 1
232 484 1
232 492 1
232 500 1
233 205 1
233 229 1
233 237 1
233 253 1
233 334 1
233 358 1
233 366 1
233 382 1
233 399 1
233 423 1
233 431 1
233 447 1
233 464 1
233 488 1
233 496 1
233 512 1
234 207 1
234 231 1
234 239 1
234 255 1
234 329 1
234 353 1
234 361 1
234 377 1
234 400 1
234 424 1
234 432 1
234 448 1
234 459 1
234 483 1
234 491 1
234 507 1
235 202 1
235 226 1
235 234 1
235 250 1
235 336 1
235 360 1
235 368 1
235 384 1
235 396 1
235 420 1
235 428 1
235 444 1
235 462 1
235 486 1
235 494 1
235 510 1
236 208 1
236 232 1
236 240 1
236 256 1
236 330 1
236 354 1
236 362 1
236 378 1
236 395 1
236 419 1
236 427 1
236 443 1
236 461 1
236 485 1
236 493 1
236 509 1
237 204 1
237 228 1
237 236 1
237 252 1
237 331 1
237 355 1
237 363 1
237 379 1
237 398 1
237 422 1
237 430 1
237 446 1
237 457 1
237 481 1
237 489 1
237 505 1
238 203 1
238 227 1
238 235 1
238 251 1
238 332 1
238 356 1
238 364 1
238 380 1
238 397 1
238 421 1
238 429 1
238 445 1
238 463 1
238 487 1
238 495 1
238 511 1
239 206 1
239 230 1
239 238 1
239 254 1
239 333 1
239 357 1
239 365 1
239 381 1
239 393 1
239 417 1
239 425 1
239 441 1
239 458 1
239 482 1
239 490 1
239 506 1
240 201 1
240 225 1
240 233 1
240 249 1
240 335 1
240 359 1
240 367 1
240 383 1
240 394 1
240 418 1
240 426 1
240 442 1
240 460 1
240 484 1
240 492 1
240 508 1
241 213 1
241 229 1
241 245 1
241 253 1
241 342 1
241 358 1
241 374 1
241 382 1
241 407 1
241 423 1
241 439 1
241 447 1
241 472 1
241 488 1
241 504 1
241 512 1
242 215 1
242 231 1
242 247 1
242 255 1
242 337 1
242 353 1
242 369 1
242 377 1
242 408 1
242 424 1
242 440 1
242 448 1
242 467 1
242 483 1
242 499 1
242 507 1
243 210 1
243 226 1
243 242 1
243 250 1
243 344 1
243 360 1
243 376 1
243 384 1
243 404 1
243 420 1
243 436 1
243 444 1
243 470 1
243 486 1
243 502 1
243 510 1
244 216 1
244 232 1
244 248 1
244 256 1
244 338 1
244 354 1
244 370 1
244 378 1
244 403 1
244 419 1
244 435 1
244 443 1
244 469 1
244 485 1
244 501 1
244 509 1
245 212 1
245 228 1
245 244 1
245 252 1
245 339 1
245 355 1
245 371 1
245 379 1
245 406 1
245 422 1
245 438 1
245 446 1
245 465 1
245 481 1
245 497 1
245 505 1
246 211 1
246 227 1
246 243 1
246 251 1
246 340 1
246 356 1
246 372 1
246 380 1
246 405 1
246 421 1
246 437 1
246 445 1
246 471 1
246 487 1
246 503 1
246 511 1
247 214 1
247 230 1
247 246 1
247 254 1
247 341 1
247 357 1
247 373 1
247 381 1
247 401 1
247 417 1
247 433 1
247 441 1
247 466 1
247 482 1
247 498 1
247 506 1
248 209 1
248 225 1
248 241 1
248 249 1
248 343 1
248 359 1
248 375 1
248 383 1
248 402 1
248 418 1
248 434 1
248 442 1
248 468 1
248 484 1
248 500 1
248 508 1
249 221 1
249 237 1
249 245 1
249 253 1
249 350 1
249 366 1
249 374 1
249 382 1
249 415 1
249 431 1
249 439 1
249 447 1
249 480 1
249 496 1
249 504 1
249 512 1
250 223 1
250 239 1
250 247 1
250 255 1
250 345 1
250 361 1
250 369 1
250 377 1
250 416 1
250 432 1
250 440 1
250 448 1
250 475 1
250 491 1
250 499 1
250 507 1
251 218 1
251 234 1
251 242 1
251 250 1
251 352 1
251 368 1
251 376 1
251 384 1
251 412 1
251 428 1
251 436 1
251 444 1
251 478 1
251 494 1
251 502 1
251 510 1
252 224 1
252 240 1
252 248 1
252 256 1
252 346 1
252 362 1
252 370 1
252 378 1
252 411 1
252 427 1
252 435 1
252 443 1
252 477 1
252 493 1
252 501 1
252 509 1
253 220 1
253 236 1
253 244 1
253 252 1
253 347 1
253 363 1
253 371 1
253 379 1
253 414 1
253 430 1
253 438 1
253 446 1
253 473 1
253 489 1
253 497 1
253 505 1
254 219 1
254 235 1
254 243 1
254 251 1
254 348 1
254 364 1
254 372 1
254 380 1
254 413 1
254 429 1
254 437 1
254 445 1
254 479 1
254 495 1
254 503 1
254 511 1
255 222 1
255 238 1
255 246 1
255 254 1
255 349 1
255 365 1
255 373 1
255 381 1
255 409 1
255 425 1
255 433 1
255 441 1
255 474 1
255 490 1
255 498 1
255 506 1
256 217 1
256 233 1
256 241 1
256 249 1
256 351 1
256 367 1
256 375 1
256 383 1
256 410 1
256 426 1
256 434 1
256 442 1
256 476 1
256 492 1
256 500 1
256 508 1
