%%MatrixMarket matrix coordinate integer general
192 384 3072
1 1 1
1 30 1
1 33 1
1 39 1
1 193 1
1 222 1
1 225 1
1 231 1
1 241 1
1 270 1
1 273 1
1 279 1
1 289 1
1 318 1
1 321 1
1 327 1
2 2 1
2 29 1
2 34 1
2 40 1
2 194 1
2 221 1
2 226 1
2 232 1
2 242 1
2 269 1
2 274 1
2 280 1
2 290 1
2 317 1
2 322 1
2 328 1
3 3 1
3 26 1
3 35 1
3 41 1
3 195 1
3 218 1
3 227 1
3 233 1
3 243 1
3 266 1
3 275 1
3 281 1
3 291 1
3 314 1
3 323 1
3 329 1
4 4 1
4 25 1
4 36 1
4 42 1
4 196 1
4 217 1
4 228 1
4 234 1
4 244 1
4 265 1
4 276 1
4 282 1
4 292 1
4 313 1
4 324 1
4 330 1
5 5 1
5 28 1
5 31 1
5 37 1
5 197 1
5 220 1
5 223 1
5 229 1
5 245 1
5 268 1
5 271 1
5 277 1
5 293 1
5 316 1
5 319 1
5 325 1
6 6 1
6 27 1
6 32 1
6 38 1
6 198 1
6 219 1
6 224 1
6 230 1
6 246 1
6 267 1
6 272 1
6 278 1
6 294 1
6 315 1
6 320 1
6 326 1
7 7 1
7 30 1
7 33 1
7 46 1
7 199 1
7 222 1
7 225 1
7 238 1
7 247 1
7 270 1
7 273 1
7 286 1
7 295 1
7 318 1
7 321 1
7 334 1
8 8 1
8 29 1
8 34 1
8 45 1
8 200 1
8 221 1
8 226 1
8 237 1
8 248 1
8 269 1
8 274 1
8 285 1
8 296 1
8 317 1
8 322 1
8 333 1
9 9 1
9 26 1
9 35 1
9 48 1
9 201 1
9 218 1
9 227 1
9 240 1
9 249 1
9 266 1
9 275 1
9 288 1
9 297 1
9 314 1
9 323 1
9 336 1
10 10 1
10 25 1
10 36 1
10 47 1
10 202 1
10 217 1
10 228 1
10 239 1
10 250 1
10 265 1
10 276 1
10 287 1
10 298 1
10 313 1
10 324 1
10 335 1
11 11 1
11 28 1
11 31 1
11 44 1
11 203 1
11 220 1
11 223 1
11 236 1
11 251 1
11 268 1
11 271 1
11 284 1
11 299 1
11 316 1
11 319 1
11 332 1
12 12 1
12 27 1
12 32 1
12 43 1
12 204 1
12 219 1
12 224 1
12 235 1
12 252 1
12 267 1
12 272 1
12 283 1
12 300 1
12 315 1
12 320 1
12 331 1
13 17 1
13 30 1
13 39 1
13 46 1
13 209 1
13 222 1
13 231 1
13 238 1
13 257 1
13 270 1
13 279 1
13 286 1
13 305 1
13 318 1
13 327 1
13 334 1
14 18 1
14 29 1
14 40 1
14 45 1
14 210 1
14 221 1
14 232 1
14 237 1
14 258 1
14 269 1
14 280 1
14 285 1
14 306 1
14 317 1
14 328 1
14 333 1
15 13 1
15 26 1
15 41 1
15 48 1
15 205 1
15 218 1
15 233 1
15 240 1
15 253 1
15 266 1
15 281 1
15 288 1
15 301 1
15 314 1
15 329 1
15 336 1
16 14 1
16 25 1
16 42 1
16 47 1
16 206 1
16 217 1
16 234 1
16 239 1
16 254 1
16 265 1
16 282 1
16 287 1
16 302 1
16 313 1
16 330 1
16 335 1
17 15 1
17 28 1
17 37 1
17 44 1
17 207 1
17 220 1
17 229 1
17 236 1
17 255 1
17 268 1
17 277 1
17 284 1
17 303 1
17 316 1
17 325 1
17 332 1
18 16 1
18 27 1
18 38 1
18 43 1
18 208 1
18 219 1
18 230 1
18 235 1
18 256 1
18 267 1
18 278 1
18 283 1
18 304 1
18 315 1
18 326 1
18 331 1
19 23 1
19 33 1
19 39 1
19 46 1
19 215 1
19 225 1
19 231 1
19 238 1
19 263 1
19 273 1
19 279 1
19 286 1
19 311 1
19 321 1
19 327 1
19 334 1
20 24 1
20 34 1
20 40 1
20 45 1
20 216 1
20 226 1
20 232 1
20 237 1
20 264 1
20 274 1
20 280 1
20 285 1
20 312 1
20 322 1
20 328 1
20 333 1
21 19 1
21 35 1
21 41 1
21 48 1
21 211 1
21 227 1
21 233 1
21 240 1
21 259 1
21 275 1
21 281 1
21 288 1
21 307 1
21 323 1
21 329 1
21 336 1
22 20 1
22 36 1
22 42 1
22 47 1
22 212 1
22 228 1
22 234 1
22 239 1
22 260 1
22 276 1
22 282 1
22 287 1
22 308 1
22 324 1
22 330 1
22 335 1
23 21 1
23 31 1
23 37 1
23 44 1
23 213 1
23 223 1
23 229 1
23 236 1
23 261 1
23 271 1
23 277 1
23 284 1
23 309 1
23 319 1
23 325 1
23 332 1
24 22 1
24 32 1
24 38 1
24 43 1
24 214 1
24 224 1
24 230 1
24 235 1
24 262 1
24 272 1
24 278 1
24 283 1
24 310 1
24 320 1
24 326 1
24 331 1
25 49 1
25 78 1
25 81 1
25 87 1
25 193 1
25 222 1
25 225 1
25 231 1
25 241 1
25 270 1
25 273 1
25 279 1
25 337 1
25 366 1
25 369 1
25 375 1
26 50 1
26 77 1
26 82 1
26 88 1
26 194 1
26 221 1
26 226 1
26 232 1
26 242 1
26 269 1
26 274 1
26 280 1
26 338 1
26 365 1
26 370 1
26 376 1
27 51 1
27 74 1
27 83 1
27 89 1
27 195 1
27 218 1
27 227 1
27 233 1
27 243 1
27 266 1
27 275 1
27 281 1
27 339 1
27 362 1
27 371 1
27 377 1
28 52 1
28 73 1
28 84 1
28 90 1
28 196 1
28 217 1
28 228 1
28 234 1
28 244 1
28 265 1
28 276 1
28 282 1
28 340 1
28 361 1
28 372 1
28 378 1
29 53 1
29 76 1
29 79 1
29 85 1
29 197 1
29 220 1
29 223 1
29 229 1
29 245 1
29 268 1
29 271 1
29 277 1
29 341 1
29 364 1
29 367 1
29 373 1
30 54 1
30 75 1
30 80 1
30 86 1
30 198 1
30 219 1
30 224 1
30 230 1
30 246 1
30 267 1
30 272 1
30 278 1
30 342 1
30 363 1
30 368 1
30 374 1
31 55 1
31 78 1
31 81 1
31 94 1
31 199 1
31 222 1
31 225 1
31 238 1
31 247 1
31 270 1
31 273 1
31 286 1
31 343 1
31 366 1
31 369 1
31 382 1
32 56 1
32 77 1
32 82 1
32 93 1
32 200 1
32 221 1
32 226 1
32 237 1
32 248 1
32 269 1
32 274 1
32 285 1
32 344 1
32 365 1
32 370 1
32 381 1
33 57 1
33 74 1
33 83 1
33 96 1
33 201 1
33 218 1
33 227 1
33 240 1
33 249 1
33 266 1
33 275 1
33 288 1
33 345 1
33 362 1
33 371 1
33 384 1
34 58 1
34 73 1
34 84 1
34 95 1
34 202 1
34 217 1
34 228 1
34 239 1
34 250 1
34 265 1
34 276 1
34 287 1
34 346 1
34 361 1
34 372 1
34 383 1
35 59 1
35 76 1
35 79 1
35 92 1
35 203 1
35 220 1
35 223 1
35 236 1
35 251 1
35 268 1
35 271 1
35 284 1
35 347 1
35 364 1
35 367 1
35 380 1
36 60 1
36 75 1
36 80 1
36 91 1
36 204 1
36 219 1
36 224 1
36 235 1
36 252 1
36 267 1
36 272 1
36 283 1
36 348 1
36 363 1
36 368 1
36 379 1
37 65 1
37 78 1
37 87 1
37 94 1
37 209 1
37 222 1
37 231 1
37 238 1
37 257 1
37 270 1
37 279 1
37 286 1
37 353 1
37 366 1
37 375 1
37 382 1
38 66 1
38 77 1
38 88 1
38 93 1
38 210 1
38 221 1
38 232 1
38 237 1
38 258 1
38 269 1
38 280 1
38 285 1
38 354 1
38 365 1
38 376 1
38 381 1
39 61 1
39 74 1
39 89 1
39 96 1
39 205 1
39 218 1
39 233 1
39 240 1
39 253 1
39 266 1
39 281 1
39 288 1
39 349 1
39 362 1
39 377 1
39 384 1
40 62 1
40 73 1
40 90 1
40 95 1
40 206 1
40 217 1
40 234 1
40 239 1
40 254 1
40 265 1
40 282 1
40 287 1
40 350 1
40 361 1
40 378 1
40 383 1
41 63 1
41 76 1
41 85 1
41 92 1
41 207 1
41 220 1
41 229 1
41 236 1
41 255 1
41 268 1
41 277 1
41 284 1
41 351 1
41 364 1
41 373 1
41 380 1
42 64 1
42 75 1
42 86 1
42 91 1
42 208 1
42 219 1
42 230 1
42 235 1
42 256 1
42 267 1
42 278 1
42 283 1
42 352 1
42 363 1
42 374 1
42 379 1
43 71 1
43 81 1
43 87 1
43 94 1
43 215 1
43 225 1
43 231 1
43 238 1
43 263 1
43 273 1
43 279 1
43 286 1
43 359 1
43 369 1
43 375 1
43 382 1
44 72 1
44 82 1
44 88 1
44 93 1
44 216 1
44 226 1
44 232 1
44 237 1
44 264 1
44 274 1
44 280 1
44 285 1
44 360 1
44 370 1
44 376 1
44 381 1
45 67 1
45 83 1
45 89 1
45 96 1
45 211 1
45 227 1
45 233 1
45 240 1
45 259 1
45 275 1
45 281 1
45 288 1
45 355 1
45 371 1
45 377 1
45 384 1
46 68 1
46 84 1
46 90 1
46 95 1
46 212 1
46 228 1
46 234 1
46 239 1
46 260 1
46 276 1
46 282 1
46 287 1
46 356 1
46 372 1
46 378 1
46 383 1
47 69 1
47 79 1
47 85 1
47 92 1
47 213 1
47 223 1
47 229 1
47 236 1
47 261 1
47 271 1
47 277 1
47 284 1
47 357 1
47 367 1
47 373 1
47 380 1
48 70 1
48 80 1
48 86 1
48 91 1
48 214 1
48 224 1
48 230 1
48 235 1
48 262 1
48 272 1
48 278 1
48 283 1
48 358 1
48 368 1
48 374 1
48 379 1
49 97 1
49 126 1
49 129 1
49 135 1
49 193 1
49 222 1
49 225 1
49 231 1
49 289 1
49 318 1
49 321 1
49 327 1
49 337 1
49 366 1
49 369 1
49 375 1
50 98 1
50 125 1
50 130 1
50 136 1
50 194 1
50 221 1
50 226 1
50 232 1
50 290 1
50 317 1
50 322 1
50 328 1
50 338 1
50 365 1
50 370 1
50 376 1
51 99 1
51 122 1
51 131 1
51 137 1
51 195 1
51 218 1
51 227 1
51 233 1
51 291 1
51 314 1
51 323 1
51 329 1
51 339 1
51 362 1
51 371 1
51 377 1
52 100 1
52 121 1
52 132 1
52 138 1
52 196 1
52 217 1
52 228 1
52 234 1
52 292 1
52 313 1
52 324 1
52 330 1
52 340 1
52 361 1
52 372 1
52 378 1
53 101 1
53 124 1
53 127 1
53 133 1
53 197 1
53 220 1
53 223 1
53 229 1
53 293 1
53 316 1
53 319 1
53 325 1
53 341 1
53 364 1
53 367 1
53 373 1
54 102 1
54 123 1
54 128 1
54 134 1
54 198 1
54 219 1
54 224 1
54 230 1
54 294 1
54 315 1
54 320 1
54 326 1
54 342 1
54 363 1
54 368 1
54 374 1
55 103 1
55 126 1
55 129 1
55 142 1
55 199 1
55 222 1
55 225 1
55 238 1
55 295 1
55 318 1
55 321 1
55 334 1
55 343 1
55 366 1
55 369 1
55 382 1
56 104 1
56 125 1
56 130 1
56 141 1
56 200 1
56 221 1
56 226 1
56 237 1
56 296 1
56 317 1
56 322 1
56 333 1
56 344 1
56 365 1
56 370 1
56 381 1
57 105 1
57 122 1
57 131 1
57 144 1
57 201 1
57 218 1
57 227 1
57 240 1
57 297 1
57 314 1
57 323 1
57 336 1
57 345 1
57 362 1
57 371 1
57 384 1
58 106 1
58 121 1
58 132 1
58 143 1
58 202 1
58 217 1
58 228 1
58 239 1
58 298 1
58 313 1
58 324 1
58 335 1
58 346 1
58 361 1
58 372 1
58 383 1
59 107 1
59 124 1
59 127 1
59 140 1
59 203 1
59 220 1
59 223 1
59 236 1
59 299 1
59 316 1
59 319 1
59 332 1
59 347 1
59 364 1
59 367 1
59 380 1
60 108 1
60 123 1
60 128 1
60 139 1
60 204 1
60 219 1
60 224 1
60 235 1
60 300 1
60 315 1
60 320 1
60 331 1
60 348 1
60 363 1
60 368 1
60 379 1
61 113 1
61 126 1
61 135 1
61 142 1
61 209 1
61 222 1
61 231 1
61 238 1
61 305 1
61 318 1
61 327 1
61 334 1
61 353 1
61 366 1
61 375 1
61 382 1
62 114 1
62 125 1
62 136 1
62 141 1
62 210 1
62 221 1
62 232 1
62 237 1
62 306 1
62 317 1
62 328 1
62 333 1
62 354 1
62 365 1
62 376 1
62 381 1
63 109 1
63 122 1
63 137 1
63 144 1
63 205 1
63 218 1
63 233 1
63 240 1
63 301 1
63 314 1
63 329 1
63 336 1
63 349 1
63 362 1
63 377 1
63 384 1
64 110 1
64 121 1
64 138 1
64 143 1
64 206 1
64 217 1
64 234 1
64 239 1
64 302 1
64 313 1
64 330 1
64 335 1
64 350 1
64 361 1
64 378 1
64 383 1
65 111 1
65 124 1
65 133 1
65 140 1
65 207 1
65 220 1
65 229 1
65 236 1
65 303 1
65 316 1
65 325 1
65 332 1
65 351 1
65 364 1
65 373 1
65 380 1
66 112 1
66 123 1
66 134 1
66 139 1
66 208 1
66 219 1
66 230 1
66 235 1
66 304 1
66 315 1
66 326 1
66 331 1
66 352 1
66 363 1
66 374 1
66 379 1
67 119 1
67 129 1
67 135 1
67 142 1
67 215 1
67 225 1
67 231 1
67 238 1
67 311 1
67 321 1
67 327 1
67 334 1
67 359 1
67 369 1
67 375 1
67 382 1
68 120 1
68 130 1
68 136 1
68 141 1
68 216 1
68 226 1
68 232 1
68 237 1
68 312 1
68 322 1
68 328 1
68 333 1
68 360 1
68 370 1
68 376 1
68 381 1
69 115 1
69 131 1
69 137 1
69 144 1
69 211 1
69 227 1
69 233 1
69 240 1
69 307 1
69 323 1
69 329 1
69 336 1
69 355 1
69 371 1
69 377 1
69 384 1
70 116 1
70 132 1
70 138 1
70 143 1
70 212 1
70 228 1
70 234 1
70 239 1
70 308 1
70 324 1
70 330 1
70 335 1
70 356 1
70 372 1
70 378 1
70 383 1
71 117 1
71 127 1
71 133 1
71 140 1
71 213 1
71 223 1
71 229 1
71 236 1
71 309 1
71 319 1
71 325 1
71 332 1
71 357 1
71 367 1
71 373 1
71 380 1
72 118 1
72 128 1
72 134 1
72 139 1
72 214 1
72 224 1
72 230 1
72 235 1
72 310 1
72 320 1
72 326 1
72 331 1
72 358 1
72 368 1
72 374 1
72 379 1
73 145 1
73 174 1
73 177 1
73 183 1
73 241 1
73 270 1
73 273 1
73 279 1
73 289 1
73 318 1
73 321 1
73 327 1
73 337 1
73 366 1
73 369 1
73 375 1
74 146 1
74 173 1
74 178 1
74 184 1
74 242 1
74 269 1
74 274 1
74 280 1
74 290 1
74 317 1
74 322 1
74 328 1
74 338 1
74 365 1
74 370 1
74 376 1
75 147 1
75 170 1
75 179 1
75 185 1
75 243 1
75 266 1
75 275 1
75 281 1
75 291 1
75 314 1
75 323 1
75 329 1
75 339 1
75 362 1
75 371 1
75 377 1
76 148 1
76 169 1
76 180 1
76 186 1
76 244 1
76 265 1
76 276 1
76 282 1
76 292 1
76 313 1
76 324 1
76 330 1
76 340 1
76 361 1
76 372 1
76 378 1
77 149 1
77 172 1
77 175 1
77 181 1
77 245 1
77 268 1
77 271 1
77 277 1
77 293 1
77 316 1
77 319 1
77 325 1
77 341 1
77 364 1
77 367 1
77 373 1
78 150 1
78 171 1
78 176 1
78 182 1
78 246 1
78 267 1
78 272 1
78 278 1
78 294 1
78 315 1
78 320 1
78 326 1
78 342 1
78 363 1
78 368 1
78 374 1
79 151 1
79 174 1
79 177 1
79 190 1
79 247 1
79 270 1
79 273 1
79 286 1
79 295 1
79 318 1
79 321 1
79 334 1
79 343 1
79 366 1
79 369 1
79 382 1
80 152 1
80 173 1
80 178 1
80 189 1
80 248 1
80 269 1
80 274 1
80 285 1
80 296 1
80 317 1
80 322 1
80 333 1
80 344 1
80 365 1
80 370 1
80 381 1
81 153 1
81 170 1
81 179 1
81 192 1
81 249 1
81 266 1
81 275 1
81 288 1
81 297 1
81 314 1
81 323 1
81 336 1
81 345 1
81 362 1
81 371 1
81 384 1
82 154 1
82 169 1
82 180 1
82 191 1
82 250 1
82 265 1
82 276 1
82 287 1
82 298 1
82 313 1
82 324 1
82 335 1
82 346 1
82 361 1
82 372 1
82 383 1
83 155 1
83 172 1
83 175 1
83 188 1
83 251 1
83 268 1
83 271 1
83 284 1
83 299 1
83 316 1
83 319 1
83 332 1
83 347 1
83 364 1
83 367 1
83 380 1
84 156 1
84 171 1
84 176 1
84 187 1
84 252 1
84 267 1
84 272 1
84 283 1
84 300 1
84 315 1
84 320 1
84 331 1
84 348 1
84 363 1
84 368 1
84 379 1
85 161 1
85 174 1
85 183 1
85 190 1
85 257 1
85 270 1
85 279 1
85 286 1
85 305 1
85 318 1
85 327 1
85 334 1
85 353 1
85 366 1
85 375 1
85 382 1
86 162 1
86 173 1
86 184 1
86 189 1
86 258 1
86 269 1
86 280 1
86 285 1
86 306 1
86 317 1
86 328 1
86 333 1
86 354 1
86 365 1
86 376 1
86 381 1
87 157 1
87 170 1
87 185 1
87 192 1
87 253 1
87 266 1
87 281 1
87 288 1
87 301 1
87 314 1
87 329 1
87 336 1
87 349 1
87 362 1
87 377 1
87 384 1
88 158 1
88 169 1
88 186 1
88 191 1
88 254 1
88 265 1
88 282 1
88 287 1
88 302 1
88 313 1
88 330 1
88 335 1
88 350 1
88 361 1
88 378 1
88 383 1
89 159 1
89 172 1
89 181 1
89 188 1
89 255 1
89 268 1
89 277 1
89 284 1
89 303 1
89 316 1
89 325 1
89 332 1
89 351 1
89 364 1
89 373 1
89 380 1
90 160 1
90 171 1
90 182 1
90 187 1
90 256 1
90 267 1
90 278 1
90 283 1
90 304 1
90 315 1
90 326 1
90 331 1
90 352 1
90 363 1
90 374 1
90 379 1
91 167 1
91 177 1
91 183 1
91 190 1
91 263 1
91 273 1
91 279 1
91 286 1
91 311 1
91 321 1
91 327 1
91 334 1
91 359 1
91 369 1
91 375 1
91 382 1
92 168 1
92 178 1
92 184 1
92 189 1
92 264 1
92 274 1
92 280 1
92 285 1
92 312 1
92 322 1
92 328 1
92 333 1
92 360 1
92 370 1
92 376 1
92 381 1
93 163 1
93 179 1
93 185 1
93 192 1
93 259 1
93 275 1
93 281 1
93 288 1
93 307 1
93 323 1
93 329 1
93 336 1
93 355 1
93 371 1
93 377 1
93 384 1
94 164 1
94 180 1
94 186 1
94 191 1
94 260 1
94 276 1
94 282 1
94 287 1
94 308 1
94 324 1
94 330 1
94 335 1
94 356 1
94 372 1
94 378 1
94 383 1
95 165 1
95 175 1
95 181 1
95 188 1
95 261 1
95 271 1
95 277 1
95 284 1
95 309 1
95 319 1
95 325 1
95 332 1
95 357 1
95 367 1
95 373 1
95 380 1
96 166 1
96 176 1
96 182 1
96 187 1
96 262 1
96 272 1
96 278 1
96 283 1
96 310 1
96 320 1
96 326 1
96 331 1
96 358 1
96 368 1
96 374 1
96 379 1
97 1 1
97 25 1
97 31 1
97 37 1
97 195 1
97 219 1
97 225 1
97 231 1
97 292 1
97 316 1
97 322 1
97 328 1
97 341 1
97 365 1
97 371 1
97 377 1
98 2 1
98 26 1
98 32 1
98 38 1
98 196 1
98 220 1
98 226 1
98 232 1
98 291 1
98 315 1
98 321 1
98 327 1
98 342 1
98 366 1
98 372 1
98 378 1
99 3 1
99 27 1
99 33 1
99 39 1
99 197 1
99 221 1
99 227 1
99 233 1
99 294 1
99 318 1
99 324 1
99 330 1
99 337 1
99 361 1
99 367 1
99 373 1
100 4 1
100 28 1
100 34 1
100 40 1
100 198 1
100 222 1
100 228 1
100 234 1
100 293 1
100 317 1
100 323 1
100 329 1
100 338 1
100 362 1
100 368 1
100 374 1
101 5 1
101 29 1
101 35 1
101 41 1
101 193 1
101 217 1
101 223 1
101 229 1
101 290 1
101 314 1
101 320 1
101 326 1
101 339 1
101 363 1
101 369 1
101 375 1
102 6 1
102 30 1
102 36 1
102 42 1
102 194 1
102 218 1
102 224 1
102 230 1
102 289 1
102 313 1
102 319 1
102 325 1
102 340 1
102 364 1
102 370 1
102 376 1
103 7 1
103 25 1
103 31 1
103 43 1
103 201 1
103 219 1
103 225 1
103 237 1
103 298 1
103 316 1
103 322 1
103 334 1
103 347 1
103 365 1
103 371 1
103 383 1
104 8 1
104 26 1
104 32 1
104 44 1
104 202 1
104 220 1
104 226 1
104 238 1
104 297 1
104 315 1
104 321 1
104 333 1
104 348 1
104 366 1
104 372 1
104 384 1
105 9 1
105 27 1
105 33 1
105 45 1
105 203 1
105 221 1
105 227 1
105 239 1
105 300 1
105 318 1
105 324 1
105 336 1
105 343 1
105 361 1
105 367 1
105 379 1
106 10 1
106 28 1
106 34 1
106 46 1
106 204 1
106 222 1
106 228 1
106 240 1
106 299 1
106 317 1
106 323 1
106 335 1
106 344 1
106 362 1
106 368 1
106 380 1
107 11 1
107 29 1
107 35 1
107 47 1
107 199 1
107 217 1
107 223 1
107 235 1
107 296 1
107 314 1
107 320 1
107 332 1
107 345 1
107 363 1
107 369 1
107 381 1
108 12 1
108 30 1
108 36 1
108 48 1
108 200 1
108 218 1
108 224 1
108 236 1
108 295 1
108 313 1
108 319 1
108 331 1
108 346 1
108 364 1
108 370 1
108 382 1
109 13 1
109 25 1
109 37 1
109 43 1
109 207 1
109 219 1
109 231 1
109 237 1
109 304 1
109 316 1
109 328 1
109 334 1
109 353 1
109 365 1
109 377 1
109 383 1
110 14 1
110 26 1
110 38 1
110 44 1
110 208 1
110 220 1
110 232 1
110 238 1
110 303 1
110 315 1
110 327 1
110 333 1
110 354 1
110 366 1
110 378 1
110 384 1
111 15 1
111 27 1
111 39 1
111 45 1
111 209 1
111 221 1
111 233 1
111 239 1
111 306 1
111 318 1
111 330 1
111 336 1
111 349 1
111 361 1
111 373 1
111 379 1
112 16 1
112 28 1
112 40 1
112 46 1
112 210 1
112 222 1
112 234 1
112 240 1
112 305 1
112 317 1
112 329 1
112 335 1
112 350 1
112 362 1
112 374 1
112 380 1
113 17 1
113 29 1
113 41 1
113 47 1
113 205 1
113 217 1
113 229 1
113 235 1
113 302 1
113 314 1
113 326 1
113 332 1
113 351 1
113 363 1
113 375 1
113 381 1
114 18 1
114 30 1
114 42 1
114 48 1
114 206 1
114 218 1
114 230 1
114 236 1
114 301 1
114 313 1
114 325 1
114 331 1
114 352 1
114 364 1
114 376 1
114 382 1
115 19 1
115 31 1
115 37 1
115 43 1
115 213 1
115 225 1
115 231 1
115 237 1
115 310 1
115 322 1
115 328 1
115 334 1
115 359 1
115 371 1
115 377 1
115 383 1
116 20 1
116 32 1
116 38 1
116 44 1
116 214 1
116 226 1
116 232 1
116 238 1
116 309 1
116 321 1
116 327 1
116 333 1
116 360 1
116 372 1
116 378 1
116 384 1
117 21 1
117 33 1
117 39 1
117 45 1
117 215 1
117 227 1
117 233 1
117 239 1
117 312 1
117 324 1
117 330 1
117 336 1
117 355 1
117 367 1
117 373 1
117 379 1
118 22 1
118 34 1
118 40 1
118 46 1
118 216 1
118 228 1
118 234 1
118 240 1
118 311 1
118 323 1
118 329 1
118 335 1
118 356 1
118 368 1
118 374 1
118 380 1
119 23 1
119 35 1
119 41 1
119 47 1
119 211 1
119 223 1
119 229 1
119 235 1
119 308 1
119 320 1
119 326 1
119 332 1
119 357 1
119 369 1
119 375 1
119 381 1
120 24 1
120 36 1
120 42 1
120 48 1
120 212 1
120 224 1
120 230 1
120 236 1
120 307 1
120 319 1
120 325 1
120 331 1
120 358 1
120 370 1
120 376 1
120 382 1
121 49 1
121 73 1
121 79 1
121 85 1
121 195 1
121 219 1
121 225 1
121 231 1
121 243 1
121 267 1
121 273 1
121 279 1
121 341 1
121 365 1
121 371 1
121 377 1
122 50 1
122 74 1
122 80 1
122 86 1
122 196 1
122 220 1
122 226 1
122 232 1
122 244 1
122 268 1
122 274 1
122 280 1
122 342 1
122 366 1
122 372 1
122 378 1
123 51 1
123 75 1
123 81 1
123 87 1
123 197 1
123 221 1
123 227 1
123 233 1
123 245 1
123 269 1
123 275 1
123 281 1
123 337 1
123 361 1
123 367 1
123 373 1
124 52 1
124 76 1
124 82 1
124 88 1
124 198 1
124 222 1
124 228 1
124 234 1
124 246 1
124 270 1
124 276 1
124 282 1
124 338 1
124 362 1
124 368 1
124 374 1
125 53 1
125 77 1
125 83 1
125 89 1
125 193 1
125 217 1
125 223 1
125 229 1
125 241 1
125 265 1
125 271 1
125 277 1
125 339 1
125 363 1
125 369 1
125 375 1
126 54 1
126 78 1
126 84 1
126 90 1
126 194 1
126 218 1
126 224 1
126 230 1
126 242 1
126 266 1
126 272 1
126 278 1
126 340 1
126 364 1
126 370 1
126 376 1
127 55 1
127 73 1
127 79 1
127 91 1
127 201 1
127 219 1
127 225 1
127 237 1
127 249 1
127 267 1
127 273 1
127 285 1
127 347 1
127 365 1
127 371 1
127 383 1
128 56 1
128 74 1
128 80 1
128 92 1
128 202 1
128 220 1
128 226 1
128 238 1
128 250 1
128 268 1
128 274 1
128 286 1
128 348 1
128 366 1
128 372 1
128 384 1
129 57 1
129 75 1
129 81 1
129 93 1
129 203 1
129 221 1
129 227 1
129 239 1
129 251 1
129 269 1
129 275 1
129 287 1
129 343 1
129 361 1
129 367 1
129 379 1
130 58 1
130 76 1
130 82 1
130 94 1
130 204 1
130 222 1
130 228 1
130 240 1
130 252 1
130 270 1
130 276 1
130 288 1
130 344 1
130 362 1
130 368 1
130 380 1
131 59 1
131 77 1
131 83 1
131 95 1
131 199 1
131 217 1
131 223 1
131 235 1
131 247 1
131 265 1
131 271 1
131 283 1
131 345 1
131 363 1
131 369 1
131 381 1
132 60 1
132 78 1
132 84 1
132 96 1
132 200 1
132 218 1
132 224 1
132 236 1
132 248 1
132 266 1
132 272 1
132 284 1
132 346 1
132 364 1
132 370 1
132 382 1
133 61 1
133 73 1
133 85 1
133 91 1
133 207 1
133 219 1
133 231 1
133 237 1
133 255 1
133 267 1
133 279 1
133 285 1
133 353 1
133 365 1
133 377 1
133 383 1
134 62 1
134 74 1
134 86 1
134 92 1
134 208 1
134 220 1
134 232 1
134 238 1
134 256 1
134 268 1
134 280 1
134 286 1
134 354 1
134 366 1
134 378 1
134 384 1
135 63 1
135 75 1
135 87 1
135 93 1
135 209 1
135 221 1
135 233 1
135 239 1
135 257 1
135 269 1
135 281 1
135 287 1
135 349 1
135 361 1
135 373 1
135 379 1
136 64 1
136 76 1
136 88 1
136 94 1
136 210 1
136 222 1
136 234 1
136 240 1
136 258 1
136 270 1
136 282 1
136 288 1
136 350 1
136 362 1
136 374 1
136 380 1
137 65 1
137 77 1
137 89 1
137 95 1
137 205 1
137 217 1
137 229 1
137 235 1
137 253 1
137 265 1
137 277 1
137 283 1
137 351 1
137 363 1
137 375 1
137 381 1
138 66 1
138 78 1
138 90 1
138 96 1
138 206 1
138 218 1
138 230 1
138 236 1
138 254 1
138 266 1
138 278 1
138 284 1
138 352 1
138 364 1
138 376 1
138 382 1
139 67 1
139 79 1
139 85 1
139 91 1
139 213 1
139 225 1
139 231 1
139 237 1
139 261 1
139 273 1
139 279 1
139 285 1
139 359 1
139 371 1
139 377 1
139 383 1
140 68 1
140 80 1
140 86 1
140 92 1
140 214 1
140 226 1
140 232 1
140 238 1
140 262 1
140 274 1
140 280 1
140 286 1
140 360 1
140 372 1
140 378 1
140 384 1
141 69 1
141 81 1
141 87 1
141 93 1
141 215 1
141 227 1
141 233 1
141 239 1
141 263 1
141 275 1
141 281 1
141 287 1
141 355 1
141 367 1
141 373 1
141 379 1
142 70 1
142 82 1
142 88 1
142 94 1
142 216 1
142 228 1
142 234 1
142 240 1
142 264 1
142 276 1
142 282 1
142 288 1
142 356 1
142 368 1
142 374 1
142 380 1
143 71 1
143 83 1
143 89 1
143 95 1
143 211 1
143 223 1
143 229 1
143 235 1
143 259 1
143 271 1
143 277 1
143 283 1
143 357 1
143 369 1
143 375 1
143 381 1
144 72 1
144 84 1
144 90 1
144 96 1
144 212 1
144 224 1
144 230 1
144 236 1
144 260 1
144 272 1
144 278 1
144 284 1
144 358 1
144 370 1
144 376 1
144 382 1
145 98 1
145 122 1
145 128 1
145 134 1
145 195 1
145 219 1
145 225 1
145 231 1
145 243 1
145 267 1
145 273 1
145 279 1
145 292 1
145 316 1
145 322 1
145 328 1
146 97 1
146 121 1
146 127 1
146 133 1
146 196 1
146 220 1
146 226 1
146 232 1
146 244 1
146 268 1
146 274 1
146 280 1
146 291 1
146 315 1
146 321 1
146 327 1
147 100 1
147 124 1
147 130 1
147 136 1
147 197 1
147 221 1
147 227 1
147 233 1
147 245 1
147 269 1
147 275 1
147 281 1
147 294 1
147 318 1
147 324 1
147 330 1
148 99 1
148 123 1
148 129 1
148 135 1
148 198 1
148 222 1
148 228 1
148 234 1
148 246 1
148 270 1
148 276 1
148 282 1
148 293 1
148 317 1
148 323 1
148 329 1
149 102 1
149 126 1
149 132 1
149 138 1
149 193 1
149 217 1
149 223 1
149 229 1
149 241 1
149 265 1
149 271 1
149 277 1
149 290 1
149 314 1
149 320 1
149 326 1
150 101 1
150 125 1
150 131 1
150 137 1
150 194 1
150 218 1
150 224 1
150 230 1
150 242 1
150 266 1
150 272 1
150 278 1
150 289 1
150 313 1
150 319 1
150 325 1
151 104 1
151 122 1
151 128 1
151 140 1
151 201 1
151 219 1
151 225 1
151 237 1
151 249 1
151 267 1
151 273 1
151 285 1
151 298 1
151 316 1
151 322 1
151 334 1
152 103 1
152 121 1
152 127 1
152 139 1
152 202 1
152 220 1
152 226 1
152 238 1
152 250 1
152 268 1
152 274 1
152 286 1
152 297 1
152 315 1
152 321 1
152 333 1
153 106 1
153 124 1
153 130 1
153 142 1
153 203 1
153 221 1
153 227 1
153 239 1
153 251 1
153 269 1
153 275 1
153 287 1
153 300 1
153 318 1
153 324 1
153 336 1
154 105 1
154 123 1
154 129 1
154 141 1
154 204 1
154 222 1
154 228 1
154 240 1
154 252 1
154 270 1
154 276 1
154 288 1
154 299 1
154 317 1
154 323 1
154 335 1
155 108 1
155 126 1
155 132 1
155 144 1
155 199 1
155 217 1
155 223 1
155 235 1
155 247 1
155 265 1
155 271 1
155 283 1
155 296 1
155 314 1
155 320 1
155 332 1
156 107 1
156 125 1
156 131 1
156 143 1
156 200 1
156 218 1
156 224 1
156 236 1
156 248 1
156 266 1
156 272 1
156 284 1
156 295 1
156 313 1
156 319 1
156 331 1
157 110 1
157 122 1
157 134 1
157 140 1
157 207 1
157 219 1
157 231 1
157 237 1
157 255 1
157 267 1
157 279 1
157 285 1
157 304 1
157 316 1
157 328 1
157 334 1
158 109 1
158 121 1
158 133 1
158 139 1
158 208 1
158 220 1
158 232 1
158 238 1
158 256 1
158 268 1
158 280 1
158 286 1
158 303 1
158 315 1
158 327 1
158 333 1
159 112 1
159 124 1
159 136 1
159 142 1
159 209 1
159 221 1
159 233 1
159 239 1
159 257 1
159 269 1
159 281 1
159 287 1
159 306 1
159 318 1
159 330 1
159 336 1
160 111 1
160 123 1
160 135 1
160 141 1
160 210 1
160 222 1
160 234 1
160 240 1
160 258 1
160 270 1
160 282 1
160 288 1
160 305 1
160 317 1
160 329 1
160 335 1
161 114 1
161 126 1
161 138 1
161 144 1
161 205 1
161 217 1
161 229 1
161 235 1
161 253 1
161 265 1
161 277 1
161 283 1
161 302 1
161 314 1
161 326 1
161 332 1
162 113 1
162 125 1
162 137 1
162 143 1
162 206 1
162 218 1
162 230 1
162 236 1
162 254 1
162 266 1
162 278 1
162 284 1
162 301 1
162 313 1
162 325 1
162 331 1
163 116 1
163 128 1
163 134 1
163 140 1
163 213 1
163 225 1
163 231 1
163 237 1
163 261 1
163 273 1
163 279 1
163 285 1
163 310 1
163 322 1
163 328 1
163 334 1
164 115 1
164 127 1
164 133 1
164 139 1
164 214 1
164 226 1
164 232 1
164 238 1
164 262 1
164 274 1
164 280 1
164 286 1
164 309 1
164 321 1
164 327 1
164 333 1
165 118 1
165 130 1
165 136 1
165 142 1
165 215 1
165 227 1
165 233 1
165 239 1
165 263 1
165 275 1
165 281 1
165 287 1
165 312 1
165 324 1
165 330 1
165 336 1
166 117 1
166 129 1
166 135 1
166 141 1
166 216 1
166 228 1
166 234 1
166 240 1
166 264 1
166 276 1
166 282 1
166 288 1
166 311 1
166 323 1
166 329 1
166 335 1
167 120 1
167 132 1
167 138 1
167 144 1
167 211 1
167 223 1
167 229 1
167 235 1
167 259 1
167 271 1
167 277 1
167 283 1
167 308 1
167 320 1
167 326 1
167 332 1
168 119 1
168 131 1
168 137 1
168 143 1
168 212 1
168 224 1
168 230 1
168 236 1
168 260 1
168 272 1
168 278 1
168 284 1
168 307 1
168 319 1
168 325 1
168 331 1
169 146 1
169 170 1
169 176 1
169 182 1
169 243 1
169 267 1
169 273 1
169 279 1
169 292 1
169 316 1
169 322 1
169 328 1
169 341 1
169 365 1
169 371 1
169 377 1
170 145 1
170 169 1
170 175 1
170 181 1
170 244 1
170 268 1
170 274 1
170 280 1
170 291 1
170 315 1
170 321 1
170 327 1
170 342 1
170 366 1
170 372 1
170 378 1
171 148 1
171 172 1
171 178 1
171 184 1
171 245 1
171 269 1
171 275 1
171 281 1
171 294 1
171 318 1
171 324 1
171 330 1
171 337 1
171 361 1
171 367 1
171 373 1
172 147 1
172 171 1
172 177 1
172 183 1
172 246 1
172 270 1
172 276 1
172 282 1
172 293 1
172 317 1
172 323 1
172 329 1
172 338 1
172 362 1
172 368 1
172 374 1
173 150 1
173 174 1
173 180 1
173 186 1
173 241 1
173 265 1
173 271 1
173 277 1
173 290 1
173 314 1
173 320 1
173 326 1
173 339 1
173 363 1
173 369 1
173 375 1
174 149 1
174 173 1
174 179 1
174 185 1
174 242 1
174 266 1
174 272 1
174 278 1
174 289 1
174 313 1
174 319 1
174 325 1
174 340 1
174 364 1
174 370 1
174 376 1
175 152 1
175 170 1
175 176 1
175 188 1
175 249 1
175 267 1
175 273 1
175 285 1
175 298 1
175 316 1
175 322 1
175 334 1
175 347 1
175 365 1
175 371 1
175 383 1
176 151 1
176 169 1
176 175 1
176 187 1
176 250 1
176 268 1
176 274 1
176 286 1
176 297 1
176 315 1
176 321 1
176 333 1
176 348 1
176 366 1
176 372 1
176 384 1
177 154 1
177 172 1
177 178 1
177 190 1
177 251 1
177 269 1
177 275 1
177 287 1
177 300 1
177 318 1
177 324 1
177 336 1
177 343 1
177 361 1
177 367 1
177 379 1
178 153 1
178 171 1
178 177 1
178 189 1
178 252 1
178 270 1
178 276 1
178 288 1
178 299 1
178 317 1
178 323 1
178 335 1
178 344 1
178 362 1
178 368 1
178 380 1
179 156 1
179 174 1
179 180 1
179 192 1
179 247 1
179 265 1
179 271 1
179 283 1
179 296 1
179 314 1
179 320 1
179 332 1
179 345 1
179 363 1
179 369 1
179 381 1
180 155 1
180 173 1
180 179 1
180 191 1
180 248 1
180 266 1
180 272 1
180 284 1
180 295 1
180 313 1
180 319 1
180 331 1
180 346 1
180 364 1
180 370 1
180 382 1
181 158 1
181 170 1
181 182 1
181 188 1
181 255 1
181 267 1
181 279 1
181 285 1
181 304 1
181 316 1
181 328 1
181 334 1
181 353 1
181 365 1
181 377 1
181 383 1
182 157 1
182 169 1
182 181 1
182 187 1
182 256 1
182 268 1
182 280 1
182 286 1
182 303 1
182 315 1
182 327 1
182 333 1
182 354 1
182 366 1
182 378 1
182 384 1
183 160 1
183 172 1
183 184 1
183 190 1
183 257 1
183 269 1
183 281 1
183 287 1
183 306 1
183 318 1
183 330 1
183 336 1
183 349 1
183 361 1
183 373 1
183 379 1
184 159 1
184 171 1
184 183 1
184 189 1
184 258 1
184 270 1
184 282 1
184 288 1
184 305 1
184 317 1
184 329 1
184 335 1
184 350 1
184 362 1
184 374 1
184 380 1
185 162 1
185 174 1
185 186 1
185 192 1
185 253 1
185 265 1
185 277 1
185 283 1
185 302 1
185 314 1
185 326 1
185 332 1
185 351 1
185 363 1
185 375 1
185 381 1
186 161 1
186 173 1
186 185 1
186 191 1
186 254 1
186 266 1
186 278 1
186 284 1
186 301 1
186 313 1
186 325 1
186 331 1
186 352 1
186 364 1
186 376 1
186 382 1
187 164 1
187 176 1
187 182 1
187 188 1
187 261 1
187 273 1
187 279 1
187 285 1
187 310 1
187 322 1
187 328 1
187 334 1
187 359 1
187 371 1
187 377 1
187 383 1
188 163 1
188 175 1
188 181 1
188 187 1
188 262 1
188 274 1
188 280 1
188 286 1
188 309 1
188 321 1
188 327 1
188 333 1
188 360 1
188 372 1
188 378 1
188 384 1
189 166 1
189 178 1
189 184 1
189 190 1
189 263 1
189 275 1
189 281 1
189 287 1
189 312 1
189 324 1
189 330 1
189 336 1
189 355 1
189 367 1
189 373 1
189 379 1
190 165 1
190 177 1
190 183 1
190 189 1
190 264 1
190 276 1
190 282 1
190 288 1
190 311 1
190 323 1
190 329 1
190 335 1
190 356 1
190 368 1
190 374 1
190 380 1
191 168 1
191 180 1
191 186 1
191 192 1
191 259 1
191 271 1
191 277 1
191 283 1
191 308 1
191 320 1
191 326 1
191 332 1
191 357 1
191 369 1
191 375 1
191 381 1
192 167 1
192 179 1
192 185 1
192 191 1
192 260 1
192 272 1
192 278 1
192 284 1
192 307 1
192 319 1
192 325 1
192 331 1
192 358 1
192 370 1
192 376 1
192 382 1
