%%MatrixMarket matrix coordinate integer general
192 384 3072
1 1 1
1 25 1
1 31 1
1 37 1
1 193 1
1 217 1
1 223 1
1 229 1
1 241 1
1 265 1
1 271 1
1 277 1
1 289 1
1 313 1
1 319 1
1 325 1
2 2 1
2 26 1
2 32 1
2 38 1
2 194 1
2 218 1
2 224 1
2 230 1
2 242 1
2 266 1
2 272 1
2 278 1
2 290 1
2 314 1
2 320 1
2 326 1
3 3 1
3 27 1
3 33 1
3 39 1
3 195 1
3 219 1
3 225 1
3 231 1
3 243 1
3 267 1
3 273 1
3 279 1
3 291 1
3 315 1
3 321 1
3 327 1
4 4 1
4 28 1
4 34 1
4 40 1
4 196 1
4 220 1
4 226 1
4 232 1
4 244 1
4 268 1
4 274 1
4 280 1
4 292 1
4 316 1
4 322 1
4 328 1
5 5 1
5 29 1
5 35 1
5 41 1
5 197 1
5 221 1
5 227 1
5 233 1
5 245 1
5 269 1
5 275 1
5 281 1
5 293 1
5 317 1
5 323 1
5 329 1
6 6 1
6 30 1
6 36 1
6 42 1
6 198 1
6 222 1
6 228 1
6 234 1
6 246 1
6 270 1
6 276 1
6 282 1
6 294 1
6 318 1
6 324 1
6 330 1
7 7 1
7 25 1
7 31 1
7 43 1
7 199 1
7 217 1
7 223 1
7 235 1
7 247 1
7 265 1
7 271 1
7 283 1
7 295 1
7 313 1
7 319 1
7 331 1
8 8 1
8 26 1
8 32 1
8 44 1
8 200 1
8 218 1
8 224 1
8 236 1
8 248 1
8 266 1
8 272 1
8 284 1
8 296 1
8 314 1
8 320 1
8 332 1
9 9 1
9 27 1
9 33 1
9 45 1
9 201 1
9 219 1
9 225 1
9 237 1
9 249 1
9 267 1
9 273 1
9 285 1
9 297 1
9 315 1
9 321 1
9 333 1
10 10 1
10 28 1
10 34 1
10 46 1
10 202 1
10 220 1
10 226 1
10 238 1
10 250 1
10 268 1
10 274 1
10 286 1
10 298 1
10 316 1
10 322 1
10 334 1
11 11 1
11 29 1
11 35 1
11 47 1
11 203 1
11 221 1
11 227 1
11 239 1
11 251 1
11 269 1
11 275 1
11 287 1
11 299 1
11 317 1
11 323 1
11 335 1
12 12 1
12 30 1
12 36 1
12 48 1
12 204 1
12 222 1
12 228 1
12 240 1
12 252 1
12 270 1
12 276 1
12 288 1
12 300 1
12 318 1
12 324 1
12 336 1
13 13 1
13 25 1
13 37 1
13 43 1
13 205 1
13 217 1
13 229 1
13 235 1
13 253 1
13 265 1
13 277 1
13 283 1
13 301 1
13 313 1
13 325 1
13 331 1
14 14 1
14 26 1
14 38 1
14 44 1
14 206 1
14 218 1
14 230 1
14 236 1
14 254 1
14 266 1
14 278 1
14 284 1
14 302 1
14 314 1
14 326 1
14 332 1
15 15 1
15 27 1
15 39 1
15 45 1
15 207 1
15 219 1
15 231 1
15 237 1
15 255 1
15 267 1
15 279 1
15 285 1
15 303 1
15 315 1
15 327 1
15 333 1
16 16 1
16 28 1
16 40 1
16 46 1
16 208 1
16 220 1
16 232 1
16 238 1
16 256 1
16 268 1
16 280 1
16 286 1
16 304 1
16 316 1
16 328 1
16 334 1
17 17 1
17 29 1
17 41 1
17 47 1
17 209 1
17 221 1
17 233 1
17 239 1
17 257 1
17 269 1
17 281 1
17 287 1
17 305 1
17 317 1
17 329 1
17 335 1
18 18 1
18 30 1
18 42 1
18 48 1
18 210 1
18 222 1
18 234 1
18 240 1
18 258 1
18 270 1
18 282 1
18 288 1
18 306 1
18 318 1
18 330 1
18 336 1
19 19 1
19 31 1
19 37 1
19 43 1
19 211 1
19 223 1
19 229 1
19 235 1
19 259 1
19 271 1
19 277 1
19 283 1
19 307 1
19 319 1
19 325 1
19 331 1
20 20 1
20 32 1
20 38 1
20 44 1
20 212 1
20 224 1
20 230 1
20 236 1
20 260 1
20 272 1
20 278 1
20 284 1
20 308 1
20 320 1
20 326 1
20 332 1
21 21 1
21 33 1
21 39 1
21 45 1
21 213 1
21 225 1
21 231 1
21 237 1
21 261 1
21 273 1
21 279 1
21 285 1
21 309 1
21 321 1
21 327 1
21 333 1
22 22 1
22 34 1
22 40 1
22 46 1
22 214 1
22 226 1
22 232 1
22 238 1
22 262 1
22 274 1
22 280 1
22 286 1
22 310 1
22 322 1
22 328 1
22 334 1
23 23 1
23 35 1
23 41 1
23 47 1
23 215 1
23 227 1
23 233 1
23 239 1
23 263 1
23 275 1
23 281 1
23 287 1
23 311 1
23 323 1
23 329 1
23 335 1
24 24 1
24 36 1
24 42 1
24 48 1
24 216 1
24 228 1
24 234 1
24 240 1
24 264 1
24 276 1
24 282 1
24 288 1
24 312 1
24 324 1
24 330 1
24 336 1
25 49 1
25 73 1
25 79 1
25 85 1
25 193 1
25 217 1
25 223 1
25 229 1
25 241 1
25 265 1
25 271 1
25 277 1
25 337 1
25 361 1
25 367 1
25 373 1
26 50 1
26 74 1
26 80 1
26 86 1
26 194 1
26 218 1
26 224 1
26 230 1
26 242 1
26 266 1
26 272 1
26 278 1
26 338 1
26 362 1
26 368 1
26 374 1
27 51 1
27 75 1
27 81 1
27 87 1
27 195 1
27 219 1
27 225 1
27 231 1
27 243 1
27 267 1
27 273 1
27 279 1
27 339 1
27 363 1
27 369 1
27 375 1
28 52 1
28 76 1
28 82 1
28 88 1
28 196 1
28 220 1
28 226 1
28 232 1
28 244 1
28 268 1
28 274 1
28 280 1
28 340 1
28 364 1
28 370 1
28 376 1
29 53 1
29 77 1
29 83 1
29 89 1
29 197 1
29 221 1
29 227 1
29 233 1
29 245 1
29 269 1
29 275 1
29 281 1
29 341 1
29 365 1
29 371 1
29 377 1
30 54 1
30 78 1
30 84 1
30 90 1
30 198 1
30 222 1
30 228 1
30 234 1
30 246 1
30 270 1
30 276 1
30 282 1
30 342 1
30 366 1
30 372 1
30 378 1
31 55 1
31 73 1
31 79 1
31 91 1
31 199 1
31 217 1
31 223 1
31 235 1
31 247 1
31 265 1
31 271 1
31 283 1
31 343 1
31 361 1
31 367 1
31 379 1
32 56 1
32 74 1
32 80 1
32 92 1
32 200 1
32 218 1
32 224 1
32 236 1
32 248 1
32 266 1
32 272 1
32 284 1
32 344 1
32 362 1
32 368 1
32 380 1
33 57 1
33 75 1
33 81 1
33 93 1
33 201 1
33 219 1
33 225 1
33 237 1
33 249 1
33 267 1
33 273 1
33 285 1
33 345 1
33 363 1
33 369 1
33 381 1
34 58 1
34 76 1
34 82 1
34 94 1
34 202 1
34 220 1
34 226 1
34 238 1
34 250 1
34 268 1
34 274 1
34 286 1
34 346 1
34 364 1
34 370 1
34 382 1
35 59 1
35 77 1
35 83 1
35 95 1
35 203 1
35 221 1
35 227 1
35 239 1
35 251 1
35 269 1
35 275 1
35 287 1
35 347 1
35 365 1
35 371 1
35 383 1
36 60 1
36 78 1
36 84 1
36 96 1
36 204 1
36 222 1
36 228 1
36 240 1
36 252 1
36 270 1
36 276 1
36 288 1
36 348 1
36 366 1
36 372 1
36 384 1
37 61 1
37 73 1
37 85 1
37 91 1
37 205 1
37 217 1
37 229 1
37 235 1
37 253 1
37 265 1
37 277 1
37 283 1
37 349 1
37 361 1
37 373 1
37 379 1
38 62 1
38 74 1
38 86 1
38 92 1
38 206 1
38 218 1
38 230 1
38 236 1
38 254 1
38 266 1
38 278 1
38 284 1
38 350 1
38 362 1
38 374 1
38 380 1
39 63 1
39 75 1
39 87 1
39 93 1
39 207 1
39 219 1
39 231 1
39 237 1
39 255 1
39 267 1
39 279 1
39 285 1
39 351 1
39 363 1
39 375 1
39 381 1
40 64 1
40 76 1
40 88 1
40 94 1
40 208 1
40 220 1
40 232 1
40 238 1
40 256 1
40 268 1
40 280 1
40 286 1
40 352 1
40 364 1
40 376 1
40 382 1
41 65 1
41 77 1
41 89 1
41 95 1
41 209 1
41 221 1
41 233 1
41 239 1
41 257 1
41 269 1
41 281 1
41 287 1
41 353 1
41 365 1
41 377 1
41 383 1
42 66 1
42 78 1
42 90 1
42 96 1
42 210 1
42 222 1
42 234 1
42 240 1
42 258 1
42 270 1
42 282 1
42 288 1
42 354 1
42 366 1
42 378 1
42 384 1
43 67 1
43 79 1
43 85 1
43 91 1
43 211 1
43 223 1
43 229 1
43 235 1
43 259 1
43 271 1
43 277 1
43 283 1
43 355 1
43 367 1
43 373 1
43 379 1
44 68 1
44 80 1
44 86 1
44 92 1
44 212 1
44 224 1
44 230 1
44 236 1
44 260 1
44 272 1
44 278 1
44 284 1
44 356 1
44 368 1
44 374 1
44 380 1
45 69 1
45 81 1
45 87 1
45 93 1
45 213 1
45 225 1
45 231 1
45 237 1
45 261 1
45 273 1
45 279 1
45 285 1
45 357 1
45 369 1
45 375 1
45 381 1
46 70 1
46 82 1
46 88 1
46 94 1
46 214 1
46 226 1
46 232 1
46 238 1
46 262 1
46 274 1
46 280 1
46 286 1
46 358 1
46 370 1
46 376 1
46 382 1
47 71 1
47 83 1
47 89 1
47 95 1
47 215 1
47 227 1
47 233 1
47 239 1
47 263 1
47 275 1
47 281 1
47 287 1
47 359 1
47 371 1
47 377 1
47 383 1
48 72 1
48 84 1
48 90 1
48 96 1
48 216 1
48 228 1
48 234 1
48 240 1
48 264 1
48 276 1
48 282 1
48 288 1
48 360 1
48 372 1
48 378 1
48 384 1
49 97 1
49 121 1
49 127 1
49 133 1
49 193 1
49 217 1
49 223 1
49 229 1
49 289 1
49 313 1
49 319 1
49 325 1
49 337 1
49 361 1
49 367 1
49 373 1
50 98 1
50 122 1
50 128 1
50 134 1
50 194 1
50 218 1
50 224 1
50 230 1
50 290 1
50 314 1
50 320 1
50 326 1
50 338 1
50 362 1
50 368 1
50 374 1
51 99 1
51 123 1
51 129 1
51 135 1
51 195 1
51 219 1
51 225 1
51 231 1
51 291 1
51 315 1
51 321 1
51 327 1
51 339 1
51 363 1
51 369 1
51 375 1
52 100 1
52 124 1
52 130 1
52 136 1
52 196 1
52 220 1
52 226 1
52 232 1
52 292 1
52 316 1
52 322 1
52 328 1
52 340 1
52 364 1
52 370 1
52 376 1
53 101 1
53 125 1
53 131 1
53 137 1
53 197 1
53 221 1
53 227 1
53 233 1
53 293 1
53 317 1
53 323 1
53 329 1
53 341 1
53 365 1
53 371 1
53 377 1
54 102 1
54 126 1
54 132 1
54 138 1
54 198 1
54 222 1
54 228 1
54 234 1
54 294 1
54 318 1
54 324 1
54 330 1
54 342 1
54 366 1
54 372 1
54 378 1
55 103 1
55 121 1
55 127 1
55 139 1
55 199 1
55 217 1
55 223 1
55 235 1
55 295 1
55 313 1
55 319 1
55 331 1
55 343 1
55 361 1
55 367 1
55 379 1
56 104 1
56 122 1
56 128 1
56 140 1
56 200 1
56 218 1
56 224 1
56 236 1
56 296 1
56 314 1
56 320 1
56 332 1
56 344 1
56 362 1
56 368 1
56 380 1
57 105 1
57 123 1
57 129 1
57 141 1
57 201 1
57 219 1
57 225 1
57 237 1
57 297 1
57 315 1
57 321 1
57 333 1
57 345 1
57 363 1
57 369 1
57 381 1
58 106 1
58 124 1
58 130 1
58 142 1
58 202 1
58 220 1
58 226 1
58 238 1
58 298 1
58 316 1
58 322 1
58 334 1
58 346 1
58 364 1
58 370 1
58 382 1
59 107 1
59 125 1
59 131 1
59 143 1
59 203 1
59 221 1
59 227 1
59 239 1
59 299 1
59 317 1
59 323 1
59 335 1
59 347 1
59 365 1
59 371 1
59 383 1
60 108 1
60 126 1
60 132 1
60 144 1
60 204 1
60 222 1
60 228 1
60 240 1
60 300 1
60 318 1
60 324 1
60 336 1
60 348 1
60 366 1
60 372 1
60 384 1
61 109 1
61 121 1
61 133 1
61 139 1
61 205 1
61 217 1
61 229 1
61 235 1
61 301 1
61 313 1
61 325 1
61 331 1
61 349 1
61 361 1
61 373 1
61 379 1
62 110 1
62 122 1
62 134 1
62 140 1
62 206 1
62 218 1
62 230 1
62 236 1
62 302 1
62 314 1
62 326 1
62 332 1
62 350 1
62 362 1
62 374 1
62 380 1
63 111 1
63 123 1
63 135 1
63 141 1
63 207 1
63 219 1
63 231 1
63 237 1
63 303 1
63 315 1
63 327 1
63 333 1
63 351 1
63 363 1
63 375 1
63 381 1
64 112 1
64 124 1
64 136 1
64 142 1
64 208 1
64 220 1
64 232 1
64 238 1
64 304 1
64 316 1
64 328 1
64 334 1
64 352 1
64 364 1
64 376 1
64 382 1
65 113 1
65 125 1
65 137 1
65 143 1
65 209 1
65 221 1
65 233 1
65 239 1
65 305 1
65 317 1
65 329 1
65 335 1
65 353 1
65 365 1
65 377 1
65 383 1
66 114 1
66 126 1
66 138 1
66 144 1
66 210 1
66 222 1
66 234 1
66 240 1
66 306 1
66 318 1
66 330 1
66 336 1
66 354 1
66 366 1
66 378 1
66 384 1
67 115 1
67 127 1
67 133 1
67 139 1
67 211 1
67 223 1
67 229 1
67 235 1
67 307 1
67 319 1
67 325 1
67 331 1
67 355 1
67 367 1
67 373 1
67 379 1
68 116 1
68 128 1
68 134 1
68 140 1
68 212 1
68 224 1
68 230 1
68 236 1
68 308 1
68 320 1
68 326 1
68 332 1
68 356 1
68 368 1
68 374 1
68 380 1
69 117 1
69 129 1
69 135 1
69 141 1
69 213 1
69 225 1
69 231 1
69 237 1
69 309 1
69 321 1
69 327 1
69 333 1
69 357 1
69 369 1
69 375 1
69 381 1
70 118 1
70 130 1
70 136 1
70 142 1
70 214 1
70 226 1
70 232 1
70 238 1
70 310 1
70 322 1
70 328 1
70 334 1
70 358 1
70 370 1
70 376 1
70 382 1
71 119 1
71 131 1
71 137 1
71 143 1
71 215 1
71 227 1
71 233 1
71 239 1
71 311 1
71 323 1
71 329 1
71 335 1
71 359 1
71 371 1
71 377 1
71 383 1
72 120 1
72 132 1
72 138 1
72 144 1
72 216 1
72 228 1
72 234 1
72 240 1
72 312 1
72 324 1
72 330 1
72 336 1
72 360 1
72 372 1
72 378 1
72 384 1
73 145 1
73 169 1
73 175 1
73 181 1
73 241 1
73 265 1
73 271 1
73 277 1
73 289 1
73 313 1
73 319 1
73 325 1
73 337 1
73 361 1
73 367 1
73 373 1
74 146 1
74 170 1
74 176 1
74 182 1
74 242 1
74 266 1
74 272 1
74 278 1
74 290 1
74 314 1
74 320 1
74 326 1
74 338 1
74 362 1
74 368 1
74 374 1
75 147 1
75 171 1
75 177 1
75 183 1
75 243 1
75 267 1
75 273 1
75 279 1
75 291 1
75 315 1
75 321 1
75 327 1
75 339 1
75 363 1
75 369 1
75 375 1
76 148 1
76 172 1
76 178 1
76 184 1
76 244 1
76 268 1
76 274 1
76 280 1
76 292 1
76 316 1
76 322 1
76 328 1
76 340 1
76 364 1
76 370 1
76 376 1
77 149 1
77 173 1
77 179 1
77 185 1
77 245 1
77 269 1
77 275 1
77 281 1
77 293 1
77 317 1
77 323 1
77 329 1
77 341 1
77 365 1
77 371 1
77 377 1
78 150 1
78 174 1
78 180 1
78 186 1
78 246 1
78 270 1
78 276 1
78 282 1
78 294 1
78 318 1
78 324 1
78 330 1
78 342 1
78 366 1
78 372 1
78 378 1
79 151 1
79 169 1
79 175 1
79 187 1
79 247 1
79 265 1
79 271 1
79 283 1
79 295 1
79 313 1
79 319 1
79 331 1
79 343 1
79 361 1
79 367 1
79 379 1
80 152 1
80 170 1
80 176 1
80 188 1
80 248 1
80 266 1
80 272 1
80 284 1
80 296 1
80 314 1
80 320 1
80 332 1
80 344 1
80 362 1
80 368 1
80 380 1
81 153 1
81 171 1
81 177 1
81 189 1
81 249 1
81 267 1
81 273 1
81 285 1
81 297 1
81 315 1
81 321 1
81 333 1
81 345 1
81 363 1
81 369 1
81 381 1
82 154 1
82 172 1
82 178 1
82 190 1
82 250 1
82 268 1
82 274 1
82 286 1
82 298 1
82 316 1
82 322 1
82 334 1
82 346 1
82 364 1
82 370 1
82 382 1
83 155 1
83 173 1
83 179 1
83 191 1
83 251 1
83 269 1
83 275 1
83 287 1
83 299 1
83 317 1
83 323 1
83 335 1
83 347 1
83 365 1
83 371 1
83 383 1
84 156 1
84 174 1
84 180 1
84 192 1
84 252 1
84 270 1
84 276 1
84 288 1
84 300 1
84 318 1
84 324 1
84 336 1
84 348 1
84 366 1
84 372 1
84 384 1
85 157 1
85 169 1
85 181 1
85 187 1
85 253 1
85 265 1
85 277 1
85 283 1
85 301 1
85 313 1
85 325 1
85 331 1
85 349 1
85 361 1
85 373 1
85 379 1
86 158 1
86 170 1
86 182 1
86 188 1
86 254 1
86 266 1
86 278 1
86 284 1
86 302 1
86 314 1
86 326 1
86 332 1
86 350 1
86 362 1
86 374 1
86 380 1
87 159 1
87 171 1
87 183 1
87 189 1
87 255 1
87 267 1
87 279 1
87 285 1
87 303 1
87 315 1
87 327 1
87 333 1
87 351 1
87 363 1
87 375 1
87 381 1
88 160 1
88 172 1
88 184 1
88 190 1
88 256 1
88 268 1
88 280 1
88 286 1
88 304 1
88 316 1
88 328 1
88 334 1
88 352 1
88 364 1
88 376 1
88 382 1
89 161 1
89 173 1
89 185 1
89 191 1
89 257 1
89 269 1
89 281 1
89 287 1
89 305 1
89 317 1
89 329 1
89 335 1
89 353 1
89 365 1
89 377 1
89 383 1
90 162 1
90 174 1
90 186 1
90 192 1
90 258 1
90 270 1
90 282 1
90 288 1
90 306 1
90 318 1
90 330 1
90 336 1
90 354 1
90 366 1
90 378 1
90 384 1
91 163 1
91 175 1
91 181 1
91 187 1
91 259 1
91 271 1
91 277 1
91 283 1
91 307 1
91 319 1
91 325 1
91 331 1
91 355 1
91 367 1
91 373 1
91 379 1
92 164 1
92 176 1
92 182 1
92 188 1
92 260 1
92 272 1
92 278 1
92 284 1
92 308 1
92 320 1
92 326 1
92 332 1
92 356 1
92 368 1
92 374 1
92 380 1
93 165 1
93 177 1
93 183 1
93 189 1
93 261 1
93 273 1
93 279 1
93 285 1
93 309 1
93 321 1
93 327 1
93 333 1
93 357 1
93 369 1
93 375 1
93 381 1
94 166 1
94 178 1
94 184 1
94 190 1
94 262 1
94 274 1
94 280 1
94 286 1
94 310 1
94 322 1
94 328 1
94 334 1
94 358 1
94 370 1
94 376 1
94 382 1
95 167 1
95 179 1
95 185 1
95 191 1
95 263 1
95 275 1
95 281 1
95 287 1
95 311 1
95 323 1
95 329 1
95 335 1
95 359 1
95 371 1
95 377 1
95 383 1
96 168 1
96 180 1
96 186 1
96 192 1
96 264 1
96 276 1
96 282 1
96 288 1
96 312 1
96 324 1
96 330 1
96 336 1
96 360 1
96 372 1
96 378 1
96 384 1
97 1 1
97 30 1
97 40 1
97 46 1
97 193 1
97 222 1
97 232 1
97 238 1
97 243 1
97 266 1
97 282 1
97 288 1
97 342 1
97 363 1
97 373 1
97 379 1
98 2 1
98 29 1
98 39 1
98 45 1
98 194 1
98 221 1
98 231 1
98 237 1
98 244 1
98 265 1
98 281 1
98 287 1
98 341 1
98 364 1
98 374 1
98 380 1
99 3 1
99 26 1
99 42 1
99 48 1
99 195 1
99 218 1
99 234 1
99 240 1
99 245 1
99 268 1
99 278 1
99 284 1
99 338 1
99 365 1
99 375 1
99 381 1
100 4 1
100 25 1
100 41 1
100 47 1
100 196 1
100 217 1
100 233 1
100 239 1
100 246 1
100 267 1
100 277 1
100 283 1
100 337 1
100 366 1
100 376 1
100 382 1
101 5 1
101 28 1
101 38 1
101 44 1
101 197 1
101 220 1
101 230 1
101 236 1
101 241 1
101 270 1
101 280 1
101 286 1
101 340 1
101 361 1
101 377 1
101 383 1
102 6 1
102 27 1
102 37 1
102 43 1
102 198 1
102 219 1
102 229 1
102 235 1
102 242 1
102 269 1
102 279 1
102 285 1
102 339 1
102 362 1
102 378 1
102 384 1
103 8 1
103 30 1
103 36 1
103 40 1
103 200 1
103 222 1
103 228 1
103 232 1
103 250 1
103 266 1
103 272 1
103 282 1
103 347 1
103 363 1
103 369 1
103 373 1
104 7 1
104 29 1
104 35 1
104 39 1
104 199 1
104 221 1
104 227 1
104 231 1
104 249 1
104 265 1
104 271 1
104 281 1
104 348 1
104 364 1
104 370 1
104 374 1
105 10 1
105 26 1
105 32 1
105 42 1
105 202 1
105 218 1
105 224 1
105 234 1
105 252 1
105 268 1
105 274 1
105 278 1
105 343 1
105 365 1
105 371 1
105 375 1
106 9 1
106 25 1
106 31 1
106 41 1
106 201 1
106 217 1
106 223 1
106 233 1
106 251 1
106 267 1
106 273 1
106 277 1
106 344 1
106 366 1
106 372 1
106 376 1
107 12 1
107 28 1
107 34 1
107 38 1
107 204 1
107 220 1
107 226 1
107 230 1
107 248 1
107 270 1
107 276 1
107 280 1
107 345 1
107 361 1
107 367 1
107 377 1
108 11 1
108 27 1
108 33 1
108 37 1
108 203 1
108 219 1
108 225 1
108 229 1
108 247 1
108 269 1
108 275 1
108 279 1
108 346 1
108 362 1
108 368 1
108 378 1
109 14 1
109 30 1
109 36 1
109 46 1
109 206 1
109 222 1
109 228 1
109 238 1
109 256 1
109 266 1
109 272 1
109 288 1
109 353 1
109 363 1
109 369 1
109 379 1
110 13 1
110 29 1
110 35 1
110 45 1
110 205 1
110 221 1
110 227 1
110 237 1
110 255 1
110 265 1
110 271 1
110 287 1
110 354 1
110 364 1
110 370 1
110 380 1
111 16 1
111 26 1
111 32 1
111 48 1
111 208 1
111 218 1
111 224 1
111 240 1
111 258 1
111 268 1
111 274 1
111 284 1
111 349 1
111 365 1
111 371 1
111 381 1
112 15 1
112 25 1
112 31 1
112 47 1
112 207 1
112 217 1
112 223 1
112 239 1
112 257 1
112 267 1
112 273 1
112 283 1
112 350 1
112 366 1
112 372 1
112 382 1
113 18 1
113 28 1
113 34 1
113 44 1
113 210 1
113 220 1
113 226 1
113 236 1
113 254 1
113 270 1
113 276 1
113 286 1
113 351 1
113 361 1
113 367 1
113 383 1
114 17 1
114 27 1
114 33 1
114 43 1
114 209 1
114 219 1
114 225 1
114 235 1
114 253 1
114 269 1
114 275 1
114 285 1
114 352 1
114 362 1
114 368 1
114 384 1
115 23 1
115 36 1
115 40 1
115 46 1
115 215 1
115 228 1
115 232 1
115 238 1
115 259 1
115 272 1
115 282 1
115 288 1
115 358 1
115 369 1
115 373 1
115 379 1
116 24 1
116 35 1
116 39 1
116 45 1
116 216 1
116 227 1
116 231 1
116 237 1
116 260 1
116 271 1
116 281 1
116 287 1
116 357 1
116 370 1
116 374 1
116 380 1
117 19 1
117 32 1
117 42 1
117 48 1
117 211 1
117 224 1
117 234 1
117 240 1
117 261 1
117 274 1
117 278 1
117 284 1
117 360 1
117 371 1
117 375 1
117 381 1
118 20 1
118 31 1
118 41 1
118 47 1
118 212 1
118 223 1
118 233 1
118 239 1
118 262 1
118 273 1
118 277 1
118 283 1
118 359 1
118 372 1
118 376 1
118 382 1
119 21 1
119 34 1
119 38 1
119 44 1
119 213 1
119 226 1
119 230 1
119 236 1
119 263 1
119 276 1
119 280 1
119 286 1
119 356 1
119 367 1
119 377 1
119 383 1
120 22 1
120 33 1
120 37 1
120 43 1
120 214 1
120 225 1
120 229 1
120 235 1
120 264 1
120 275 1
120 279 1
120 285 1
120 355 1
120 368 1
120 378 1
120 384 1
121 49 1
121 78 1
121 88 1
121 94 1
121 193 1
121 222 1
121 232 1
121 238 1
121 291 1
121 314 1
121 330 1
121 336 1
121 342 1
121 363 1
121 373 1
121 379 1
122 50 1
122 77 1
122 87 1
122 93 1
122 194 1
122 221 1
122 231 1
122 237 1
122 292 1
122 313 1
122 329 1
122 335 1
122 341 1
122 364 1
122 374 1
122 380 1
123 51 1
123 74 1
123 90 1
123 96 1
123 195 1
123 218 1
123 234 1
123 240 1
123 293 1
123 316 1
123 326 1
123 332 1
123 338 1
123 365 1
123 375 1
123 381 1
124 52 1
124 73 1
124 89 1
124 95 1
124 196 1
124 217 1
124 233 1
124 239 1
124 294 1
124 315 1
124 325 1
124 331 1
124 337 1
124 366 1
124 376 1
124 382 1
125 53 1
125 76 1
125 86 1
125 92 1
125 197 1
125 220 1
125 230 1
125 236 1
125 289 1
125 318 1
125 328 1
125 334 1
125 340 1
125 361 1
125 377 1
125 383 1
126 54 1
126 75 1
126 85 1
126 91 1
126 198 1
126 219 1
126 229 1
126 235 1
126 290 1
126 317 1
126 327 1
126 333 1
126 339 1
126 362 1
126 378 1
126 384 1
127 56 1
127 78 1
127 84 1
127 88 1
127 200 1
127 222 1
127 228 1
127 232 1
127 298 1
127 314 1
127 320 1
127 330 1
127 347 1
127 363 1
127 369 1
127 373 1
128 55 1
128 77 1
128 83 1
128 87 1
128 199 1
128 221 1
128 227 1
128 231 1
128 297 1
128 313 1
128 319 1
128 329 1
128 348 1
128 364 1
128 370 1
128 374 1
129 58 1
129 74 1
129 80 1
129 90 1
129 202 1
129 218 1
129 224 1
129 234 1
129 300 1
129 316 1
129 322 1
129 326 1
129 343 1
129 365 1
129 371 1
129 375 1
130 57 1
130 73 1
130 79 1
130 89 1
130 201 1
130 217 1
130 223 1
130 233 1
130 299 1
130 315 1
130 321 1
130 325 1
130 344 1
130 366 1
130 372 1
130 376 1
131 60 1
131 76 1
131 82 1
131 86 1
131 204 1
131 220 1
131 226 1
131 230 1
131 296 1
131 318 1
131 324 1
131 328 1
131 345 1
131 361 1
131 367 1
131 377 1
132 59 1
132 75 1
132 81 1
132 85 1
132 203 1
132 219 1
132 225 1
132 229 1
132 295 1
132 317 1
132 323 1
132 327 1
132 346 1
132 362 1
132 368 1
132 378 1
133 62 1
133 78 1
133 84 1
133 94 1
133 206 1
133 222 1
133 228 1
133 238 1
133 304 1
133 314 1
133 320 1
133 336 1
133 353 1
133 363 1
133 369 1
133 379 1
134 61 1
134 77 1
134 83 1
134 93 1
134 205 1
134 221 1
134 227 1
134 237 1
134 303 1
134 313 1
134 319 1
134 335 1
134 354 1
134 364 1
134 370 1
134 380 1
135 64 1
135 74 1
135 80 1
135 96 1
135 208 1
135 218 1
135 224 1
135 240 1
135 306 1
135 316 1
135 322 1
135 332 1
135 349 1
135 365 1
135 371 1
135 381 1
136 63 1
136 73 1
136 79 1
136 95 1
136 207 1
136 217 1
136 223 1
136 239 1
136 305 1
136 315 1
136 321 1
136 331 1
136 350 1
136 366 1
136 372 1
136 382 1
137 66 1
137 76 1
137 82 1
137 92 1
137 210 1
137 220 1
137 226 1
137 236 1
137 302 1
137 318 1
137 324 1
137 334 1
137 351 1
137 361 1
137 367 1
137 383 1
138 65 1
138 75 1
138 81 1
138 91 1
138 209 1
138 219 1
138 225 1
138 235 1
138 301 1
138 317 1
138 323 1
138 333 1
138 352 1
138 362 1
138 368 1
138 384 1
139 71 1
139 84 1
139 88 1
139 94 1
139 215 1
139 228 1
139 232 1
139 238 1
139 307 1
139 320 1
139 330 1
139 336 1
139 358 1
139 369 1
139 373 1
139 379 1
140 72 1
140 83 1
140 87 1
140 93 1
140 216 1
140 227 1
140 231 1
140 237 1
140 308 1
140 319 1
140 329 1
140 335 1
140 357 1
140 370 1
140 374 1
140 380 1
141 67 1
141 80 1
141 90 1
141 96 1
141 211 1
141 224 1
141 234 1
141 240 1
141 309 1
141 322 1
141 326 1
141 332 1
141 360 1
141 371 1
141 375 1
141 381 1
142 68 1
142 79 1
142 89 1
142 95 1
142 212 1
142 223 1
142 233 1
142 239 1
142 310 1
142 321 1
142 325 1
142 331 1
142 359 1
142 372 1
142 376 1
142 382 1
143 69 1
143 82 1
143 86 1
143 92 1
143 213 1
143 226 1
143 230 1
143 236 1
143 311 1
143 324 1
143 328 1
143 334 1
143 356 1
143 367 1
143 377 1
143 383 1
144 70 1
144 81 1
144 85 1
144 91 1
144 214 1
144 225 1
144 229 1
144 235 1
144 312 1
144 323 1
144 327 1
144 333 1
144 355 1
144 368 1
144 378 1
144 384 1
145 97 1
145 126 1
145 136 1
145 142 1
145 243 1
145 266 1
145 282 1
145 288 1
145 291 1
145 314 1
145 330 1
145 336 1
145 342 1
145 363 1
145 373 1
145 379 1
146 98 1
146 125 1
146 135 1
146 141 1
146 244 1
146 265 1
146 281 1
146 287 1
146 292 1
146 313 1
146 329 1
146 335 1
146 341 1
146 364 1
146 374 1
146 380 1
147 99 1
147 122 1
147 138 1
147 144 1
147 245 1
147 268 1
147 278 1
147 284 1
147 293 1
147 316 1
147 326 1
147 332 1
147 338 1
147 365 1
147 375 1
147 381 1
148 100 1
148 121 1
148 137 1
148 143 1
148 246 1
148 267 1
148 277 1
148 283 1
148 294 1
148 315 1
148 325 1
148 331 1
148 337 1
148 366 1
148 376 1
148 382 1
149 101 1
149 124 1
149 134 1
149 140 1
149 241 1
149 270 1
149 280 1
149 286 1
149 289 1
149 318 1
149 328 1
149 334 1
149 340 1
149 361 1
149 377 1
149 383 1
150 102 1
150 123 1
150 133 1
150 139 1
150 242 1
150 269 1
150 279 1
150 285 1
150 290 1
150 317 1
150 327 1
150 333 1
150 339 1
150 362 1
150 378 1
150 384 1
151 104 1
151 126 1
151 132 1
151 136 1
151 250 1
151 266 1
151 272 1
151 282 1
151 298 1
151 314 1
151 320 1
151 330 1
151 347 1
151 363 1
151 369 1
151 373 1
152 103 1
152 125 1
152 131 1
152 135 1
152 249 1
152 265 1
152 271 1
152 281 1
152 297 1
152 313 1
152 319 1
152 329 1
152 348 1
152 364 1
152 370 1
152 374 1
153 106 1
153 122 1
153 128 1
153 138 1
153 252 1
153 268 1
153 274 1
153 278 1
153 300 1
153 316 1
153 322 1
153 326 1
153 343 1
153 365 1
153 371 1
153 375 1
154 105 1
154 121 1
154 127 1
154 137 1
154 251 1
154 267 1
154 273 1
154 277 1
154 299 1
154 315 1
154 321 1
154 325 1
154 344 1
154 366 1
154 372 1
154 376 1
155 108 1
155 124 1
155 130 1
155 134 1
155 248 1
155 270 1
155 276 1
155 280 1
155 296 1
155 318 1
155 324 1
155 328 1
155 345 1
155 361 1
155 367 1
155 377 1
156 107 1
156 123 1
156 129 1
156 133 1
156 247 1
156 269 1
156 275 1
156 279 1
156 295 1
156 317 1
156 323 1
156 327 1
156 346 1
156 362 1
156 368 1
156 378 1
157 110 1
157 126 1
157 132 1
157 142 1
157 256 1
157 266 1
157 272 1
157 288 1
157 304 1
157 314 1
157 320 1
157 336 1
157 353 1
157 363 1
157 369 1
157 379 1
158 109 1
158 125 1
158 131 1
158 141 1
158 255 1
158 265 1
158 271 1
158 287 1
158 303 1
158 313 1
158 319 1
158 335 1
158 354 1
158 364 1
158 370 1
158 380 1
159 112 1
159 122 1
159 128 1
159 144 1
159 258 1
159 268 1
159 274 1
159 284 1
159 306 1
159 316 1
159 322 1
159 332 1
159 349 1
159 365 1
159 371 1
159 381 1
160 111 1
160 121 1
160 127 1
160 143 1
160 257 1
160 267 1
160 273 1
160 283 1
160 305 1
160 315 1
160 321 1
160 331 1
160 350 1
160 366 1
160 372 1
160 382 1
161 114 1
161 124 1
161 130 1
161 140 1
161 254 1
161 270 1
161 276 1
161 286 1
161 302 1
161 318 1
161 324 1
161 334 1
161 351 1
161 361 1
161 367 1
161 383 1
162 113 1
162 123 1
162 129 1
162 139 1
162 253 1
162 269 1
162 275 1
162 285 1
162 301 1
162 317 1
162 323 1
162 333 1
162 352 1
162 362 1
162 368 1
162 384 1
163 119 1
163 132 1
163 136 1
163 142 1
163 259 1
163 272 1
163 282 1
163 288 1
163 307 1
163 320 1
163 330 1
163 336 1
163 358 1
163 369 1
163 373 1
163 379 1
164 120 1
164 131 1
164 135 1
164 141 1
164 260 1
164 271 1
164 281 1
164 287 1
164 308 1
164 319 1
164 329 1
164 335 1
164 357 1
164 370 1
164 374 1
164 380 1
165 115 1
165 128 1
165 138 1
165 144 1
165 261 1
165 274 1
165 278 1
165 284 1
165 309 1
165 322 1
165 326 1
165 332 1
165 360 1
165 371 1
165 375 1
165 381 1
166 116 1
166 127 1
166 137 1
166 143 1
166 262 1
166 273 1
166 277 1
166 283 1
166 310 1
166 321 1
166 325 1
166 331 1
166 359 1
166 372 1
166 376 1
166 382 1
167 117 1
167 130 1
167 134 1
167 140 1
167 263 1
167 276 1
167 280 1
167 286 1
167 311 1
167 324 1
167 328 1
167 334 1
167 356 1
167 367 1
167 377 1
167 383 1
168 118 1
168 129 1
168 133 1
168 139 1
168 264 1
168 275 1
168 279 1
168 285 1
168 312 1
168 323 1
168 327 1
168 333 1
168 355 1
168 368 1
168 378 1
168 384 1
169 145 1
169 174 1
169 184 1
169 190 1
169 193 1
169 222 1
169 232 1
169 238 1
169 243 1
169 266 1
169 282 1
169 288 1
169 291 1
169 314 1
169 330 1
169 336 1
170 146 1
170 173 1
170 183 1
170 189 1
170 194 1
170 221 1
170 231 1
170 237 1
170 244 1
170 265 1
170 281 1
170 287 1
170 292 1
170 313 1
170 329 1
170 335 1
171 147 1
171 170 1
171 186 1
171 192 1
171 195 1
171 218 1
171 234 1
171 240 1
171 245 1
171 268 1
171 278 1
171 284 1
171 293 1
171 316 1
171 326 1
171 332 1
172 148 1
172 169 1
172 185 1
172 191 1
172 196 1
172 217 1
172 233 1
172 239 1
172 246 1
172 267 1
172 277 1
172 283 1
172 294 1
172 315 1
172 325 1
172 331 1
173 149 1
173 172 1
173 182 1
173 188 1
173 197 1
173 220 1
173 230 1
173 236 1
173 241 1
173 270 1
173 280 1
173 286 1
173 289 1
173 318 1
173 328 1
173 334 1
174 150 1
174 171 1
174 181 1
174 187 1
174 198 1
174 219 1
174 229 1
174 235 1
174 242 1
174 269 1
174 279 1
174 285 1
174 290 1
174 317 1
174 327 1
174 333 1
175 152 1
175 174 1
175 180 1
175 184 1
175 200 1
175 222 1
175 228 1
175 232 1
175 250 1
175 266 1
175 272 1
175 282 1
175 298 1
175 314 1
175 320 1
175 330 1
176 151 1
176 173 1
176 179 1
176 183 1
176 199 1
176 221 1
176 227 1
176 231 1
176 249 1
176 265 1
176 271 1
176 281 1
176 297 1
176 313 1
176 319 1
176 329 1
177 154 1
177 170 1
177 176 1
177 186 1
177 202 1
177 218 1
177 224 1
177 234 1
177 252 1
177 268 1
177 274 1
177 278 1
177 300 1
177 316 1
177 322 1
177 326 1
178 153 1
178 169 1
178 175 1
178 185 1
178 201 1
178 217 1
178 223 1
178 233 1
178 251 1
178 267 1
178 273 1
178 277 1
178 299 1
178 315 1
178 321 1
178 325 1
179 156 1
179 172 1
179 178 1
179 182 1
179 204 1
179 220 1
179 226 1
179 230 1
179 248 1
179 270 1
179 276 1
179 280 1
179 296 1
179 318 1
179 324 1
179 328 1
180 155 1
180 171 1
180 177 1
180 181 1
180 203 1
180 219 1
180 225 1
180 229 1
180 247 1
180 269 1
180 275 1
180 279 1
180 295 1
180 317 1
180 323 1
180 327 1
181 158 1
181 174 1
181 180 1
181 190 1
181 206 1
181 222 1
181 228 1
181 238 1
181 256 1
181 266 1
181 272 1
181 288 1
181 304 1
181 314 1
181 320 1
181 336 1
182 157 1
182 173 1
182 179 1
182 189 1
182 205 1
182 221 1
182 227 1
182 237 1
182 255 1
182 265 1
182 271 1
182 287 1
182 303 1
182 313 1
182 319 1
182 335 1
183 160 1
183 170 1
183 176 1
183 192 1
183 208 1
183 218 1
183 224 1
183 240 1
183 258 1
183 268 1
183 274 1
183 284 1
183 306 1
183 316 1
183 322 1
183 332 1
184 159 1
184 169 1
184 175 1
184 191 1
184 207 1
184 217 1
184 223 1
184 239 1
184 257 1
184 267 1
184 273 1
184 283 1
184 305 1
184 315 1
184 321 1
184 331 1
185 162 1
185 172 1
185 178 1
185 188 1
185 210 1
185 220 1
185 226 1
185 236 1
185 254 1
185 270 1
185 276 1
185 286 1
185 302 1
185 318 1
185 324 1
185 334 1
186 161 1
186 171 1
186 177 1
186 187 1
186 209 1
186 219 1
186 225 1
186 235 1
186 253 1
186 269 1
186 275 1
186 285 1
186 301 1
186 317 1
186 323 1
186 333 1
187 167 1
187 180 1
187 184 1
187 190 1
187 215 1
187 228 1
187 232 1
187 238 1
187 259 1
187 272 1
187 282 1
187 288 1
187 307 1
187 320 1
187 330 1
187 336 1
188 168 1
188 179 1
188 183 1
188 189 1
188 216 1
188 227 1
188 231 1
188 237 1
188 260 1
188 271 1
188 281 1
188 287 1
188 308 1
188 319 1
188 329 1
188 335 1
189 163 1
189 176 1
189 186 1
189 192 1
189 211 1
189 224 1
189 234 1
189 240 1
189 261 1
189 274 1
189 278 1
189 284 1
189 309 1
189 322 1
189 326 1
189 332 1
190 164 1
190 175 1
190 185 1
190 191 1
190 212 1
190 223 1
190 233 1
190 239 1
190 262 1
190 273 1
190 277 1
190 283 1
190 310 1
190 321 1
190 325 1
190 331 1
191 165 1
191 178 1
191 182 1
191 188 1
191 213 1
191 226 1
191 230 1
191 236 1
191 263 1
191 276 1
191 280 1
191 286 1
191 311 1
191 324 1
191 328 1
191 334 1
192 166 1
192 177 1
192 181 1
192 187 1
192 214 1
192 225 1
192 229 1
192 235 1
192 264 1
192 275 1
192 279 1
192 285 1
192 312 1
192 323 1
192 327 1
192 333 1
