%%MatrixMarket matrix coordinate integer general
192 384 3072
1 1 1
1 26 1
1 35 1
1 45 1
1 193 1
1 218 1
1 227 1
1 237 1
1 241 1
1 266 1
1 275 1
1 285 1
1 289 1
1 314 1
1 323 1
1 333 1
2 2 1
2 25 1
2 36 1
2 46 1
2 194 1
2 217 1
2 228 1
2 238 1
2 242 1
2 265 1
2 276 1
2 286 1
2 290 1
2 313 1
2 324 1
2 334 1
3 3 1
3 30 1
3 31 1
3 47 1
3 195 1
3 222 1
3 223 1
3 239 1
3 243 1
3 270 1
3 271 1
3 287 1
3 291 1
3 318 1
3 319 1
3 335 1
4 4 1
4 29 1
4 32 1
4 48 1
4 196 1
4 221 1
4 224 1
4 240 1
4 244 1
4 269 1
4 272 1
4 288 1
4 292 1
4 317 1
4 320 1
4 336 1
5 5 1
5 28 1
5 33 1
5 43 1
5 197 1
5 220 1
5 225 1
5 235 1
5 245 1
5 268 1
5 273 1
5 283 1
5 293 1
5 316 1
5 321 1
5 331 1
6 6 1
6 27 1
6 34 1
6 44 1
6 198 1
6 219 1
6 226 1
6 236 1
6 246 1
6 267 1
6 274 1
6 284 1
6 294 1
6 315 1
6 322 1
6 332 1
7 7 1
7 26 1
7 39 1
7 45 1
7 199 1
7 218 1
7 231 1
7 237 1
7 247 1
7 266 1
7 279 1
7 285 1
7 295 1
7 314 1
7 327 1
7 333 1
8 8 1
8 25 1
8 40 1
8 46 1
8 200 1
8 217 1
8 232 1
8 238 1
8 248 1
8 265 1
8 280 1
8 286 1
8 296 1
8 313 1
8 328 1
8 334 1
9 9 1
9 30 1
9 41 1
9 47 1
9 201 1
9 222 1
9 233 1
9 239 1
9 249 1
9 270 1
9 281 1
9 287 1
9 297 1
9 318 1
9 329 1
9 335 1
10 10 1
10 29 1
10 42 1
10 48 1
10 202 1
10 221 1
10 234 1
10 240 1
10 250 1
10 269 1
10 282 1
10 288 1
10 298 1
10 317 1
10 330 1
10 336 1
11 11 1
11 28 1
11 37 1
11 43 1
11 203 1
11 220 1
11 229 1
11 235 1
11 251 1
11 268 1
11 277 1
11 283 1
11 299 1
11 316 1
11 325 1
11 331 1
12 12 1
12 27 1
12 38 1
12 44 1
12 204 1
12 219 1
12 230 1
12 236 1
12 252 1
12 267 1
12 278 1
12 284 1
12 300 1
12 315 1
12 326 1
12 332 1
13 13 1
13 35 1
13 39 1
13 45 1
13 205 1
13 227 1
13 231 1
13 237 1
13 253 1
13 275 1
13 279 1
13 285 1
13 301 1
13 323 1
13 327 1
13 333 1
14 14 1
14 36 1
14 40 1
14 46 1
14 206 1
14 228 1
14 232 1
14 238 1
14 254 1
14 276 1
14 280 1
14 286 1
14 302 1
14 324 1
14 328 1
14 334 1
15 15 1
15 31 1
15 41 1
15 47 1
15 207 1
15 223 1
15 233 1
15 239 1
15 255 1
15 271 1
15 281 1
15 287 1
15 303 1
15 319 1
15 329 1
15 335 1
16 16 1
16 32 1
16 42 1
16 48 1
16 208 1
16 224 1
16 234 1
16 240 1
16 256 1
16 272 1
16 282 1
16 288 1
16 304 1
16 320 1
16 330 1
16 336 1
17 17 1
17 33 1
17 37 1
17 43 1
17 209 1
17 225 1
17 229 1
17 235 1
17 257 1
17 273 1
17 277 1
17 283 1
17 305 1
17 321 1
17 325 1
17 331 1
18 18 1
18 34 1
18 38 1
18 44 1
18 210 1
18 226 1
18 230 1
18 236 1
18 258 1
18 274 1
18 278 1
18 284 1
18 306 1
18 322 1
18 326 1
18 332 1
19 20 1
19 26 1
19 35 1
19 39 1
19 212 1
19 218 1
19 227 1
19 231 1
19 260 1
19 266 1
19 275 1
19 279 1
19 308 1
19 314 1
19 323 1
19 327 1
20 19 1
20 25 1
20 36 1
20 40 1
20 211 1
20 217 1
20 228 1
20 232 1
20 259 1
20 265 1
20 276 1
20 280 1
20 307 1
20 313 1
20 324 1
20 328 1
21 24 1
21 30 1
21 31 1
21 41 1
21 216 1
21 222 1
21 223 1
21 233 1
21 264 1
21 270 1
21 271 1
21 281 1
21 312 1
21 318 1
21 319 1
21 329 1
22 23 1
22 29 1
22 32 1
22 42 1
22 215 1
22 221 1
22 224 1
22 234 1
22 263 1
22 269 1
22 272 1
22 282 1
22 311 1
22 317 1
22 320 1
22 330 1
23 22 1
23 28 1
23 33 1
23 37 1
23 214 1
23 220 1
23 225 1
23 229 1
23 262 1
23 268 1
23 273 1
23 277 1
23 310 1
23 316 1
23 321 1
23 325 1
24 21 1
24 27 1
24 34 1
24 38 1
24 213 1
24 219 1
24 226 1
24 230 1
24 261 1
24 267 1
24 274 1
24 278 1
24 309 1
24 315 1
24 322 1
24 326 1
25 49 1
25 74 1
25 83 1
25 93 1
25 193 1
25 218 1
25 227 1
25 237 1
25 241 1
25 266 1
25 275 1
25 285 1
25 337 1
25 362 1
25 371 1
25 381 1
26 50 1
26 73 1
26 84 1
26 94 1
26 194 1
26 217 1
26 228 1
26 238 1
26 242 1
26 265 1
26 276 1
26 286 1
26 338 1
26 361 1
26 372 1
26 382 1
27 51 1
27 78 1
27 79 1
27 95 1
27 195 1
27 222 1
27 223 1
27 239 1
27 243 1
27 270 1
27 271 1
27 287 1
27 339 1
27 366 1
27 367 1
27 383 1
28 52 1
28 77 1
28 80 1
28 96 1
28 196 1
28 221 1
28 224 1
28 240 1
28 244 1
28 269 1
28 272 1
28 288 1
28 340 1
28 365 1
28 368 1
28 384 1
29 53 1
29 76 1
29 81 1
29 91 1
29 197 1
29 220 1
29 225 1
29 235 1
29 245 1
29 268 1
29 273 1
29 283 1
29 341 1
29 364 1
29 369 1
29 379 1
30 54 1
30 75 1
30 82 1
30 92 1
30 198 1
30 219 1
30 226 1
30 236 1
30 246 1
30 267 1
30 274 1
30 284 1
30 342 1
30 363 1
30 370 1
30 380 1
31 55 1
31 74 1
31 87 1
31 93 1
31 199 1
31 218 1
31 231 1
31 237 1
31 247 1
31 266 1
31 279 1
31 285 1
31 343 1
31 362 1
31 375 1
31 381 1
32 56 1
32 73 1
32 88 1
32 94 1
32 200 1
32 217 1
32 232 1
32 238 1
32 248 1
32 265 1
32 280 1
32 286 1
32 344 1
32 361 1
32 376 1
32 382 1
33 57 1
33 78 1
33 89 1
33 95 1
33 201 1
33 222 1
33 233 1
33 239 1
33 249 1
33 270 1
33 281 1
33 287 1
33 345 1
33 366 1
33 377 1
33 383 1
34 58 1
34 77 1
34 90 1
34 96 1
34 202 1
34 221 1
34 234 1
34 240 1
34 250 1
34 269 1
34 282 1
34 288 1
34 346 1
34 365 1
34 378 1
34 384 1
35 59 1
35 76 1
35 85 1
35 91 1
35 203 1
35 220 1
35 229 1
35 235 1
35 251 1
35 268 1
35 277 1
35 283 1
35 347 1
35 364 1
35 373 1
35 379 1
36 60 1
36 75 1
36 86 1
36 92 1
36 204 1
36 219 1
36 230 1
36 236 1
36 252 1
36 267 1
36 278 1
36 284 1
36 348 1
36 363 1
36 374 1
36 380 1
37 61 1
37 83 1
37 87 1
37 93 1
37 205 1
37 227 1
37 231 1
37 237 1
37 253 1
37 275 1
37 279 1
37 285 1
37 349 1
37 371 1
37 375 1
37 381 1
38 62 1
38 84 1
38 88 1
38 94 1
38 206 1
38 228 1
38 232 1
38 238 1
38 254 1
38 276 1
38 280 1
38 286 1
38 350 1
38 372 1
38 376 1
38 382 1
39 63 1
39 79 1
39 89 1
39 95 1
39 207 1
39 223 1
39 233 1
39 239 1
39 255 1
39 271 1
39 281 1
39 287 1
39 351 1
39 367 1
39 377 1
39 383 1
40 64 1
40 80 1
40 90 1
40 96 1
40 208 1
40 224 1
40 234 1
40 240 1
40 256 1
40 272 1
40 282 1
40 288 1
40 352 1
40 368 1
40 378 1
40 384 1
41 65 1
41 81 1
41 85 1
41 91 1
41 209 1
41 225 1
41 229 1
41 235 1
41 257 1
41 273 1
41 277 1
41 283 1
41 353 1
41 369 1
41 373 1
41 379 1
42 66 1
42 82 1
42 86 1
42 92 1
42 210 1
42 226 1
42 230 1
42 236 1
42 258 1
42 274 1
42 278 1
42 284 1
42 354 1
42 370 1
42 374 1
42 380 1
43 68 1
43 74 1
43 83 1
43 87 1
43 212 1
43 218 1
43 227 1
43 231 1
43 260 1
43 266 1
43 275 1
43 279 1
43 356 1
43 362 1
43 371 1
43 375 1
44 67 1
44 73 1
44 84 1
44 88 1
44 211 1
44 217 1
44 228 1
44 232 1
44 259 1
44 265 1
44 276 1
44 280 1
44 355 1
44 361 1
44 372 1
44 376 1
45 72 1
45 78 1
45 79 1
45 89 1
45 216 1
45 222 1
45 223 1
45 233 1
45 264 1
45 270 1
45 271 1
45 281 1
45 360 1
45 366 1
45 367 1
45 377 1
46 71 1
46 77 1
46 80 1
46 90 1
46 215 1
46 221 1
46 224 1
46 234 1
46 263 1
46 269 1
46 272 1
46 282 1
46 359 1
46 365 1
46 368 1
46 378 1
47 70 1
47 76 1
47 81 1
47 85 1
47 214 1
47 220 1
47 225 1
47 229 1
47 262 1
47 268 1
47 273 1
47 277 1
47 358 1
47 364 1
47 369 1
47 373 1
48 69 1
48 75 1
48 82 1
48 86 1
48 213 1
48 219 1
48 226 1
48 230 1
48 261 1
48 267 1
48 274 1
48 278 1
48 357 1
48 363 1
48 370 1
48 374 1
49 97 1
49 122 1
49 131 1
49 141 1
49 193 1
49 218 1
49 227 1
49 237 1
49 289 1
49 314 1
49 323 1
49 333 1
49 337 1
49 362 1
49 371 1
49 381 1
50 98 1
50 121 1
50 132 1
50 142 1
50 194 1
50 217 1
50 228 1
50 238 1
50 290 1
50 313 1
50 324 1
50 334 1
50 338 1
50 361 1
50 372 1
50 382 1
51 99 1
51 126 1
51 127 1
51 143 1
51 195 1
51 222 1
51 223 1
51 239 1
51 291 1
51 318 1
51 319 1
51 335 1
51 339 1
51 366 1
51 367 1
51 383 1
52 100 1
52 125 1
52 128 1
52 144 1
52 196 1
52 221 1
52 224 1
52 240 1
52 292 1
52 317 1
52 320 1
52 336 1
52 340 1
52 365 1
52 368 1
52 384 1
53 101 1
53 124 1
53 129 1
53 139 1
53 197 1
53 220 1
53 225 1
53 235 1
53 293 1
53 316 1
53 321 1
53 331 1
53 341 1
53 364 1
53 369 1
53 379 1
54 102 1
54 123 1
54 130 1
54 140 1
54 198 1
54 219 1
54 226 1
54 236 1
54 294 1
54 315 1
54 322 1
54 332 1
54 342 1
54 363 1
54 370 1
54 380 1
55 103 1
55 122 1
55 135 1
55 141 1
55 199 1
55 218 1
55 231 1
55 237 1
55 295 1
55 314 1
55 327 1
55 333 1
55 343 1
55 362 1
55 375 1
55 381 1
56 104 1
56 121 1
56 136 1
56 142 1
56 200 1
56 217 1
56 232 1
56 238 1
56 296 1
56 313 1
56 328 1
56 334 1
56 344 1
56 361 1
56 376 1
56 382 1
57 105 1
57 126 1
57 137 1
57 143 1
57 201 1
57 222 1
57 233 1
57 239 1
57 297 1
57 318 1
57 329 1
57 335 1
57 345 1
57 366 1
57 377 1
57 383 1
58 106 1
58 125 1
58 138 1
58 144 1
58 202 1
58 221 1
58 234 1
58 240 1
58 298 1
58 317 1
58 330 1
58 336 1
58 346 1
58 365 1
58 378 1
58 384 1
59 107 1
59 124 1
59 133 1
59 139 1
59 203 1
59 220 1
59 229 1
59 235 1
59 299 1
59 316 1
59 325 1
59 331 1
59 347 1
59 364 1
59 373 1
59 379 1
60 108 1
60 123 1
60 134 1
60 140 1
60 204 1
60 219 1
60 230 1
60 236 1
60 300 1
60 315 1
60 326 1
60 332 1
60 348 1
60 363 1
60 374 1
60 380 1
61 109 1
61 131 1
61 135 1
61 141 1
61 205 1
61 227 1
61 231 1
61 237 1
61 301 1
61 323 1
61 327 1
61 333 1
61 349 1
61 371 1
61 375 1
61 381 1
62 110 1
62 132 1
62 136 1
62 142 1
62 206 1
62 228 1
62 232 1
62 238 1
62 302 1
62 324 1
62 328 1
62 334 1
62 350 1
62 372 1
62 376 1
62 382 1
63 111 1
63 127 1
63 137 1
63 143 1
63 207 1
63 223 1
63 233 1
63 239 1
63 303 1
63 319 1
63 329 1
63 335 1
63 351 1
63 367 1
63 377 1
63 383 1
64 112 1
64 128 1
64 138 1
64 144 1
64 208 1
64 224 1
64 234 1
64 240 1
64 304 1
64 320 1
64 330 1
64 336 1
64 352 1
64 368 1
64 378 1
64 384 1
65 113 1
65 129 1
65 133 1
65 139 1
65 209 1
65 225 1
65 229 1
65 235 1
65 305 1
65 321 1
65 325 1
65 331 1
65 353 1
65 369 1
65 373 1
65 379 1
66 114 1
66 130 1
66 134 1
66 140 1
66 210 1
66 226 1
66 230 1
66 236 1
66 306 1
66 322 1
66 326 1
66 332 1
66 354 1
66 370 1
66 374 1
66 380 1
67 116 1
67 122 1
67 131 1
67 135 1
67 212 1
67 218 1
67 227 1
67 231 1
67 308 1
67 314 1
67 323 1
67 327 1
67 356 1
67 362 1
67 371 1
67 375 1
68 115 1
68 121 1
68 132 1
68 136 1
68 211 1
68 217 1
68 228 1
68 232 1
68 307 1
68 313 1
68 324 1
68 328 1
68 355 1
68 361 1
68 372 1
68 376 1
69 120 1
69 126 1
69 127 1
69 137 1
69 216 1
69 222 1
69 223 1
69 233 1
69 312 1
69 318 1
69 319 1
69 329 1
69 360 1
69 366 1
69 367 1
69 377 1
70 119 1
70 125 1
70 128 1
70 138 1
70 215 1
70 221 1
70 224 1
70 234 1
70 311 1
70 317 1
70 320 1
70 330 1
70 359 1
70 365 1
70 368 1
70 378 1
71 118 1
71 124 1
71 129 1
71 133 1
71 214 1
71 220 1
71 225 1
71 229 1
71 310 1
71 316 1
71 321 1
71 325 1
71 358 1
71 364 1
71 369 1
71 373 1
72 117 1
72 123 1
72 130 1
72 134 1
72 213 1
72 219 1
72 226 1
72 230 1
72 309 1
72 315 1
72 322 1
72 326 1
72 357 1
72 363 1
72 370 1
72 374 1
73 145 1
73 170 1
73 179 1
73 189 1
73 241 1
73 266 1
73 275 1
73 285 1
73 289 1
73 314 1
73 323 1
73 333 1
73 337 1
73 362 1
73 371 1
73 381 1
74 146 1
74 169 1
74 180 1
74 190 1
74 242 1
74 265 1
74 276 1
74 286 1
74 290 1
74 313 1
74 324 1
74 334 1
74 338 1
74 361 1
74 372 1
74 382 1
75 147 1
75 174 1
75 175 1
75 191 1
75 243 1
75 270 1
75 271 1
75 287 1
75 291 1
75 318 1
75 319 1
75 335 1
75 339 1
75 366 1
75 367 1
75 383 1
76 148 1
76 173 1
76 176 1
76 192 1
76 244 1
76 269 1
76 272 1
76 288 1
76 292 1
76 317 1
76 320 1
76 336 1
76 340 1
76 365 1
76 368 1
76 384 1
77 149 1
77 172 1
77 177 1
77 187 1
77 245 1
77 268 1
77 273 1
77 283 1
77 293 1
77 316 1
77 321 1
77 331 1
77 341 1
77 364 1
77 369 1
77 379 1
78 150 1
78 171 1
78 178 1
78 188 1
78 246 1
78 267 1
78 274 1
78 284 1
78 294 1
78 315 1
78 322 1
78 332 1
78 342 1
78 363 1
78 370 1
78 380 1
79 151 1
79 170 1
79 183 1
79 189 1
79 247 1
79 266 1
79 279 1
79 285 1
79 295 1
79 314 1
79 327 1
79 333 1
79 343 1
79 362 1
79 375 1
79 381 1
80 152 1
80 169 1
80 184 1
80 190 1
80 248 1
80 265 1
80 280 1
80 286 1
80 296 1
80 313 1
80 328 1
80 334 1
80 344 1
80 361 1
80 376 1
80 382 1
81 153 1
81 174 1
81 185 1
81 191 1
81 249 1
81 270 1
81 281 1
81 287 1
81 297 1
81 318 1
81 329 1
81 335 1
81 345 1
81 366 1
81 377 1
81 383 1
82 154 1
82 173 1
82 186 1
82 192 1
82 250 1
82 269 1
82 282 1
82 288 1
82 298 1
82 317 1
82 330 1
82 336 1
82 346 1
82 365 1
82 378 1
82 384 1
83 155 1
83 172 1
83 181 1
83 187 1
83 251 1
83 268 1
83 277 1
83 283 1
83 299 1
83 316 1
83 325 1
83 331 1
83 347 1
83 364 1
83 373 1
83 379 1
84 156 1
84 171 1
84 182 1
84 188 1
84 252 1
84 267 1
84 278 1
84 284 1
84 300 1
84 315 1
84 326 1
84 332 1
84 348 1
84 363 1
84 374 1
84 380 1
85 157 1
85 179 1
85 183 1
85 189 1
85 253 1
85 275 1
85 279 1
85 285 1
85 301 1
85 323 1
85 327 1
85 333 1
85 349 1
85 371 1
85 375 1
85 381 1
86 158 1
86 180 1
86 184 1
86 190 1
86 254 1
86 276 1
86 280 1
86 286 1
86 302 1
86 324 1
86 328 1
86 334 1
86 350 1
86 372 1
86 376 1
86 382 1
87 159 1
87 175 1
87 185 1
87 191 1
87 255 1
87 271 1
87 281 1
87 287 1
87 303 1
87 319 1
87 329 1
87 335 1
87 351 1
87 367 1
87 377 1
87 383 1
88 160 1
88 176 1
88 186 1
88 192 1
88 256 1
88 272 1
88 282 1
88 288 1
88 304 1
88 320 1
88 330 1
88 336 1
88 352 1
88 368 1
88 378 1
88 384 1
89 161 1
89 177 1
89 181 1
89 187 1
89 257 1
89 273 1
89 277 1
89 283 1
89 305 1
89 321 1
89 325 1
89 331 1
89 353 1
89 369 1
89 373 1
89 379 1
90 162 1
90 178 1
90 182 1
90 188 1
90 258 1
90 274 1
90 278 1
90 284 1
90 306 1
90 322 1
90 326 1
90 332 1
90 354 1
90 370 1
90 374 1
90 380 1
91 164 1
91 170 1
91 179 1
91 183 1
91 260 1
91 266 1
91 275 1
91 279 1
91 308 1
91 314 1
91 323 1
91 327 1
91 356 1
91 362 1
91 371 1
91 375 1
92 163 1
92 169 1
92 180 1
92 184 1
92 259 1
92 265 1
92 276 1
92 280 1
92 307 1
92 313 1
92 324 1
92 328 1
92 355 1
92 361 1
92 372 1
92 376 1
93 168 1
93 174 1
93 175 1
93 185 1
93 264 1
93 270 1
93 271 1
93 281 1
93 312 1
93 318 1
93 319 1
93 329 1
93 360 1
93 366 1
93 367 1
93 377 1
94 167 1
94 173 1
94 176 1
94 186 1
94 263 1
94 269 1
94 272 1
94 282 1
94 311 1
94 317 1
94 320 1
94 330 1
94 359 1
94 365 1
94 368 1
94 378 1
95 166 1
95 172 1
95 177 1
95 181 1
95 262 1
95 268 1
95 273 1
95 277 1
95 310 1
95 316 1
95 321 1
95 325 1
95 358 1
95 364 1
95 369 1
95 373 1
96 165 1
96 171 1
96 178 1
96 182 1
96 261 1
96 267 1
96 274 1
96 278 1
96 309 1
96 315 1
96 322 1
96 326 1
96 357 1
96 363 1
96 370 1
96 374 1
97 1 1
97 25 1
97 31 1
97 37 1
97 194 1
97 218 1
97 224 1
97 230 1
97 243 1
97 267 1
97 273 1
97 279 1
97 339 1
97 363 1
97 369 1
97 375 1
98 2 1
98 26 1
98 32 1
98 38 1
98 193 1
98 217 1
98 223 1
98 229 1
98 246 1
98 270 1
98 276 1
98 282 1
98 342 1
98 366 1
98 372 1
98 378 1
99 3 1
99 27 1
99 33 1
99 39 1
99 196 1
99 220 1
99 226 1
99 232 1
99 245 1
99 269 1
99 275 1
99 281 1
99 341 1
99 365 1
99 371 1
99 377 1
100 4 1
100 28 1
100 34 1
100 40 1
100 195 1
100 219 1
100 225 1
100 231 1
100 242 1
100 266 1
100 272 1
100 278 1
100 338 1
100 362 1
100 368 1
100 374 1
101 5 1
101 29 1
101 35 1
101 41 1
101 198 1
101 222 1
101 228 1
101 234 1
101 241 1
101 265 1
101 271 1
101 277 1
101 337 1
101 361 1
101 367 1
101 373 1
102 6 1
102 30 1
102 36 1
102 42 1
102 197 1
102 221 1
102 227 1
102 233 1
102 244 1
102 268 1
102 274 1
102 280 1
102 340 1
102 364 1
102 370 1
102 376 1
103 7 1
103 25 1
103 31 1
103 43 1
103 200 1
103 218 1
103 224 1
103 236 1
103 249 1
103 267 1
103 273 1
103 285 1
103 345 1
103 363 1
103 369 1
103 381 1
104 8 1
104 26 1
104 32 1
104 44 1
104 199 1
104 217 1
104 223 1
104 235 1
104 252 1
104 270 1
104 276 1
104 288 1
104 348 1
104 366 1
104 372 1
104 384 1
105 9 1
105 27 1
105 33 1
105 45 1
105 202 1
105 220 1
105 226 1
105 238 1
105 251 1
105 269 1
105 275 1
105 287 1
105 347 1
105 365 1
105 371 1
105 383 1
106 10 1
106 28 1
106 34 1
106 46 1
106 201 1
106 219 1
106 225 1
106 237 1
106 248 1
106 266 1
106 272 1
106 284 1
106 344 1
106 362 1
106 368 1
106 380 1
107 11 1
107 29 1
107 35 1
107 47 1
107 204 1
107 222 1
107 228 1
107 240 1
107 247 1
107 265 1
107 271 1
107 283 1
107 343 1
107 361 1
107 367 1
107 379 1
108 12 1
108 30 1
108 36 1
108 48 1
108 203 1
108 221 1
108 227 1
108 239 1
108 250 1
108 268 1
108 274 1
108 286 1
108 346 1
108 364 1
108 370 1
108 382 1
109 13 1
109 25 1
109 37 1
109 43 1
109 206 1
109 218 1
109 230 1
109 236 1
109 255 1
109 267 1
109 279 1
109 285 1
109 351 1
109 363 1
109 375 1
109 381 1
110 14 1
110 26 1
110 38 1
110 44 1
110 205 1
110 217 1
110 229 1
110 235 1
110 258 1
110 270 1
110 282 1
110 288 1
110 354 1
110 366 1
110 378 1
110 384 1
111 15 1
111 27 1
111 39 1
111 45 1
111 208 1
111 220 1
111 232 1
111 238 1
111 257 1
111 269 1
111 281 1
111 287 1
111 353 1
111 365 1
111 377 1
111 383 1
112 16 1
112 28 1
112 40 1
112 46 1
112 207 1
112 219 1
112 231 1
112 237 1
112 254 1
112 266 1
112 278 1
112 284 1
112 350 1
112 362 1
112 374 1
112 380 1
113 17 1
113 29 1
113 41 1
113 47 1
113 210 1
113 222 1
113 234 1
113 240 1
113 253 1
113 265 1
113 277 1
113 283 1
113 349 1
113 361 1
113 373 1
113 379 1
114 18 1
114 30 1
114 42 1
114 48 1
114 209 1
114 221 1
114 233 1
114 239 1
114 256 1
114 268 1
114 280 1
114 286 1
114 352 1
114 364 1
114 376 1
114 382 1
115 19 1
115 31 1
115 37 1
115 43 1
115 212 1
115 224 1
115 230 1
115 236 1
115 261 1
115 273 1
115 279 1
115 285 1
115 357 1
115 369 1
115 375 1
115 381 1
116 20 1
116 32 1
116 38 1
116 44 1
116 211 1
116 223 1
116 229 1
116 235 1
116 264 1
116 276 1
116 282 1
116 288 1
116 360 1
116 372 1
116 378 1
116 384 1
117 21 1
117 33 1
117 39 1
117 45 1
117 214 1
117 226 1
117 232 1
117 238 1
117 263 1
117 275 1
117 281 1
117 287 1
117 359 1
117 371 1
117 377 1
117 383 1
118 22 1
118 34 1
118 40 1
118 46 1
118 213 1
118 225 1
118 231 1
118 237 1
118 260 1
118 272 1
118 278 1
118 284 1
118 356 1
118 368 1
118 374 1
118 380 1
119 23 1
119 35 1
119 41 1
119 47 1
119 216 1
119 228 1
119 234 1
119 240 1
119 259 1
119 271 1
119 277 1
119 283 1
119 355 1
119 367 1
119 373 1
119 379 1
120 24 1
120 36 1
120 42 1
120 48 1
120 215 1
120 227 1
120 233 1
120 239 1
120 262 1
120 274 1
120 280 1
120 286 1
120 358 1
120 370 1
120 376 1
120 382 1
121 49 1
121 73 1
121 79 1
121 85 1
121 194 1
121 218 1
121 224 1
121 230 1
121 291 1
121 315 1
121 321 1
121 327 1
121 339 1
121 363 1
121 369 1
121 375 1
122 50 1
122 74 1
122 80 1
122 86 1
122 193 1
122 217 1
122 223 1
122 229 1
122 294 1
122 318 1
122 324 1
122 330 1
122 342 1
122 366 1
122 372 1
122 378 1
123 51 1
123 75 1
123 81 1
123 87 1
123 196 1
123 220 1
123 226 1
123 232 1
123 293 1
123 317 1
123 323 1
123 329 1
123 341 1
123 365 1
123 371 1
123 377 1
124 52 1
124 76 1
124 82 1
124 88 1
124 195 1
124 219 1
124 225 1
124 231 1
124 290 1
124 314 1
124 320 1
124 326 1
124 338 1
124 362 1
124 368 1
124 374 1
125 53 1
125 77 1
125 83 1
125 89 1
125 198 1
125 222 1
125 228 1
125 234 1
125 289 1
125 313 1
125 319 1
125 325 1
125 337 1
125 361 1
125 367 1
125 373 1
126 54 1
126 78 1
126 84 1
126 90 1
126 197 1
126 221 1
126 227 1
126 233 1
126 292 1
126 316 1
126 322 1
126 328 1
126 340 1
126 364 1
126 370 1
126 376 1
127 55 1
127 73 1
127 79 1
127 91 1
127 200 1
127 218 1
127 224 1
127 236 1
127 297 1
127 315 1
127 321 1
127 333 1
127 345 1
127 363 1
127 369 1
127 381 1
128 56 1
128 74 1
128 80 1
128 92 1
128 199 1
128 217 1
128 223 1
128 235 1
128 300 1
128 318 1
128 324 1
128 336 1
128 348 1
128 366 1
128 372 1
128 384 1
129 57 1
129 75 1
129 81 1
129 93 1
129 202 1
129 220 1
129 226 1
129 238 1
129 299 1
129 317 1
129 323 1
129 335 1
129 347 1
129 365 1
129 371 1
129 383 1
130 58 1
130 76 1
130 82 1
130 94 1
130 201 1
130 219 1
130 225 1
130 237 1
130 296 1
130 314 1
130 320 1
130 332 1
130 344 1
130 362 1
130 368 1
130 380 1
131 59 1
131 77 1
131 83 1
131 95 1
131 204 1
131 222 1
131 228 1
131 240 1
131 295 1
131 313 1
131 319 1
131 331 1
131 343 1
131 361 1
131 367 1
131 379 1
132 60 1
132 78 1
132 84 1
132 96 1
132 203 1
132 221 1
132 227 1
132 239 1
132 298 1
132 316 1
132 322 1
132 334 1
132 346 1
132 364 1
132 370 1
132 382 1
133 61 1
133 73 1
133 85 1
133 91 1
133 206 1
133 218 1
133 230 1
133 236 1
133 303 1
133 315 1
133 327 1
133 333 1
133 351 1
133 363 1
133 375 1
133 381 1
134 62 1
134 74 1
134 86 1
134 92 1
134 205 1
134 217 1
134 229 1
134 235 1
134 306 1
134 318 1
134 330 1
134 336 1
134 354 1
134 366 1
134 378 1
134 384 1
135 63 1
135 75 1
135 87 1
135 93 1
135 208 1
135 220 1
135 232 1
135 238 1
135 305 1
135 317 1
135 329 1
135 335 1
135 353 1
135 365 1
135 377 1
135 383 1
136 64 1
136 76 1
136 88 1
136 94 1
136 207 1
136 219 1
136 231 1
136 237 1
136 302 1
136 314 1
136 326 1
136 332 1
136 350 1
136 362 1
136 374 1
136 380 1
137 65 1
137 77 1
137 89 1
137 95 1
137 210 1
137 222 1
137 234 1
137 240 1
137 301 1
137 313 1
137 325 1
137 331 1
137 349 1
137 361 1
137 373 1
137 379 1
138 66 1
138 78 1
138 90 1
138 96 1
138 209 1
138 221 1
138 233 1
138 239 1
138 304 1
138 316 1
138 328 1
138 334 1
138 352 1
138 364 1
138 376 1
138 382 1
139 67 1
139 79 1
139 85 1
139 91 1
139 212 1
139 224 1
139 230 1
139 236 1
139 309 1
139 321 1
139 327 1
139 333 1
139 357 1
139 369 1
139 375 1
139 381 1
140 68 1
140 80 1
140 86 1
140 92 1
140 211 1
140 223 1
140 229 1
140 235 1
140 312 1
140 324 1
140 330 1
140 336 1
140 360 1
140 372 1
140 378 1
140 384 1
141 69 1
141 81 1
141 87 1
141 93 1
141 214 1
141 226 1
141 232 1
141 238 1
141 311 1
141 323 1
141 329 1
141 335 1
141 359 1
141 371 1
141 377 1
141 383 1
142 70 1
142 82 1
142 88 1
142 94 1
142 213 1
142 225 1
142 231 1
142 237 1
142 308 1
142 320 1
142 326 1
142 332 1
142 356 1
142 368 1
142 374 1
142 380 1
143 71 1
143 83 1
143 89 1
143 95 1
143 216 1
143 228 1
143 234 1
143 240 1
143 307 1
143 319 1
143 325 1
143 331 1
143 355 1
143 367 1
143 373 1
143 379 1
144 72 1
144 84 1
144 90 1
144 96 1
144 215 1
144 227 1
144 233 1
144 239 1
144 310 1
144 322 1
144 328 1
144 334 1
144 358 1
144 370 1
144 376 1
144 382 1
145 97 1
145 121 1
145 127 1
145 133 1
145 243 1
145 267 1
145 273 1
145 279 1
145 291 1
145 315 1
145 321 1
145 327 1
145 339 1
145 363 1
145 369 1
145 375 1
146 98 1
146 122 1
146 128 1
146 134 1
146 246 1
146 270 1
146 276 1
146 282 1
146 294 1
146 318 1
146 324 1
146 330 1
146 342 1
146 366 1
146 372 1
146 378 1
147 99 1
147 123 1
147 129 1
147 135 1
147 245 1
147 269 1
147 275 1
147 281 1
147 293 1
147 317 1
147 323 1
147 329 1
147 341 1
147 365 1
147 371 1
147 377 1
148 100 1
148 124 1
148 130 1
148 136 1
148 242 1
148 266 1
148 272 1
148 278 1
148 290 1
148 314 1
148 320 1
148 326 1
148 338 1
148 362 1
148 368 1
148 374 1
149 101 1
149 125 1
149 131 1
149 137 1
149 241 1
149 265 1
149 271 1
149 277 1
149 289 1
149 313 1
149 319 1
149 325 1
149 337 1
149 361 1
149 367 1
149 373 1
150 102 1
150 126 1
150 132 1
150 138 1
150 244 1
150 268 1
150 274 1
150 280 1
150 292 1
150 316 1
150 322 1
150 328 1
150 340 1
150 364 1
150 370 1
150 376 1
151 103 1
151 121 1
151 127 1
151 139 1
151 249 1
151 267 1
151 273 1
151 285 1
151 297 1
151 315 1
151 321 1
151 333 1
151 345 1
151 363 1
151 369 1
151 381 1
152 104 1
152 122 1
152 128 1
152 140 1
152 252 1
152 270 1
152 276 1
152 288 1
152 300 1
152 318 1
152 324 1
152 336 1
152 348 1
152 366 1
152 372 1
152 384 1
153 105 1
153 123 1
153 129 1
153 141 1
153 251 1
153 269 1
153 275 1
153 287 1
153 299 1
153 317 1
153 323 1
153 335 1
153 347 1
153 365 1
153 371 1
153 383 1
154 106 1
154 124 1
154 130 1
154 142 1
154 248 1
154 266 1
154 272 1
154 284 1
154 296 1
154 314 1
154 320 1
154 332 1
154 344 1
154 362 1
154 368 1
154 380 1
155 107 1
155 125 1
155 131 1
155 143 1
155 247 1
155 265 1
155 271 1
155 283 1
155 295 1
155 313 1
155 319 1
155 331 1
155 343 1
155 361 1
155 367 1
155 379 1
156 108 1
156 126 1
156 132 1
156 144 1
156 250 1
156 268 1
156 274 1
156 286 1
156 298 1
156 316 1
156 322 1
156 334 1
156 346 1
156 364 1
156 370 1
156 382 1
157 109 1
157 121 1
157 133 1
157 139 1
157 255 1
157 267 1
157 279 1
157 285 1
157 303 1
157 315 1
157 327 1
157 333 1
157 351 1
157 363 1
157 375 1
157 381 1
158 110 1
158 122 1
158 134 1
158 140 1
158 258 1
158 270 1
158 282 1
158 288 1
158 306 1
158 318 1
158 330 1
158 336 1
158 354 1
158 366 1
158 378 1
158 384 1
159 111 1
159 123 1
159 135 1
159 141 1
159 257 1
159 269 1
159 281 1
159 287 1
159 305 1
159 317 1
159 329 1
159 335 1
159 353 1
159 365 1
159 377 1
159 383 1
160 112 1
160 124 1
160 136 1
160 142 1
160 254 1
160 266 1
160 278 1
160 284 1
160 302 1
160 314 1
160 326 1
160 332 1
160 350 1
160 362 1
160 374 1
160 380 1
161 113 1
161 125 1
161 137 1
161 143 1
161 253 1
161 265 1
161 277 1
161 283 1
161 301 1
161 313 1
161 325 1
161 331 1
161 349 1
161 361 1
161 373 1
161 379 1
162 114 1
162 126 1
162 138 1
162 144 1
162 256 1
162 268 1
162 280 1
162 286 1
162 304 1
162 316 1
162 328 1
162 334 1
162 352 1
162 364 1
162 376 1
162 382 1
163 115 1
163 127 1
163 133 1
163 139 1
163 261 1
163 273 1
163 279 1
163 285 1
163 309 1
163 321 1
163 327 1
163 333 1
163 357 1
163 369 1
163 375 1
163 381 1
164 116 1
164 128 1
164 134 1
164 140 1
164 264 1
164 276 1
164 282 1
164 288 1
164 312 1
164 324 1
164 330 1
164 336 1
164 360 1
164 372 1
164 378 1
164 384 1
165 117 1
165 129 1
165 135 1
165 141 1
165 263 1
165 275 1
165 281 1
165 287 1
165 311 1
165 323 1
165 329 1
165 335 1
165 359 1
165 371 1
165 377 1
165 383 1
166 118 1
166 130 1
166 136 1
166 142 1
166 260 1
166 272 1
166 278 1
166 284 1
166 308 1
166 320 1
166 326 1
166 332 1
166 356 1
166 368 1
166 374 1
166 380 1
167 119 1
167 131 1
167 137 1
167 143 1
167 259 1
167 271 1
167 277 1
167 283 1
167 307 1
167 319 1
167 325 1
167 331 1
167 355 1
167 367 1
167 373 1
167 379 1
168 120 1
168 132 1
168 138 1
168 144 1
168 262 1
168 274 1
168 280 1
168 286 1
168 310 1
168 322 1
168 328 1
168 334 1
168 358 1
168 370 1
168 376 1
168 382 1
169 146 1
169 170 1
169 176 1
169 182 1
169 194 1
169 218 1
169 224 1
169 230 1
169 243 1
169 267 1
169 273 1
169 279 1
169 291 1
169 315 1
169 321 1
169 327 1
170 145 1
170 169 1
170 175 1
170 181 1
170 193 1
170 217 1
170 223 1
170 229 1
170 246 1
170 270 1
170 276 1
170 282 1
170 294 1
170 318 1
170 324 1
170 330 1
171 148 1
171 172 1
171 178 1
171 184 1
171 196 1
171 220 1
171 226 1
171 232 1
171 245 1
171 269 1
171 275 1
171 281 1
171 293 1
171 317 1
171 323 1
171 329 1
172 147 1
172 171 1
172 177 1
172 183 1
172 195 1
172 219 1
172 225 1
172 231 1
172 242 1
172 266 1
172 272 1
172 278 1
172 290 1
172 314 1
172 320 1
172 326 1
173 150 1
173 174 1
173 180 1
173 186 1
173 198 1
173 222 1
173 228 1
173 234 1
173 241 1
173 265 1
173 271 1
173 277 1
173 289 1
173 313 1
173 319 1
173 325 1
174 149 1
174 173 1
174 179 1
174 185 1
174 197 1
174 221 1
174 227 1
174 233 1
174 244 1
174 268 1
174 274 1
174 280 1
174 292 1
174 316 1
174 322 1
174 328 1
175 152 1
175 170 1
175 176 1
175 188 1
175 200 1
175 218 1
175 224 1
175 236 1
175 249 1
175 267 1
175 273 1
175 285 1
175 297 1
175 315 1
175 321 1
175 333 1
176 151 1
176 169 1
176 175 1
176 187 1
176 199 1
176 217 1
176 223 1
176 235 1
176 252 1
176 270 1
176 276 1
176 288 1
176 300 1
176 318 1
176 324 1
176 336 1
177 154 1
177 172 1
177 178 1
177 190 1
177 202 1
177 220 1
177 226 1
177 238 1
177 251 1
177 269 1
177 275 1
177 287 1
177 299 1
177 317 1
177 323 1
177 335 1
178 153 1
178 171 1
178 177 1
178 189 1
178 201 1
178 219 1
178 225 1
178 237 1
178 248 1
178 266 1
178 272 1
178 284 1
178 296 1
178 314 1
178 320 1
178 332 1
179 156 1
179 174 1
179 180 1
179 192 1
179 204 1
179 222 1
179 228 1
179 240 1
179 247 1
179 265 1
179 271 1
179 283 1
179 295 1
179 313 1
179 319 1
179 331 1
180 155 1
180 173 1
180 179 1
180 191 1
180 203 1
180 221 1
180 227 1
180 239 1
180 250 1
180 268 1
180 274 1
180 286 1
180 298 1
180 316 1
180 322 1
180 334 1
181 158 1
181 170 1
181 182 1
181 188 1
181 206 1
181 218 1
181 230 1
181 236 1
181 255 1
181 267 1
181 279 1
181 285 1
181 303 1
181 315 1
181 327 1
181 333 1
182 157 1
182 169 1
182 181 1
182 187 1
182 205 1
182 217 1
182 229 1
182 235 1
182 258 1
182 270 1
182 282 1
182 288 1
182 306 1
182 318 1
182 330 1
182 336 1
183 160 1
183 172 1
183 184 1
183 190 1
183 208 1
183 220 1
183 232 1
183 238 1
183 257 1
183 269 1
183 281 1
183 287 1
183 305 1
183 317 1
183 329 1
183 335 1
184 159 1
184 171 1
184 183 1
184 189 1
184 207 1
184 219 1
184 231 1
184 237 1
184 254 1
184 266 1
184 278 1
184 284 1
184 302 1
184 314 1
184 326 1
184 332 1
185 162 1
185 174 1
185 186 1
185 192 1
185 210 1
185 222 1
185 234 1
185 240 1
185 253 1
185 265 1
185 277 1
185 283 1
185 301 1
185 313 1
185 325 1
185 331 1
186 161 1
186 173 1
186 185 1
186 191 1
186 209 1
186 221 1
186 233 1
186 239 1
186 256 1
186 268 1
186 280 1
186 286 1
186 304 1
186 316 1
186 328 1
186 334 1
187 164 1
187 176 1
187 182 1
187 188 1
187 212 1
187 224 1
187 230 1
187 236 1
187 261 1
187 273 1
187 279 1
187 285 1
187 309 1
187 321 1
187 327 1
187 333 1
188 163 1
188 175 1
188 181 1
188 187 1
188 211 1
188 223 1
188 229 1
188 235 1
188 264 1
188 276 1
188 282 1
188 288 1
188 312 1
188 324 1
188 330 1
188 336 1
189 166 1
189 178 1
189 184 1
189 190 1
189 214 1
189 226 1
189 232 1
189 238 1
189 263 1
189 275 1
189 281 1
189 287 1
189 311 1
189 323 1
189 329 1
189 335 1
190 165 1
190 177 1
190 183 1
190 189 1
190 213 1
190 225 1
190 231 1
190 237 1
190 260 1
190 272 1
190 278 1
190 284 1
190 308 1
190 320 1
190 326 1
190 332 1
191 168 1
191 180 1
191 186 1
191 192 1
191 216 1
191 228 1
191 234 1
191 240 1
191 259 1
191 271 1
191 277 1
191 283 1
191 307 1
191 319 1
191 325 1
191 331 1
192 167 1
192 179 1
192 185 1
192 191 1
192 215 1
192 227 1
192 233 1
192 239 1
192 262 1
192 274 1
192 280 1
192 286 1
192 310 1
192 322 1
192 328 1
192 334 1
