%%MatrixMarket matrix coordinate integer general
256 512 4096
1 1 1
1 33 1
1 41 1
1 49 1
1 257 1
1 289 1
1 297 1
1 305 1
1 321 1
1 353 1
1 361 1
1 369 1
1 385 1
1 417 1
1 425 1
1 433 1
2 2 1
2 34 1
2 42 1
2 50 1
2 258 1
2 290 1
2 298 1
2 306 1
2 322 1
2 354 1
2 362 1
2 370 1
2 386 1
2 418 1
2 426 1
2 434 1
3 3 1
3 35 1
3 43 1
3 51 1
3 259 1
3 291 1
3 299 1
3 307 1
3 323 1
3 355 1
3 363 1
3 371 1
3 387 1
3 419 1
3 427 1
3 435 1
4 4 1
4 36 1
4 44 1
4 52 1
4 260 1
4 292 1
4 300 1
4 308 1
4 324 1
4 356 1
4 364 1
4 372 1
4 388 1
4 420 1
4 428 1
4 436 1
5 5 1
5 37 1
5 45 1
5 53 1
5 261 1
5 293 1
5 301 1
5 309 1
5 325 1
5 357 1
5 365 1
5 373 1
5 389 1
5 421 1
5 429 1
5 437 1
6 6 1
6 38 1
6 46 1
6 54 1
6 262 1
6 294 1
6 302 1
6 310 1
6 326 1
6 358 1
6 366 1
6 374 1
6 390 1
6 422 1
6 430 1
6 438 1
7 7 1
7 39 1
7 47 1
7 55 1
7 263 1
7 295 1
7 303 1
7 311 1
7 327 1
7 359 1
7 367 1
7 375 1
7 391 1
7 423 1
7 431 1
7 439 1
8 8 1
8 40 1
8 48 1
8 56 1
8 264 1
8 296 1
8 304 1
8 312 1
8 328 1
8 360 1
8 368 1
8 376 1
8 392 1
8 424 1
8 432 1
8 440 1
9 9 1
9 33 1
9 41 1
9 57 1
9 265 1
9 289 1
9 297 1
9 313 1
9 329 1
9 353 1
9 361 1
9 377 1
9 393 1
9 417 1
9 425 1
9 441 1
10 10 1
10 34 1
10 42 1
10 58 1
10 266 1
10 290 1
10 298 1
10 314 1
10 330 1
10 354 1
10 362 1
10 378 1
10 394 1
10 418 1
10 426 1
10 442 1
11 11 1
11 35 1
11 43 1
11 59 1
11 267 1
11 291 1
11 299 1
11 315 1
11 331 1
11 355 1
11 363 1
11 379 1
11 395 1
11 419 1
11 427 1
11 443 1
12 12 1
12 36 1
12 44 1
12 60 1
12 268 1
12 292 1
12 300 1
12 316 1
12 332 1
12 356 1
12 364 1
12 380 1
12 396 1
12 420 1
12 428 1
12 444 1
13 13 1
13 37 1
13 45 1
13 61 1
13 269 1
13 293 1
13 301 1
13 317 1
13 333 1
13 357 1
13 365 1
13 381 1
13 397 1
13 421 1
13 429 1
13 445 1
14 14 1
14 38 1
14 46 1
14 62 1
14 270 1
14 294 1
14 302 1
14 318 1
14 334 1
14 358 1
14 366 1
14 382 1
14 398 1
14 422 1
14 430 1
14 446 1
15 15 1
15 39 1
15 47 1
15 63 1
15 271 1
15 295 1
15 303 1
15 319 1
15 335 1
15 359 1
15 367 1
15 383 1
15 399 1
15 423 1
15 431 1
15 447 1
16 16 1
16 40 1
16 48 1
16 64 1
16 272 1
16 296 1
16 304 1
16 320 1
16 336 1
16 360 1
16 368 1
16 384 1
16 400 1
16 424 1
16 432 1
16 448 1
17 17 1
17 33 1
17 49 1
17 57 1
17 273 1
17 289 1
17 305 1
17 313 1
17 337 1
17 353 1
17 369 1
17 377 1
17 401 1
17 417 1
17 433 1
17 441 1
18 18 1
18 34 1
18 50 1
18 58 1
18 274 1
18 290 1
18 306 1
18 314 1
18 338 1
18 354 1
18 370 1
18 378 1
18 402 1
18 418 1
18 434 1
18 442 1
19 19 1
19 35 1
19 51 1
19 59 1
19 275 1
19 291 1
19 307 1
19 315 1
19 339 1
19 355 1
19 371 1
19 379 1
19 403 1
19 419 1
19 435 1
19 443 1
20 20 1
20 36 1
20 52 1
20 60 1
20 276 1
20 292 1
20 308 1
20 316 1
20 340 1
20 356 1
20 372 1
20 380 1
20 404 1
20 420 1
20 436 1
20 444 1
21 21 1
21 37 1
21 53 1
21 61 1
21 277 1
21 293 1
21 309 1
21 317 1
21 341 1
21 357 1
21 373 1
21 381 1
21 405 1
21 421 1
21 437 1
21 445 1
22 22 1
22 38 1
22 54 1
22 62 1
22 278 1
22 294 1
22 310 1
22 318 1
22 342 1
22 358 1
22 374 1
22 382 1
22 406 1
22 422 1
22 438 1
22 446 1
23 23 1
23 39 1
23 55 1
23 63 1
23 279 1
23 295 1
23 311 1
23 319 1
23 343 1
23 359 1
23 375 1
23 383 1
23 407 1
23 423 1
23 439 1
23 447 1
24 24 1
24 40 1
24 56 1
24 64 1
24 280 1
24 296 1
24 312 1
24 320 1
24 344 1
24 360 1
24 376 1
24 384 1
24 408 1
24 424 1
24 440 1
24 448 1
25 25 1
25 41 1
25 49 1
25 57 1
25 281 1
25 297 1
25 305 1
25 313 1
25 345 1
25 361 1
25 369 1
25 377 1
25 409 1
25 425 1
25 433 1
25 441 1
26 26 1
26 42 1
26 50 1
26 58 1
26 282 1
26 298 1
26 306 1
26 314 1
26 346 1
26 362 1
26 370 1
26 378 1
26 410 1
26 426 1
26 434 1
26 442 1
27 27 1
27 43 1
27 51 1
27 59 1
27 283 1
27 299 1
27 307 1
27 315 1
27 347 1
27 363 1
27 371 1
27 379 1
27 411 1
27 427 1
27 435 1
27 443 1
28 28 1
28 44 1
28 52 1
28 60 1
28 284 1
28 300 1
28 308 1
28 316 1
28 348 1
28 364 1
28 372 1
28 380 1
28 412 1
28 428 1
28 436 1
28 444 1
29 29 1
29 45 1
29 53 1
29 61 1
29 285 1
29 301 1
29 309 1
29 317 1
29 349 1
29 365 1
29 373 1
29 381 1
29 413 1
29 429 1
29 437 1
29 445 1
30 30 1
30 46 1
30 54 1
30 62 1
30 286 1
30 302 1
30 310 1
30 318 1
30 350 1
30 366 1
30 374 1
30 382 1
30 414 1
30 430 1
30 438 1
30 446 1
31 31 1
31 47 1
31 55 1
31 63 1
31 287 1
31 303 1
31 311 1
31 319 1
31 351 1
31 367 1
31 375 1
31 383 1
31 415 1
31 431 1
31 439 1
31 447 1
32 32 1
32 48 1
32 56 1
32 64 1
32 288 1
32 304 1
32 312 1
32 320 1
32 352 1
32 368 1
32 376 1
32 384 1
32 416 1
32 432 1
32 440 1
32 448 1
33 65 1
33 97 1
33 105 1
33 113 1
33 257 1
33 289 1
33 297 1
33 305 1
33 321 1
33 353 1
33 361 1
33 369 1
33 449 1
33 481 1
33 489 1
33 497 1
34 66 1
34 98 1
34 106 1
34 114 1
34 258 1
34 290 1
34 298 1
34 306 1
34 322 1
34 354 1
34 362 1
34 370 1
34 450 1
34 482 1
34 490 1
34 498 1
35 67 1
35 99 1
35 107 1
35 115 1
35 259 1
35 291 1
35 299 1
35 307 1
35 323 1
35 355 1
35 363 1
35 371 1
35 451 1
35 483 1
35 491 1
35 499 1
36 68 1
36 100 1
36 108 1
36 116 1
36 260 1
36 292 1
36 300 1
36 308 1
36 324 1
36 356 1
36 364 1
36 372 1
36 452 1
36 484 1
36 492 1
36 500 1
37 69 1
37 101 1
37 109 1
37 117 1
37 261 1
37 293 1
37 301 1
37 309 1
37 325 1
37 357 1
37 365 1
37 373 1
37 453 1
37 485 1
37 493 1
37 501 1
38 70 1
38 102 1
38 110 1
38 118 1
38 262 1
38 294 1
38 302 1
38 310 1
38 326 1
38 358 1
38 366 1
38 374 1
38 454 1
38 486 1
38 494 1
38 502 1
39 71 1
39 103 1
39 111 1
39 119 1
39 263 1
39 295 1
39 303 1
39 311 1
39 327 1
39 359 1
39 367 1
39 375 1
39 455 1
39 487 1
39 495 1
39 503 1
40 72 1
40 104 1
40 112 1
40 120 1
40 264 1
40 296 1
40 304 1
40 312 1
40 328 1
40 360 1
40 368 1
40 376 1
40 456 1
40 488 1
40 496 1
40 504 1
41 73 1
41 97 1
41 105 1
41 121 1
41 265 1
41 289 1
41 297 1
41 313 1
41 329 1
41 353 1
41 361 1
41 377 1
41 457 1
41 481 1
41 489 1
41 505 1
42 74 1
42 98 1
42 106 1
42 122 1
42 266 1
42 290 1
42 298 1
42 314 1
42 330 1
42 354 1
42 362 1
42 378 1
42 458 1
42 482 1
42 490 1
42 506 1
43 75 1
43 99 1
43 107 1
43 123 1
43 267 1
43 291 1
43 299 1
43 315 1
43 331 1
43 355 1
43 363 1
43 379 1
43 459 1
43 483 1
43 491 1
43 507 1
44 76 1
44 100 1
44 108 1
44 124 1
44 268 1
44 292 1
44 300 1
44 316 1
44 332 1
44 356 1
44 364 1
44 380 1
44 460 1
44 484 1
44 492 1
44 508 1
45 77 1
45 101 1
45 109 1
45 125 1
45 269 1
45 293 1
45 301 1
45 317 1
45 333 1
45 357 1
45 365 1
45 381 1
45 461 1
45 485 1
45 493 1
45 509 1
46 78 1
46 102 1
46 110 1
46 126 1
46 270 1
46 294 1
46 302 1
46 318 1
46 334 1
46 358 1
46 366 1
46 382 1
46 462 1
46 486 1
46 494 1
46 510 1
47 79 1
47 103 1
47 111 1
47 127 1
47 271 1
47 295 1
47 303 1
47 319 1
47 335 1
47 359 1
47 367 1
47 383 1
47 463 1
47 487 1
47 495 1
47 511 1
48 80 1
48 104 1
48 112 1
48 128 1
48 272 1
48 296 1
48 304 1
48 320 1
48 336 1
48 360 1
48 368 1
48 384 1
48 464 1
48 488 1
48 496 1
48 512 1
49 81 1
49 97 1
49 113 1
49 121 1
49 273 1
49 289 1
49 305 1
49 313 1
49 337 1
49 353 1
49 369 1
49 377 1
49 465 1
49 481 1
49 497 1
49 505 1
50 82 1
50 98 1
50 114 1
50 122 1
50 274 1
50 290 1
50 306 1
50 314 1
50 338 1
50 354 1
50 370 1
50 378 1
50 466 1
50 482 1
50 498 1
50 506 1
51 83 1
51 99 1
51 115 1
51 123 1
51 275 1
51 291 1
51 307 1
51 315 1
51 339 1
51 355 1
51 371 1
51 379 1
51 467 1
51 483 1
51 499 1
51 507 1
52 84 1
52 100 1
52 116 1
52 124 1
52 276 1
52 292 1
52 308 1
52 316 1
52 340 1
52 356 1
52 372 1
52 380 1
52 468 1
52 484 1
52 500 1
52 508 1
53 85 1
53 101 1
53 117 1
53 125 1
53 277 1
53 293 1
53 309 1
53 317 1
53 341 1
53 357 1
53 373 1
53 381 1
53 469 1
53 485 1
53 501 1
53 509 1
54 86 1
54 102 1
54 118 1
54 126 1
54 278 1
54 294 1
54 310 1
54 318 1
54 342 1
54 358 1
54 374 1
54 382 1
54 470 1
54 486 1
54 502 1
54 510 1
55 87 1
55 103 1
55 119 1
55 127 1
55 279 1
55 295 1
55 311 1
55 319 1
55 343 1
55 359 1
55 375 1
55 383 1
55 471 1
55 487 1
55 503 1
55 511 1
56 88 1
56 104 1
56 120 1
56 128 1
56 280 1
56 296 1
56 312 1
56 320 1
56 344 1
56 360 1
56 376 1
56 384 1
56 472 1
56 488 1
56 504 1
56 512 1
57 89 1
57 105 1
57 113 1
57 121 1
57 281 1
57 297 1
57 305 1
57 313 1
57 345 1
57 361 1
57 369 1
57 377 1
57 473 1
57 489 1
57 497 1
57 505 1
58 90 1
58 106 1
58 114 1
58 122 1
58 282 1
58 298 1
58 306 1
58 314 1
58 346 1
58 362 1
58 370 1
58 378 1
58 474 1
58 490 1
58 498 1
58 506 1
59 91 1
59 107 1
59 115 1
59 123 1
59 283 1
59 299 1
59 307 1
59 315 1
59 347 1
59 363 1
59 371 1
59 379 1
59 475 1
59 491 1
59 499 1
59 507 1
60 92 1
60 108 1
60 116 1
60 124 1
60 284 1
60 300 1
60 308 1
60 316 1
60 348 1
60 364 1
60 372 1
60 380 1
60 476 1
60 492 1
60 500 1
60 508 1
61 93 1
61 109 1
61 117 1
61 125 1
61 285 1
61 301 1
61 309 1
61 317 1
61 349 1
61 365 1
61 373 1
61 381 1
61 477 1
61 493 1
61 501 1
61 509 1
62 94 1
62 110 1
62 118 1
62 126 1
62 286 1
62 302 1
62 310 1
62 318 1
62 350 1
62 366 1
62 374 1
62 382 1
62 478 1
62 494 1
62 502 1
62 510 1
63 95 1
63 111 1
63 119 1
63 127 1
63 287 1
63 303 1
63 311 1
63 319 1
63 351 1
63 367 1
63 375 1
63 383 1
63 479 1
63 495 1
63 503 1
63 511 1
64 96 1
64 112 1
64 120 1
64 128 1
64 288 1
64 304 1
64 312 1
64 320 1
64 352 1
64 368 1
64 376 1
64 384 1
64 480 1
64 496 1
64 504 1
64 512 1
65 129 1
65 161 1
65 169 1
65 177 1
65 257 1
65 289 1
65 297 1
65 305 1
65 385 1
65 417 1
65 425 1
65 433 1
65 449 1
65 481 1
65 489 1
65 497 1
66 130 1
66 162 1
66 170 1
66 178 1
66 258 1
66 290 1
66 298 1
66 306 1
66 386 1
66 418 1
66 426 1
66 434 1
66 450 1
66 482 1
66 490 1
66 498 1
67 131 1
67 163 1
67 171 1
67 179 1
67 259 1
67 291 1
67 299 1
67 307 1
67 387 1
67 419 1
67 427 1
67 435 1
67 451 1
67 483 1
67 491 1
67 499 1
68 132 1
68 164 1
68 172 1
68 180 1
68 260 1
68 292 1
68 300 1
68 308 1
68 388 1
68 420 1
68 428 1
68 436 1
68 452 1
68 484 1
68 492 1
68 500 1
69 133 1
69 165 1
69 173 1
69 181 1
69 261 1
69 293 1
69 301 1
69 309 1
69 389 1
69 421 1
69 429 1
69 437 1
69 453 1
69 485 1
69 493 1
69 501 1
70 134 1
70 166 1
70 174 1
70 182 1
70 262 1
70 294 1
70 302 1
70 310 1
70 390 1
70 422 1
70 430 1
70 438 1
70 454 1
70 486 1
70 494 1
70 502 1
71 135 1
71 167 1
71 175 1
71 183 1
71 263 1
71 295 1
71 303 1
71 311 1
71 391 1
71 423 1
71 431 1
71 439 1
71 455 1
71 487 1
71 495 1
71 503 1
72 136 1
72 168 1
72 176 1
72 184 1
72 264 1
72 296 1
72 304 1
72 312 1
72 392 1
72 424 1
72 432 1
72 440 1
72 456 1
72 488 1
72 496 1
72 504 1
73 137 1
73 161 1
73 169 1
73 185 1
73 265 1
73 289 1
73 297 1
73 313 1
73 393 1
73 417 1
73 425 1
73 441 1
73 457 1
73 481 1
73 489 1
73 505 1
74 138 1
74 162 1
74 170 1
74 186 1
74 266 1
74 290 1
74 298 1
74 314 1
74 394 1
74 418 1
74 426 1
74 442 1
74 458 1
74 482 1
74 490 1
74 506 1
75 139 1
75 163 1
75 171 1
75 187 1
75 267 1
75 291 1
75 299 1
75 315 1
75 395 1
75 419 1
75 427 1
75 443 1
75 459 1
75 483 1
75 491 1
75 507 1
76 140 1
76 164 1
76 172 1
76 188 1
76 268 1
76 292 1
76 300 1
76 316 1
76 396 1
76 420 1
76 428 1
76 444 1
76 460 1
76 484 1
76 492 1
76 508 1
77 141 1
77 165 1
77 173 1
77 189 1
77 269 1
77 293 1
77 301 1
77 317 1
77 397 1
77 421 1
77 429 1
77 445 1
77 461 1
77 485 1
77 493 1
77 509 1
78 142 1
78 166 1
78 174 1
78 190 1
78 270 1
78 294 1
78 302 1
78 318 1
78 398 1
78 422 1
78 430 1
78 446 1
78 462 1
78 486 1
78 494 1
78 510 1
79 143 1
79 167 1
79 175 1
79 191 1
79 271 1
79 295 1
79 303 1
79 319 1
79 399 1
79 423 1
79 431 1
79 447 1
79 463 1
79 487 1
79 495 1
79 511 1
80 144 1
80 168 1
80 176 1
80 192 1
80 272 1
80 296 1
80 304 1
80 320 1
80 400 1
80 424 1
80 432 1
80 448 1
80 464 1
80 488 1
80 496 1
80 512 1
81 145 1
81 161 1
81 177 1
81 185 1
81 273 1
81 289 1
81 305 1
81 313 1
81 401 1
81 417 1
81 433 1
81 441 1
81 465 1
81 481 1
81 497 1
81 505 1
82 146 1
82 162 1
82 178 1
82 186 1
82 274 1
82 290 1
82 306 1
82 314 1
82 402 1
82 418 1
82 434 1
82 442 1
82 466 1
82 482 1
82 498 1
82 506 1
83 147 1
83 163 1
83 179 1
83 187 1
83 275 1
83 291 1
83 307 1
83 315 1
83 403 1
83 419 1
83 435 1
83 443 1
83 467 1
83 483 1
83 499 1
83 507 1
84 148 1
84 164 1
84 180 1
84 188 1
84 276 1
84 292 1
84 308 1
84 316 1
84 404 1
84 420 1
84 436 1
84 444 1
84 468 1
84 484 1
84 500 1
84 508 1
85 149 1
85 165 1
85 181 1
85 189 1
85 277 1
85 293 1
85 309 1
85 317 1
85 405 1
85 421 1
85 437 1
85 445 1
85 469 1
85 485 1
85 501 1
85 509 1
86 150 1
86 166 1
86 182 1
86 190 1
86 278 1
86 294 1
86 310 1
86 318 1
86 406 1
86 422 1
86 438 1
86 446 1
86 470 1
86 486 1
86 502 1
86 510 1
87 151 1
87 167 1
87 183 1
87 191 1
87 279 1
87 295 1
87 311 1
87 319 1
87 407 1
87 423 1
87 439 1
87 447 1
87 471 1
87 487 1
87 503 1
87 511 1
88 152 1
88 168 1
88 184 1
88 192 1
88 280 1
88 296 1
88 312 1
88 320 1
88 408 1
88 424 1
88 440 1
88 448 1
88 472 1
88 488 1
88 504 1
88 512 1
89 153 1
89 169 1
89 177 1
89 185 1
89 281 1
89 297 1
89 305 1
89 313 1
89 409 1
89 425 1
89 433 1
89 441 1
89 473 1
89 489 1
89 497 1
89 505 1
90 154 1
90 170 1
90 178 1
90 186 1
90 282 1
90 298 1
90 306 1
90 314 1
90 410 1
90 426 1
90 434 1
90 442 1
90 474 1
90 490 1
90 498 1
90 506 1
91 155 1
91 171 1
91 179 1
91 187 1
91 283 1
91 299 1
91 307 1
91 315 1
91 411 1
91 427 1
91 435 1
91 443 1
91 475 1
91 491 1
91 499 1
91 507 1
92 156 1
92 172 1
92 180 1
92 188 1
92 284 1
92 300 1
92 308 1
92 316 1
92 412 1
92 428 1
92 436 1
92 444 1
92 476 1
92 492 1
92 500 1
92 508 1
93 157 1
93 173 1
93 181 1
93 189 1
93 285 1
93 301 1
93 309 1
93 317 1
93 413 1
93 429 1
93 437 1
93 445 1
93 477 1
93 493 1
93 501 1
93 509 1
94 158 1
94 174 1
94 182 1
94 190 1
94 286 1
94 302 1
94 310 1
94 318 1
94 414 1
94 430 1
94 438 1
94 446 1
94 478 1
94 494 1
94 502 1
94 510 1
95 159 1
95 175 1
95 183 1
95 191 1
95 287 1
95 303 1
95 311 1
95 319 1
95 415 1
95 431 1
95 439 1
95 447 1
95 479 1
95 495 1
95 503 1
95 511 1
96 160 1
96 176 1
96 184 1
96 192 1
96 288 1
96 304 1
96 312 1
96 320 1
96 416 1
96 432 1
96 440 1
96 448 1
96 480 1
96 496 1
96 504 1
96 512 1
97 193 1
97 225 1
97 233 1
97 241 1
97 321 1
97 353 1
97 361 1
97 369 1
97 385 1
97 417 1
97 425 1
97 433 1
97 449 1
97 481 1
97 489 1
97 497 1
98 194 1
98 226 1
98 234 1
98 242 1
98 322 1
98 354 1
98 362 1
98 370 1
98 386 1
98 418 1
98 426 1
98 434 1
98 450 1
98 482 1
98 490 1
98 498 1
99 195 1
99 227 1
99 235 1
99 243 1
99 323 1
99 355 1
99 363 1
99 371 1
99 387 1
99 419 1
99 427 1
99 435 1
99 451 1
99 483 1
99 491 1
99 499 1
100 196 1
100 228 1
100 236 1
100 244 1
100 324 1
100 356 1
100 364 1
100 372 1
100 388 1
100 420 1
100 428 1
100 436 1
100 452 1
100 484 1
100 492 1
100 500 1
101 197 1
101 229 1
101 237 1
101 245 1
101 325 1
101 357 1
101 365 1
101 373 1
101 389 1
101 421 1
101 429 1
101 437 1
101 453 1
101 485 1
101 493 1
101 501 1
102 198 1
102 230 1
102 238 1
102 246 1
102 326 1
102 358 1
102 366 1
102 374 1
102 390 1
102 422 1
102 430 1
102 438 1
102 454 1
102 486 1
102 494 1
102 502 1
103 199 1
103 231 1
103 239 1
103 247 1
103 327 1
103 359 1
103 367 1
103 375 1
103 391 1
103 423 1
103 431 1
103 439 1
103 455 1
103 487 1
103 495 1
103 503 1
104 200 1
104 232 1
104 240 1
104 248 1
104 328 1
104 360 1
104 368 1
104 376 1
104 392 1
104 424 1
104 432 1
104 440 1
104 456 1
104 488 1
104 496 1
104 504 1
105 201 1
105 225 1
105 233 1
105 249 1
105 329 1
105 353 1
105 361 1
105 377 1
105 393 1
105 417 1
105 425 1
105 441 1
105 457 1
105 481 1
105 489 1
105 505 1
106 202 1
106 226 1
106 234 1
106 250 1
106 330 1
106 354 1
106 362 1
106 378 1
106 394 1
106 418 1
106 426 1
106 442 1
106 458 1
106 482 1
106 490 1
106 506 1
107 203 1
107 227 1
107 235 1
107 251 1
107 331 1
107 355 1
107 363 1
107 379 1
107 395 1
107 419 1
107 427 1
107 443 1
107 459 1
107 483 1
107 491 1
107 507 1
108 204 1
108 228 1
108 236 1
108 252 1
108 332 1
108 356 1
108 364 1
108 380 1
108 396 1
108 420 1
108 428 1
108 444 1
108 460 1
108 484 1
108 492 1
108 508 1
109 205 1
109 229 1
109 237 1
109 253 1
109 333 1
109 357 1
109 365 1
109 381 1
109 397 1
109 421 1
109 429 1
109 445 1
109 461 1
109 485 1
109 493 1
109 509 1
110 206 1
110 230 1
110 238 1
110 254 1
110 334 1
110 358 1
110 366 1
110 382 1
110 398 1
110 422 1
110 430 1
110 446 1
110 462 1
110 486 1
110 494 1
110 510 1
111 207 1
111 231 1
111 239 1
111 255 1
111 335 1
111 359 1
111 367 1
111 383 1
111 399 1
111 423 1
111 431 1
111 447 1
111 463 1
111 487 1
111 495 1
111 511 1
112 208 1
112 232 1
112 240 1
112 256 1
112 336 1
112 360 1
112 368 1
112 384 1
112 400 1
112 424 1
112 432 1
112 448 1
112 464 1
112 488 1
112 496 1
112 512 1
113 209 1
113 225 1
113 241 1
113 249 1
113 337 1
113 353 1
113 369 1
113 377 1
113 401 1
113 417 1
113 433 1
113 441 1
113 465 1
113 481 1
113 497 1
113 505 1
114 210 1
114 226 1
114 242 1
114 250 1
114 338 1
114 354 1
114 370 1
114 378 1
114 402 1
114 418 1
114 434 1
114 442 1
114 466 1
114 482 1
114 498 1
114 506 1
115 211 1
115 227 1
115 243 1
115 251 1
115 339 1
115 355 1
115 371 1
115 379 1
115 403 1
115 419 1
115 435 1
115 443 1
115 467 1
115 483 1
115 499 1
115 507 1
116 212 1
116 228 1
116 244 1
116 252 1
116 340 1
116 356 1
116 372 1
116 380 1
116 404 1
116 420 1
116 436 1
116 444 1
116 468 1
116 484 1
116 500 1
116 508 1
117 213 1
117 229 1
117 245 1
117 253 1
117 341 1
117 357 1
117 373 1
117 381 1
117 405 1
117 421 1
117 437 1
117 445 1
117 469 1
117 485 1
117 501 1
117 509 1
118 214 1
118 230 1
118 246 1
118 254 1
118 342 1
118 358 1
118 374 1
118 382 1
118 406 1
118 422 1
118 438 1
118 446 1
118 470 1
118 486 1
118 502 1
118 510 1
119 215 1
119 231 1
119 247 1
119 255 1
119 343 1
119 359 1
119 375 1
119 383 1
119 407 1
119 423 1
119 439 1
119 447 1
119 471 1
119 487 1
119 503 1
119 511 1
120 216 1
120 232 1
120 248 1
120 256 1
120 344 1
120 360 1
120 376 1
120 384 1
120 408 1
120 424 1
120 440 1
120 448 1
120 472 1
120 488 1
120 504 1
120 512 1
121 217 1
121 233 1
121 241 1
121 249 1
121 345 1
121 361 1
121 369 1
121 377 1
121 409 1
121 425 1
121 433 1
121 441 1
121 473 1
121 489 1
121 497 1
121 505 1
122 218 1
122 234 1
122 242 1
122 250 1
122 346 1
122 362 1
122 370 1
122 378 1
122 410 1
122 426 1
122 434 1
122 442 1
122 474 1
122 490 1
122 498 1
122 506 1
123 219 1
123 235 1
123 243 1
123 251 1
123 347 1
123 363 1
123 371 1
123 379 1
123 411 1
123 427 1
123 435 1
123 443 1
123 475 1
123 491 1
123 499 1
123 507 1
124 220 1
124 236 1
124 244 1
124 252 1
124 348 1
124 364 1
124 372 1
124 380 1
124 412 1
124 428 1
124 436 1
124 444 1
124 476 1
124 492 1
124 500 1
124 508 1
125 221 1
125 237 1
125 245 1
125 253 1
125 349 1
125 365 1
125 373 1
125 381 1
125 413 1
125 429 1
125 437 1
125 445 1
125 477 1
125 493 1
125 501 1
125 509 1
126 222 1
126 238 1
126 246 1
126 254 1
126 350 1
126 366 1
126 374 1
126 382 1
126 414 1
126 430 1
126 438 1
126 446 1
126 478 1
126 494 1
126 502 1
126 510 1
127 223 1
127 239 1
127 247 1
127 255 1
127 351 1
127 367 1
127 375 1
127 383 1
127 415 1
127 431 1
127 439 1
127 447 1
127 479 1
127 495 1
127 503 1
127 511 1
128 224 1
128 240 1
128 248 1
128 256 1
128 352 1
128 368 1
128 376 1
128 384 1
128 416 1
128 432 1
128 440 1
128 448 1
128 480 1
128 496 1
128 504 1
128 512 1
129 1 1
129 37 1
129 46 1
129 55 1
129 262 1
129 295 1
129 297 1
129 309 1
129 391 1
129 422 1
129 429 1
129 433 1
129 456 1
129 484 1
129 491 1
129 498 1
130 2 1
130 35 1
130 44 1
130 56 1
130 260 1
130 296 1
130 298 1
130 307 1
130 392 1
130 420 1
130 427 1
130 434 1
130 455 1
130 486 1
130 493 1
130 497 1
131 3 1
131 34 1
131 48 1
131 52 1
131 264 1
131 292 1
131 299 1
131 306 1
131 388 1
131 424 1
131 426 1
131 435 1
131 454 1
131 487 1
131 489 1
131 501 1
132 4 1
132 40 1
132 42 1
132 51 1
132 258 1
132 291 1
132 300 1
132 312 1
132 387 1
132 418 1
132 432 1
132 436 1
132 453 1
132 481 1
132 495 1
132 502 1
133 5 1
133 33 1
133 47 1
133 54 1
133 263 1
133 294 1
133 301 1
133 305 1
133 390 1
133 423 1
133 425 1
133 437 1
133 452 1
133 488 1
133 490 1
133 499 1
134 6 1
134 39 1
134 41 1
134 53 1
134 257 1
134 293 1
134 302 1
134 311 1
134 389 1
134 417 1
134 431 1
134 438 1
134 451 1
134 482 1
134 496 1
134 500 1
135 7 1
135 38 1
135 45 1
135 49 1
135 261 1
135 289 1
135 303 1
135 310 1
135 385 1
135 421 1
135 430 1
135 439 1
135 450 1
135 483 1
135 492 1
135 504 1
136 8 1
136 36 1
136 43 1
136 50 1
136 259 1
136 290 1
136 304 1
136 308 1
136 386 1
136 419 1
136 428 1
136 440 1
136 449 1
136 485 1
136 494 1
136 503 1
137 10 1
137 37 1
137 46 1
137 64 1
137 268 1
137 295 1
137 297 1
137 315 1
137 400 1
137 422 1
137 429 1
137 442 1
137 463 1
137 484 1
137 491 1
137 505 1
138 9 1
138 35 1
138 44 1
138 63 1
138 270 1
138 296 1
138 298 1
138 317 1
138 399 1
138 420 1
138 427 1
138 441 1
138 464 1
138 486 1
138 493 1
138 506 1
139 13 1
139 34 1
139 48 1
139 62 1
139 271 1
139 292 1
139 299 1
139 313 1
139 398 1
139 424 1
139 426 1
139 445 1
139 460 1
139 487 1
139 489 1
139 507 1
140 14 1
140 40 1
140 42 1
140 61 1
140 265 1
140 291 1
140 300 1
140 319 1
140 397 1
140 418 1
140 432 1
140 446 1
140 459 1
140 481 1
140 495 1
140 508 1
141 11 1
141 33 1
141 47 1
141 60 1
141 272 1
141 294 1
141 301 1
141 314 1
141 396 1
141 423 1
141 425 1
141 443 1
141 462 1
141 488 1
141 490 1
141 509 1
142 12 1
142 39 1
142 41 1
142 59 1
142 266 1
142 293 1
142 302 1
142 320 1
142 395 1
142 417 1
142 431 1
142 444 1
142 461 1
142 482 1
142 496 1
142 510 1
143 16 1
143 38 1
143 45 1
143 58 1
143 267 1
143 289 1
143 303 1
143 316 1
143 394 1
143 421 1
143 430 1
143 448 1
143 457 1
143 483 1
143 492 1
143 511 1
144 15 1
144 36 1
144 43 1
144 57 1
144 269 1
144 290 1
144 304 1
144 318 1
144 393 1
144 419 1
144 428 1
144 447 1
144 458 1
144 485 1
144 494 1
144 512 1
145 19 1
145 46 1
145 55 1
145 64 1
145 280 1
145 297 1
145 309 1
145 315 1
145 404 1
145 429 1
145 433 1
145 442 1
145 470 1
145 491 1
145 498 1
145 505 1
146 21 1
146 44 1
146 56 1
146 63 1
146 279 1
146 298 1
146 307 1
146 317 1
146 406 1
146 427 1
146 434 1
146 441 1
146 468 1
146 493 1
146 497 1
146 506 1
147 17 1
147 48 1
147 52 1
147 62 1
147 278 1
147 299 1
147 306 1
147 313 1
147 407 1
147 426 1
147 435 1
147 445 1
147 472 1
147 489 1
147 501 1
147 507 1
148 23 1
148 42 1
148 51 1
148 61 1
148 277 1
148 300 1
148 312 1
148 319 1
148 401 1
148 432 1
148 436 1
148 446 1
148 466 1
148 495 1
148 502 1
148 508 1
149 18 1
149 47 1
149 54 1
149 60 1
149 276 1
149 301 1
149 305 1
149 314 1
149 408 1
149 425 1
149 437 1
149 443 1
149 471 1
149 490 1
149 499 1
149 509 1
150 24 1
150 41 1
150 53 1
150 59 1
150 275 1
150 302 1
150 311 1
150 320 1
150 402 1
150 431 1
150 438 1
150 444 1
150 465 1
150 496 1
150 500 1
150 510 1
151 20 1
151 45 1
151 49 1
151 58 1
151 274 1
151 303 1
151 310 1
151 316 1
151 403 1
151 430 1
151 439 1
151 448 1
151 469 1
151 492 1
151 504 1
151 511 1
152 22 1
152 43 1
152 50 1
152 57 1
152 273 1
152 304 1
152 308 1
152 318 1
152 405 1
152 428 1
152 440 1
152 447 1
152 467 1
152 494 1
152 503 1
152 512 1
153 28 1
153 37 1
153 55 1
153 64 1
153 282 1
153 295 1
153 309 1
153 315 1
153 411 1
153 422 1
153 433 1
153 442 1
153 477 1
153 484 1
153 498 1
153 505 1
154 30 1
154 35 1
154 56 1
154 63 1
154 281 1
154 296 1
154 307 1
154 317 1
154 413 1
154 420 1
154 434 1
154 441 1
154 475 1
154 486 1
154 497 1
154 506 1
155 31 1
155 34 1
155 52 1
155 62 1
155 285 1
155 292 1
155 306 1
155 313 1
155 409 1
155 424 1
155 435 1
155 445 1
155 474 1
155 487 1
155 501 1
155 507 1
156 25 1
156 40 1
156 51 1
156 61 1
156 286 1
156 291 1
156 312 1
156 319 1
156 415 1
156 418 1
156 436 1
156 446 1
156 480 1
156 481 1
156 502 1
156 508 1
157 32 1
157 33 1
157 54 1
157 60 1
157 283 1
157 294 1
157 305 1
157 314 1
157 410 1
157 423 1
157 437 1
157 443 1
157 473 1
157 488 1
157 499 1
157 509 1
158 26 1
158 39 1
158 53 1
158 59 1
158 284 1
158 293 1
158 311 1
158 320 1
158 416 1
158 417 1
158 438 1
158 444 1
158 479 1
158 482 1
158 500 1
158 510 1
159 27 1
159 38 1
159 49 1
159 58 1
159 288 1
159 289 1
159 310 1
159 316 1
159 412 1
159 421 1
159 439 1
159 448 1
159 478 1
159 483 1
159 504 1
159 511 1
160 29 1
160 36 1
160 50 1
160 57 1
160 287 1
160 290 1
160 308 1
160 318 1
160 414 1
160 419 1
160 440 1
160 447 1
160 476 1
160 485 1
160 503 1
160 512 1
161 66 1
161 99 1
161 108 1
161 120 1
161 262 1
161 295 1
161 297 1
161 309 1
161 326 1
161 359 1
161 361 1
161 373 1
161 391 1
161 422 1
161 429 1
161 433 1
162 65 1
162 101 1
162 110 1
162 119 1
162 260 1
162 296 1
162 298 1
162 307 1
162 324 1
162 360 1
162 362 1
162 371 1
162 392 1
162 420 1
162 427 1
162 434 1
163 69 1
163 97 1
163 111 1
163 118 1
163 264 1
163 292 1
163 299 1
163 306 1
163 328 1
163 356 1
163 363 1
163 370 1
163 388 1
163 424 1
163 426 1
163 435 1
164 70 1
164 103 1
164 105 1
164 117 1
164 258 1
164 291 1
164 300 1
164 312 1
164 322 1
164 355 1
164 364 1
164 376 1
164 387 1
164 418 1
164 432 1
164 436 1
165 67 1
165 98 1
165 112 1
165 116 1
165 263 1
165 294 1
165 301 1
165 305 1
165 327 1
165 358 1
165 365 1
165 369 1
165 390 1
165 423 1
165 425 1
165 437 1
166 68 1
166 104 1
166 106 1
166 115 1
166 257 1
166 293 1
166 302 1
166 311 1
166 321 1
166 357 1
166 366 1
166 375 1
166 389 1
166 417 1
166 431 1
166 438 1
167 72 1
167 100 1
167 107 1
167 114 1
167 261 1
167 289 1
167 303 1
167 310 1
167 325 1
167 353 1
167 367 1
167 374 1
167 385 1
167 421 1
167 430 1
167 439 1
168 71 1
168 102 1
168 109 1
168 113 1
168 259 1
168 290 1
168 304 1
168 308 1
168 323 1
168 354 1
168 368 1
168 372 1
168 386 1
168 419 1
168 428 1
168 440 1
169 73 1
169 99 1
169 108 1
169 127 1
169 268 1
169 295 1
169 297 1
169 315 1
169 332 1
169 359 1
169 361 1
169 379 1
169 400 1
169 422 1
169 429 1
169 442 1
170 74 1
170 101 1
170 110 1
170 128 1
170 270 1
170 296 1
170 298 1
170 317 1
170 334 1
170 360 1
170 362 1
170 381 1
170 399 1
170 420 1
170 427 1
170 441 1
171 75 1
171 97 1
171 111 1
171 124 1
171 271 1
171 292 1
171 299 1
171 313 1
171 335 1
171 356 1
171 363 1
171 377 1
171 398 1
171 424 1
171 426 1
171 445 1
172 76 1
172 103 1
172 105 1
172 123 1
172 265 1
172 291 1
172 300 1
172 319 1
172 329 1
172 355 1
172 364 1
172 383 1
172 397 1
172 418 1
172 432 1
172 446 1
173 77 1
173 98 1
173 112 1
173 126 1
173 272 1
173 294 1
173 301 1
173 314 1
173 336 1
173 358 1
173 365 1
173 378 1
173 396 1
173 423 1
173 425 1
173 443 1
174 78 1
174 104 1
174 106 1
174 125 1
174 266 1
174 293 1
174 302 1
174 320 1
174 330 1
174 357 1
174 366 1
174 384 1
174 395 1
174 417 1
174 431 1
174 444 1
175 79 1
175 100 1
175 107 1
175 121 1
175 267 1
175 289 1
175 303 1
175 316 1
175 331 1
175 353 1
175 367 1
175 380 1
175 394 1
175 421 1
175 430 1
175 448 1
176 80 1
176 102 1
176 109 1
176 122 1
176 269 1
176 290 1
176 304 1
176 318 1
176 333 1
176 354 1
176 368 1
176 382 1
176 393 1
176 419 1
176 428 1
176 447 1
177 85 1
177 108 1
177 120 1
177 127 1
177 280 1
177 297 1
177 309 1
177 315 1
177 344 1
177 361 1
177 373 1
177 379 1
177 404 1
177 429 1
177 433 1
177 442 1
178 83 1
178 110 1
178 119 1
178 128 1
178 279 1
178 298 1
178 307 1
178 317 1
178 343 1
178 362 1
178 371 1
178 381 1
178 406 1
178 427 1
178 434 1
178 441 1
179 82 1
179 111 1
179 118 1
179 124 1
179 278 1
179 299 1
179 306 1
179 313 1
179 342 1
179 363 1
179 370 1
179 377 1
179 407 1
179 426 1
179 435 1
179 445 1
180 88 1
180 105 1
180 117 1
180 123 1
180 277 1
180 300 1
180 312 1
180 319 1
180 341 1
180 364 1
180 376 1
180 383 1
180 401 1
180 432 1
180 436 1
180 446 1
181 81 1
181 112 1
181 116 1
181 126 1
181 276 1
181 301 1
181 305 1
181 314 1
181 340 1
181 365 1
181 369 1
181 378 1
181 408 1
181 425 1
181 437 1
181 443 1
182 87 1
182 106 1
182 115 1
182 125 1
182 275 1
182 302 1
182 311 1
182 320 1
182 339 1
182 366 1
182 375 1
182 384 1
182 402 1
182 431 1
182 438 1
182 444 1
183 86 1
183 107 1
183 114 1
183 121 1
183 274 1
183 303 1
183 310 1
183 316 1
183 338 1
183 367 1
183 374 1
183 380 1
183 403 1
183 430 1
183 439 1
183 448 1
184 84 1
184 109 1
184 113 1
184 122 1
184 273 1
184 304 1
184 308 1
184 318 1
184 337 1
184 368 1
184 372 1
184 382 1
184 405 1
184 428 1
184 440 1
184 447 1
185 94 1
185 99 1
185 120 1
185 127 1
185 282 1
185 295 1
185 309 1
185 315 1
185 346 1
185 359 1
185 373 1
185 379 1
185 411 1
185 422 1
185 433 1
185 442 1
186 92 1
186 101 1
186 119 1
186 128 1
186 281 1
186 296 1
186 307 1
186 317 1
186 345 1
186 360 1
186 371 1
186 381 1
186 413 1
186 420 1
186 434 1
186 441 1
187 96 1
187 97 1
187 118 1
187 124 1
187 285 1
187 292 1
187 306 1
187 313 1
187 349 1
187 356 1
187 370 1
187 377 1
187 409 1
187 424 1
187 435 1
187 445 1
188 90 1
188 103 1
188 117 1
188 123 1
188 286 1
188 291 1
188 312 1
188 319 1
188 350 1
188 355 1
188 376 1
188 383 1
188 415 1
188 418 1
188 436 1
188 446 1
189 95 1
189 98 1
189 116 1
189 126 1
189 283 1
189 294 1
189 305 1
189 314 1
189 347 1
189 358 1
189 369 1
189 378 1
189 410 1
189 423 1
189 437 1
189 443 1
190 89 1
190 104 1
190 115 1
190 125 1
190 284 1
190 293 1
190 311 1
190 320 1
190 348 1
190 357 1
190 375 1
190 384 1
190 416 1
190 417 1
190 438 1
190 444 1
191 93 1
191 100 1
191 114 1
191 121 1
191 288 1
191 289 1
191 310 1
191 316 1
191 352 1
191 353 1
191 374 1
191 380 1
191 412 1
191 421 1
191 439 1
191 448 1
192 91 1
192 102 1
192 113 1
192 122 1
192 287 1
192 290 1
192 308 1
192 318 1
192 351 1
192 354 1
192 372 1
192 382 1
192 414 1
192 419 1
192 440 1
192 447 1
193 131 1
193 162 1
193 176 1
193 180 1
193 262 1
193 295 1
193 297 1
193 309 1
193 326 1
193 359 1
193 361 1
193 373 1
193 456 1
193 484 1
193 491 1
193 498 1
194 133 1
194 161 1
194 175 1
194 182 1
194 260 1
194 296 1
194 298 1
194 307 1
194 324 1
194 360 1
194 362 1
194 371 1
194 455 1
194 486 1
194 493 1
194 497 1
195 129 1
195 165 1
195 174 1
195 183 1
195 264 1
195 292 1
195 299 1
195 306 1
195 328 1
195 356 1
195 363 1
195 370 1
195 454 1
195 487 1
195 489 1
195 501 1
196 135 1
196 166 1
196 173 1
196 177 1
196 258 1
196 291 1
196 300 1
196 312 1
196 322 1
196 355 1
196 364 1
196 376 1
196 453 1
196 481 1
196 495 1
196 502 1
197 130 1
197 163 1
197 172 1
197 184 1
197 263 1
197 294 1
197 301 1
197 305 1
197 327 1
197 358 1
197 365 1
197 369 1
197 452 1
197 488 1
197 490 1
197 499 1
198 136 1
198 164 1
198 171 1
198 178 1
198 257 1
198 293 1
198 302 1
198 311 1
198 321 1
198 357 1
198 366 1
198 375 1
198 451 1
198 482 1
198 496 1
198 500 1
199 132 1
199 168 1
199 170 1
199 179 1
199 261 1
199 289 1
199 303 1
199 310 1
199 325 1
199 353 1
199 367 1
199 374 1
199 450 1
199 483 1
199 492 1
199 504 1
200 134 1
200 167 1
200 169 1
200 181 1
200 259 1
200 290 1
200 304 1
200 308 1
200 323 1
200 354 1
200 368 1
200 372 1
200 449 1
200 485 1
200 494 1
200 503 1
201 141 1
201 162 1
201 176 1
201 190 1
201 268 1
201 295 1
201 297 1
201 315 1
201 332 1
201 359 1
201 361 1
201 379 1
201 463 1
201 484 1
201 491 1
201 505 1
202 139 1
202 161 1
202 175 1
202 188 1
202 270 1
202 296 1
202 298 1
202 317 1
202 334 1
202 360 1
202 362 1
202 381 1
202 464 1
202 486 1
202 493 1
202 506 1
203 138 1
203 165 1
203 174 1
203 192 1
203 271 1
203 292 1
203 299 1
203 313 1
203 335 1
203 356 1
203 363 1
203 377 1
203 460 1
203 487 1
203 489 1
203 507 1
204 144 1
204 166 1
204 173 1
204 186 1
204 265 1
204 291 1
204 300 1
204 319 1
204 329 1
204 355 1
204 364 1
204 383 1
204 459 1
204 481 1
204 495 1
204 508 1
205 137 1
205 163 1
205 172 1
205 191 1
205 272 1
205 294 1
205 301 1
205 314 1
205 336 1
205 358 1
205 365 1
205 378 1
205 462 1
205 488 1
205 490 1
205 509 1
206 143 1
206 164 1
206 171 1
206 185 1
206 266 1
206 293 1
206 302 1
206 320 1
206 330 1
206 357 1
206 366 1
206 384 1
206 461 1
206 482 1
206 496 1
206 510 1
207 142 1
207 168 1
207 170 1
207 189 1
207 267 1
207 289 1
207 303 1
207 316 1
207 331 1
207 353 1
207 367 1
207 380 1
207 457 1
207 483 1
207 492 1
207 511 1
208 140 1
208 167 1
208 169 1
208 187 1
208 269 1
208 290 1
208 304 1
208 318 1
208 333 1
208 354 1
208 368 1
208 382 1
208 458 1
208 485 1
208 494 1
208 512 1
209 145 1
209 176 1
209 180 1
209 190 1
209 280 1
209 297 1
209 309 1
209 315 1
209 344 1
209 361 1
209 373 1
209 379 1
209 470 1
209 491 1
209 498 1
209 505 1
210 146 1
210 175 1
210 182 1
210 188 1
210 279 1
210 298 1
210 307 1
210 317 1
210 343 1
210 362 1
210 371 1
210 381 1
210 468 1
210 493 1
210 497 1
210 506 1
211 147 1
211 174 1
211 183 1
211 192 1
211 278 1
211 299 1
211 306 1
211 313 1
211 342 1
211 363 1
211 370 1
211 377 1
211 472 1
211 489 1
211 501 1
211 507 1
212 148 1
212 173 1
212 177 1
212 186 1
212 277 1
212 300 1
212 312 1
212 319 1
212 341 1
212 364 1
212 376 1
212 383 1
212 466 1
212 495 1
212 502 1
212 508 1
213 149 1
213 172 1
213 184 1
213 191 1
213 276 1
213 301 1
213 305 1
213 314 1
213 340 1
213 365 1
213 369 1
213 378 1
213 471 1
213 490 1
213 499 1
213 509 1
214 150 1
214 171 1
214 178 1
214 185 1
214 275 1
214 302 1
214 311 1
214 320 1
214 339 1
214 366 1
214 375 1
214 384 1
214 465 1
214 496 1
214 500 1
214 510 1
215 151 1
215 170 1
215 179 1
215 189 1
215 274 1
215 303 1
215 310 1
215 316 1
215 338 1
215 367 1
215 374 1
215 380 1
215 469 1
215 492 1
215 504 1
215 511 1
216 152 1
216 169 1
216 181 1
216 187 1
216 273 1
216 304 1
216 308 1
216 318 1
216 337 1
216 368 1
216 372 1
216 382 1
216 467 1
216 494 1
216 503 1
216 512 1
217 159 1
217 162 1
217 180 1
217 190 1
217 282 1
217 295 1
217 309 1
217 315 1
217 346 1
217 359 1
217 373 1
217 379 1
217 477 1
217 484 1
217 498 1
217 505 1
218 160 1
218 161 1
218 182 1
218 188 1
218 281 1
218 296 1
218 307 1
218 317 1
218 345 1
218 360 1
218 371 1
218 381 1
218 475 1
218 486 1
218 497 1
218 506 1
219 156 1
219 165 1
219 183 1
219 192 1
219 285 1
219 292 1
219 306 1
219 313 1
219 349 1
219 356 1
219 370 1
219 377 1
219 474 1
219 487 1
219 501 1
219 507 1
220 155 1
220 166 1
220 177 1
220 186 1
220 286 1
220 291 1
220 312 1
220 319 1
220 350 1
220 355 1
220 376 1
220 383 1
220 480 1
220 481 1
220 502 1
220 508 1
221 158 1
221 163 1
221 184 1
221 191 1
221 283 1
221 294 1
221 305 1
221 314 1
221 347 1
221 358 1
221 369 1
221 378 1
221 473 1
221 488 1
221 499 1
221 509 1
222 157 1
222 164 1
222 178 1
222 185 1
222 284 1
222 293 1
222 311 1
222 320 1
222 348 1
222 357 1
222 375 1
222 384 1
222 479 1
222 482 1
222 500 1
222 510 1
223 153 1
223 168 1
223 179 1
223 189 1
223 288 1
223 289 1
223 310 1
223 316 1
223 352 1
223 353 1
223 374 1
223 380 1
223 478 1
223 483 1
223 504 1
223 511 1
224 154 1
224 167 1
224 181 1
224 187 1
224 287 1
224 290 1
224 308 1
224 318 1
224 351 1
224 354 1
224 372 1
224 382 1
224 476 1
224 485 1
224 503 1
224 512 1
225 195 1
225 226 1
225 240 1
225 244 1
225 326 1
225 359 1
225 361 1
225 373 1
225 391 1
225 422 1
225 429 1
225 433 1
225 456 1
225 484 1
225 491 1
225 498 1
226 197 1
226 225 1
226 239 1
226 246 1
226 324 1
226 360 1
226 362 1
226 371 1
226 392 1
226 420 1
226 427 1
226 434 1
226 455 1
226 486 1
226 493 1
226 497 1
227 193 1
227 229 1
227 238 1
227 247 1
227 328 1
227 356 1
227 363 1
227 370 1
227 388 1
227 424 1
227 426 1
227 435 1
227 454 1
227 487 1
227 489 1
227 501 1
228 199 1
228 230 1
228 237 1
228 241 1
228 322 1
228 355 1
228 364 1
228 376 1
228 387 1
228 418 1
228 432 1
228 436 1
228 453 1
228 481 1
228 495 1
228 502 1
229 194 1
229 227 1
229 236 1
229 248 1
229 327 1
229 358 1
229 365 1
229 369 1
229 390 1
229 423 1
229 425 1
229 437 1
229 452 1
229 488 1
229 490 1
229 499 1
230 200 1
230 228 1
230 235 1
230 242 1
230 321 1
230 357 1
230 366 1
230 375 1
230 389 1
230 417 1
230 431 1
230 438 1
230 451 1
230 482 1
230 496 1
230 500 1
231 196 1
231 232 1
231 234 1
231 243 1
231 325 1
231 353 1
231 367 1
231 374 1
231 385 1
231 421 1
231 430 1
231 439 1
231 450 1
231 483 1
231 492 1
231 504 1
232 198 1
232 231 1
232 233 1
232 245 1
232 323 1
232 354 1
232 368 1
232 372 1
232 386 1
232 419 1
232 428 1
232 440 1
232 449 1
232 485 1
232 494 1
232 503 1
233 205 1
233 226 1
233 240 1
233 254 1
233 332 1
233 359 1
233 361 1
233 379 1
233 400 1
233 422 1
233 429 1
233 442 1
233 463 1
233 484 1
233 491 1
233 505 1
234 203 1
234 225 1
234 239 1
234 252 1
234 334 1
234 360 1
234 362 1
234 381 1
234 399 1
234 420 1
234 427 1
234 441 1
234 464 1
234 486 1
234 493 1
234 506 1
235 202 1
235 229 1
235 238 1
235 256 1
235 335 1
235 356 1
235 363 1
235 377 1
235 398 1
235 424 1
235 426 1
235 445 1
235 460 1
235 487 1
235 489 1
235 507 1
236 208 1
236 230 1
236 237 1
236 250 1
236 329 1
236 355 1
236 364 1
236 383 1
236 397 1
236 418 1
236 432 1
236 446 1
236 459 1
236 481 1
236 495 1
236 508 1
237 201 1
237 227 1
237 236 1
237 255 1
237 336 1
237 358 1
237 365 1
237 378 1
237 396 1
237 423 1
237 425 1
237 443 1
237 462 1
237 488 1
237 490 1
237 509 1
238 207 1
238 228 1
238 235 1
238 249 1
238 330 1
238 357 1
238 366 1
238 384 1
238 395 1
238 417 1
238 431 1
238 444 1
238 461 1
238 482 1
238 496 1
238 510 1
239 206 1
239 232 1
239 234 1
239 253 1
239 331 1
239 353 1
239 367 1
239 380 1
239 394 1
239 421 1
239 430 1
239 448 1
239 457 1
239 483 1
239 492 1
239 511 1
240 204 1
240 231 1
240 233 1
240 251 1
240 333 1
240 354 1
240 368 1
240 382 1
240 393 1
240 419 1
240 428 1
240 447 1
240 458 1
240 485 1
240 494 1
240 512 1
241 209 1
241 240 1
241 244 1
241 254 1
241 344 1
241 361 1
241 373 1
241 379 1
241 404 1
241 429 1
241 433 1
241 442 1
241 470 1
241 491 1
241 498 1
241 505 1
242 210 1
242 239 1
242 246 1
242 252 1
242 343 1
242 362 1
242 371 1
242 381 1
242 406 1
242 427 1
242 434 1
242 441 1
242 468 1
242 493 1
242 497 1
242 506 1
243 211 1
243 238 1
243 247 1
243 256 1
243 342 1
243 363 1
243 370 1
243 377 1
243 407 1
243 426 1
243 435 1
243 445 1
243 472 1
243 489 1
243 501 1
243 507 1
244 212 1
244 237 1
244 241 1
244 250 1
244 341 1
244 364 1
244 376 1
244 383 1
244 401 1
244 432 1
244 436 1
244 446 1
244 466 1
244 495 1
244 502 1
244 508 1
245 213 1
245 236 1
245 248 1
245 255 1
245 340 1
245 365 1
245 369 1
245 378 1
245 408 1
245 425 1
245 437 1
245 443 1
245 471 1
245 490 1
245 499 1
245 509 1
246 214 1
246 235 1
246 242 1
246 249 1
246 339 1
246 366 1
246 375 1
246 384 1
246 402 1
246 431 1
246 438 1
246 444 1
246 465 1
246 496 1
246 500 1
246 510 1
247 215 1
247 234 1
247 243 1
247 253 1
247 338 1
247 367 1
247 374 1
247 380 1
247 403 1
247 430 1
247 439 1
247 448 1
247 469 1
247 492 1
247 504 1
247 511 1
248 216 1
248 233 1
248 245 1
248 251 1
248 337 1
248 368 1
248 372 1
248 382 1
248 405 1
248 428 1
248 440 1
248 447 1
248 467 1
248 494 1
248 503 1
248 512 1
249 223 1
249 226 1
249 244 1
249 254 1
249 346 1
249 359 1
249 373 1
249 379 1
249 411 1
249 422 1
249 433 1
249 442 1
249 477 1
249 484 1
249 498 1
249 505 1
250 224 1
250 225 1
250 246 1
250 252 1
250 345 1
250 360 1
250 371 1
250 381 1
250 413 1
250 420 1
250 434 1
250 441 1
250 475 1
250 486 1
250 497 1
250 506 1
251 220 1
251 229 1
251 247 1
251 256 1
251 349 1
251 356 1
251 370 1
251 377 1
251 409 1
251 424 1
251 435 1
251 445 1
251 474 1
251 487 1
251 501 1
251 507 1
252 219 1
252 230 1
252 241 1
252 250 1
252 350 1
252 355 1
252 376 1
252 383 1
252 415 1
252 418 1
252 436 1
252 446 1
252 480 1
252 481 1
252 502 1
252 508 1
253 222 1
253 227 1
253 248 1
253 255 1
253 347 1
253 358 1
253 369 1
253 378 1
253 410 1
253 423 1
253 437 1
253 443 1
253 473 1
253 488 1
253 499 1
253 509 1
254 221 1
254 228 1
254 242 1
254 249 1
254 348 1
254 357 1
254 375 1
254 384 1
254 416 1
254 417 1
254 438 1
254 444 1
254 479 1
254 482 1
254 500 1
254 510 1
255 217 1
255 232 1
255 243 1
255 253 1
255 352 1
255 353 1
255 374 1
255 380 1
255 412 1
255 421 1
255 439 1
255 448 1
255 478 1
255 483 1
255 504 1
255 511 1
256 218 1
256 231 1
256 245 1
256 251 1
256 351 1
256 354 1
256 372 1
256 382 1
256 414 1
256 419 1
256 440 1
256 447 1
256 476 1
256 485 1
256 503 1
256 512 1
