%%MatrixMarket matrix coordinate integer general
192 384 3072
1 1 1
1 27 1
1 40 1
1 46 1
1 193 1
1 219 1
1 232 1
1 238 1
1 241 1
1 267 1
1 280 1
1 286 1
1 289 1
1 315 1
1 328 1
1 334 1
2 2 1
2 28 1
2 39 1
2 45 1
2 194 1
2 220 1
2 231 1
2 237 1
2 242 1
2 268 1
2 279 1
2 285 1
2 290 1
2 316 1
2 327 1
2 333 1
3 3 1
3 29 1
3 42 1
3 48 1
3 195 1
3 221 1
3 234 1
3 240 1
3 243 1
3 269 1
3 282 1
3 288 1
3 291 1
3 317 1
3 330 1
3 336 1
4 4 1
4 30 1
4 41 1
4 47 1
4 196 1
4 222 1
4 233 1
4 239 1
4 244 1
4 270 1
4 281 1
4 287 1
4 292 1
4 318 1
4 329 1
4 335 1
5 5 1
5 25 1
5 38 1
5 44 1
5 197 1
5 217 1
5 230 1
5 236 1
5 245 1
5 265 1
5 278 1
5 284 1
5 293 1
5 313 1
5 326 1
5 332 1
6 6 1
6 26 1
6 37 1
6 43 1
6 198 1
6 218 1
6 229 1
6 235 1
6 246 1
6 266 1
6 277 1
6 283 1
6 294 1
6 314 1
6 325 1
6 331 1
7 8 1
7 27 1
7 33 1
7 46 1
7 200 1
7 219 1
7 225 1
7 238 1
7 248 1
7 267 1
7 273 1
7 286 1
7 296 1
7 315 1
7 321 1
7 334 1
8 7 1
8 28 1
8 34 1
8 45 1
8 199 1
8 220 1
8 226 1
8 237 1
8 247 1
8 268 1
8 274 1
8 285 1
8 295 1
8 316 1
8 322 1
8 333 1
9 10 1
9 29 1
9 35 1
9 48 1
9 202 1
9 221 1
9 227 1
9 240 1
9 250 1
9 269 1
9 275 1
9 288 1
9 298 1
9 317 1
9 323 1
9 336 1
10 9 1
10 30 1
10 36 1
10 47 1
10 201 1
10 222 1
10 228 1
10 239 1
10 249 1
10 270 1
10 276 1
10 287 1
10 297 1
10 318 1
10 324 1
10 335 1
11 12 1
11 25 1
11 31 1
11 44 1
11 204 1
11 217 1
11 223 1
11 236 1
11 252 1
11 265 1
11 271 1
11 284 1
11 300 1
11 313 1
11 319 1
11 332 1
12 11 1
12 26 1
12 32 1
12 43 1
12 203 1
12 218 1
12 224 1
12 235 1
12 251 1
12 266 1
12 272 1
12 283 1
12 299 1
12 314 1
12 320 1
12 331 1
13 17 1
13 27 1
13 33 1
13 40 1
13 209 1
13 219 1
13 225 1
13 232 1
13 257 1
13 267 1
13 273 1
13 280 1
13 305 1
13 315 1
13 321 1
13 328 1
14 18 1
14 28 1
14 34 1
14 39 1
14 210 1
14 220 1
14 226 1
14 231 1
14 258 1
14 268 1
14 274 1
14 279 1
14 306 1
14 316 1
14 322 1
14 327 1
15 13 1
15 29 1
15 35 1
15 42 1
15 205 1
15 221 1
15 227 1
15 234 1
15 253 1
15 269 1
15 275 1
15 282 1
15 301 1
15 317 1
15 323 1
15 330 1
16 14 1
16 30 1
16 36 1
16 41 1
16 206 1
16 222 1
16 228 1
16 233 1
16 254 1
16 270 1
16 276 1
16 281 1
16 302 1
16 318 1
16 324 1
16 329 1
17 15 1
17 25 1
17 31 1
17 38 1
17 207 1
17 217 1
17 223 1
17 230 1
17 255 1
17 265 1
17 271 1
17 278 1
17 303 1
17 313 1
17 319 1
17 326 1
18 16 1
18 26 1
18 32 1
18 37 1
18 208 1
18 218 1
18 224 1
18 229 1
18 256 1
18 266 1
18 272 1
18 277 1
18 304 1
18 314 1
18 320 1
18 325 1
19 24 1
19 33 1
19 40 1
19 46 1
19 216 1
19 225 1
19 232 1
19 238 1
19 264 1
19 273 1
19 280 1
19 286 1
19 312 1
19 321 1
19 328 1
19 334 1
20 23 1
20 34 1
20 39 1
20 45 1
20 215 1
20 226 1
20 231 1
20 237 1
20 263 1
20 274 1
20 279 1
20 285 1
20 311 1
20 322 1
20 327 1
20 333 1
21 20 1
21 35 1
21 42 1
21 48 1
21 212 1
21 227 1
21 234 1
21 240 1
21 260 1
21 275 1
21 282 1
21 288 1
21 308 1
21 323 1
21 330 1
21 336 1
22 19 1
22 36 1
22 41 1
22 47 1
22 211 1
22 228 1
22 233 1
22 239 1
22 259 1
22 276 1
22 281 1
22 287 1
22 307 1
22 324 1
22 329 1
22 335 1
23 22 1
23 31 1
23 38 1
23 44 1
23 214 1
23 223 1
23 230 1
23 236 1
23 262 1
23 271 1
23 278 1
23 284 1
23 310 1
23 319 1
23 326 1
23 332 1
24 21 1
24 32 1
24 37 1
24 43 1
24 213 1
24 224 1
24 229 1
24 235 1
24 261 1
24 272 1
24 277 1
24 283 1
24 309 1
24 320 1
24 325 1
24 331 1
25 49 1
25 75 1
25 88 1
25 94 1
25 193 1
25 219 1
25 232 1
25 238 1
25 241 1
25 267 1
25 280 1
25 286 1
25 337 1
25 363 1
25 376 1
25 382 1
26 50 1
26 76 1
26 87 1
26 93 1
26 194 1
26 220 1
26 231 1
26 237 1
26 242 1
26 268 1
26 279 1
26 285 1
26 338 1
26 364 1
26 375 1
26 381 1
27 51 1
27 77 1
27 90 1
27 96 1
27 195 1
27 221 1
27 234 1
27 240 1
27 243 1
27 269 1
27 282 1
27 288 1
27 339 1
27 365 1
27 378 1
27 384 1
28 52 1
28 78 1
28 89 1
28 95 1
28 196 1
28 222 1
28 233 1
28 239 1
28 244 1
28 270 1
28 281 1
28 287 1
28 340 1
28 366 1
28 377 1
28 383 1
29 53 1
29 73 1
29 86 1
29 92 1
29 197 1
29 217 1
29 230 1
29 236 1
29 245 1
29 265 1
29 278 1
29 284 1
29 341 1
29 361 1
29 374 1
29 380 1
30 54 1
30 74 1
30 85 1
30 91 1
30 198 1
30 218 1
30 229 1
30 235 1
30 246 1
30 266 1
30 277 1
30 283 1
30 342 1
30 362 1
30 373 1
30 379 1
31 56 1
31 75 1
31 81 1
31 94 1
31 200 1
31 219 1
31 225 1
31 238 1
31 248 1
31 267 1
31 273 1
31 286 1
31 344 1
31 363 1
31 369 1
31 382 1
32 55 1
32 76 1
32 82 1
32 93 1
32 199 1
32 220 1
32 226 1
32 237 1
32 247 1
32 268 1
32 274 1
32 285 1
32 343 1
32 364 1
32 370 1
32 381 1
33 58 1
33 77 1
33 83 1
33 96 1
33 202 1
33 221 1
33 227 1
33 240 1
33 250 1
33 269 1
33 275 1
33 288 1
33 346 1
33 365 1
33 371 1
33 384 1
34 57 1
34 78 1
34 84 1
34 95 1
34 201 1
34 222 1
34 228 1
34 239 1
34 249 1
34 270 1
34 276 1
34 287 1
34 345 1
34 366 1
34 372 1
34 383 1
35 60 1
35 73 1
35 79 1
35 92 1
35 204 1
35 217 1
35 223 1
35 236 1
35 252 1
35 265 1
35 271 1
35 284 1
35 348 1
35 361 1
35 367 1
35 380 1
36 59 1
36 74 1
36 80 1
36 91 1
36 203 1
36 218 1
36 224 1
36 235 1
36 251 1
36 266 1
36 272 1
36 283 1
36 347 1
36 362 1
36 368 1
36 379 1
37 65 1
37 75 1
37 81 1
37 88 1
37 209 1
37 219 1
37 225 1
37 232 1
37 257 1
37 267 1
37 273 1
37 280 1
37 353 1
37 363 1
37 369 1
37 376 1
38 66 1
38 76 1
38 82 1
38 87 1
38 210 1
38 220 1
38 226 1
38 231 1
38 258 1
38 268 1
38 274 1
38 279 1
38 354 1
38 364 1
38 370 1
38 375 1
39 61 1
39 77 1
39 83 1
39 90 1
39 205 1
39 221 1
39 227 1
39 234 1
39 253 1
39 269 1
39 275 1
39 282 1
39 349 1
39 365 1
39 371 1
39 378 1
40 62 1
40 78 1
40 84 1
40 89 1
40 206 1
40 222 1
40 228 1
40 233 1
40 254 1
40 270 1
40 276 1
40 281 1
40 350 1
40 366 1
40 372 1
40 377 1
41 63 1
41 73 1
41 79 1
41 86 1
41 207 1
41 217 1
41 223 1
41 230 1
41 255 1
41 265 1
41 271 1
41 278 1
41 351 1
41 361 1
41 367 1
41 374 1
42 64 1
42 74 1
42 80 1
42 85 1
42 208 1
42 218 1
42 224 1
42 229 1
42 256 1
42 266 1
42 272 1
42 277 1
42 352 1
42 362 1
42 368 1
42 373 1
43 72 1
43 81 1
43 88 1
43 94 1
43 216 1
43 225 1
43 232 1
43 238 1
43 264 1
43 273 1
43 280 1
43 286 1
43 360 1
43 369 1
43 376 1
43 382 1
44 71 1
44 82 1
44 87 1
44 93 1
44 215 1
44 226 1
44 231 1
44 237 1
44 263 1
44 274 1
44 279 1
44 285 1
44 359 1
44 370 1
44 375 1
44 381 1
45 68 1
45 83 1
45 90 1
45 96 1
45 212 1
45 227 1
45 234 1
45 240 1
45 260 1
45 275 1
45 282 1
45 288 1
45 356 1
45 371 1
45 378 1
45 384 1
46 67 1
46 84 1
46 89 1
46 95 1
46 211 1
46 228 1
46 233 1
46 239 1
46 259 1
46 276 1
46 281 1
46 287 1
46 355 1
46 372 1
46 377 1
46 383 1
47 70 1
47 79 1
47 86 1
47 92 1
47 214 1
47 223 1
47 230 1
47 236 1
47 262 1
47 271 1
47 278 1
47 284 1
47 358 1
47 367 1
47 374 1
47 380 1
48 69 1
48 80 1
48 85 1
48 91 1
48 213 1
48 224 1
48 229 1
48 235 1
48 261 1
48 272 1
48 277 1
48 283 1
48 357 1
48 368 1
48 373 1
48 379 1
49 97 1
49 123 1
49 136 1
49 142 1
49 193 1
49 219 1
49 232 1
49 238 1
49 289 1
49 315 1
49 328 1
49 334 1
49 337 1
49 363 1
49 376 1
49 382 1
50 98 1
50 124 1
50 135 1
50 141 1
50 194 1
50 220 1
50 231 1
50 237 1
50 290 1
50 316 1
50 327 1
50 333 1
50 338 1
50 364 1
50 375 1
50 381 1
51 99 1
51 125 1
51 138 1
51 144 1
51 195 1
51 221 1
51 234 1
51 240 1
51 291 1
51 317 1
51 330 1
51 336 1
51 339 1
51 365 1
51 378 1
51 384 1
52 100 1
52 126 1
52 137 1
52 143 1
52 196 1
52 222 1
52 233 1
52 239 1
52 292 1
52 318 1
52 329 1
52 335 1
52 340 1
52 366 1
52 377 1
52 383 1
53 101 1
53 121 1
53 134 1
53 140 1
53 197 1
53 217 1
53 230 1
53 236 1
53 293 1
53 313 1
53 326 1
53 332 1
53 341 1
53 361 1
53 374 1
53 380 1
54 102 1
54 122 1
54 133 1
54 139 1
54 198 1
54 218 1
54 229 1
54 235 1
54 294 1
54 314 1
54 325 1
54 331 1
54 342 1
54 362 1
54 373 1
54 379 1
55 104 1
55 123 1
55 129 1
55 142 1
55 200 1
55 219 1
55 225 1
55 238 1
55 296 1
55 315 1
55 321 1
55 334 1
55 344 1
55 363 1
55 369 1
55 382 1
56 103 1
56 124 1
56 130 1
56 141 1
56 199 1
56 220 1
56 226 1
56 237 1
56 295 1
56 316 1
56 322 1
56 333 1
56 343 1
56 364 1
56 370 1
56 381 1
57 106 1
57 125 1
57 131 1
57 144 1
57 202 1
57 221 1
57 227 1
57 240 1
57 298 1
57 317 1
57 323 1
57 336 1
57 346 1
57 365 1
57 371 1
57 384 1
58 105 1
58 126 1
58 132 1
58 143 1
58 201 1
58 222 1
58 228 1
58 239 1
58 297 1
58 318 1
58 324 1
58 335 1
58 345 1
58 366 1
58 372 1
58 383 1
59 108 1
59 121 1
59 127 1
59 140 1
59 204 1
59 217 1
59 223 1
59 236 1
59 300 1
59 313 1
59 319 1
59 332 1
59 348 1
59 361 1
59 367 1
59 380 1
60 107 1
60 122 1
60 128 1
60 139 1
60 203 1
60 218 1
60 224 1
60 235 1
60 299 1
60 314 1
60 320 1
60 331 1
60 347 1
60 362 1
60 368 1
60 379 1
61 113 1
61 123 1
61 129 1
61 136 1
61 209 1
61 219 1
61 225 1
61 232 1
61 305 1
61 315 1
61 321 1
61 328 1
61 353 1
61 363 1
61 369 1
61 376 1
62 114 1
62 124 1
62 130 1
62 135 1
62 210 1
62 220 1
62 226 1
62 231 1
62 306 1
62 316 1
62 322 1
62 327 1
62 354 1
62 364 1
62 370 1
62 375 1
63 109 1
63 125 1
63 131 1
63 138 1
63 205 1
63 221 1
63 227 1
63 234 1
63 301 1
63 317 1
63 323 1
63 330 1
63 349 1
63 365 1
63 371 1
63 378 1
64 110 1
64 126 1
64 132 1
64 137 1
64 206 1
64 222 1
64 228 1
64 233 1
64 302 1
64 318 1
64 324 1
64 329 1
64 350 1
64 366 1
64 372 1
64 377 1
65 111 1
65 121 1
65 127 1
65 134 1
65 207 1
65 217 1
65 223 1
65 230 1
65 303 1
65 313 1
65 319 1
65 326 1
65 351 1
65 361 1
65 367 1
65 374 1
66 112 1
66 122 1
66 128 1
66 133 1
66 208 1
66 218 1
66 224 1
66 229 1
66 304 1
66 314 1
66 320 1
66 325 1
66 352 1
66 362 1
66 368 1
66 373 1
67 120 1
67 129 1
67 136 1
67 142 1
67 216 1
67 225 1
67 232 1
67 238 1
67 312 1
67 321 1
67 328 1
67 334 1
67 360 1
67 369 1
67 376 1
67 382 1
68 119 1
68 130 1
68 135 1
68 141 1
68 215 1
68 226 1
68 231 1
68 237 1
68 311 1
68 322 1
68 327 1
68 333 1
68 359 1
68 370 1
68 375 1
68 381 1
69 116 1
69 131 1
69 138 1
69 144 1
69 212 1
69 227 1
69 234 1
69 240 1
69 308 1
69 323 1
69 330 1
69 336 1
69 356 1
69 371 1
69 378 1
69 384 1
70 115 1
70 132 1
70 137 1
70 143 1
70 211 1
70 228 1
70 233 1
70 239 1
70 307 1
70 324 1
70 329 1
70 335 1
70 355 1
70 372 1
70 377 1
70 383 1
71 118 1
71 127 1
71 134 1
71 140 1
71 214 1
71 223 1
71 230 1
71 236 1
71 310 1
71 319 1
71 326 1
71 332 1
71 358 1
71 367 1
71 374 1
71 380 1
72 117 1
72 128 1
72 133 1
72 139 1
72 213 1
72 224 1
72 229 1
72 235 1
72 309 1
72 320 1
72 325 1
72 331 1
72 357 1
72 368 1
72 373 1
72 379 1
73 145 1
73 171 1
73 184 1
73 190 1
73 241 1
73 267 1
73 280 1
73 286 1
73 289 1
73 315 1
73 328 1
73 334 1
73 337 1
73 363 1
73 376 1
73 382 1
74 146 1
74 172 1
74 183 1
74 189 1
74 242 1
74 268 1
74 279 1
74 285 1
74 290 1
74 316 1
74 327 1
74 333 1
74 338 1
74 364 1
74 375 1
74 381 1
75 147 1
75 173 1
75 186 1
75 192 1
75 243 1
75 269 1
75 282 1
75 288 1
75 291 1
75 317 1
75 330 1
75 336 1
75 339 1
75 365 1
75 378 1
75 384 1
76 148 1
76 174 1
76 185 1
76 191 1
76 244 1
76 270 1
76 281 1
76 287 1
76 292 1
76 318 1
76 329 1
76 335 1
76 340 1
76 366 1
76 377 1
76 383 1
77 149 1
77 169 1
77 182 1
77 188 1
77 245 1
77 265 1
77 278 1
77 284 1
77 293 1
77 313 1
77 326 1
77 332 1
77 341 1
77 361 1
77 374 1
77 380 1
78 150 1
78 170 1
78 181 1
78 187 1
78 246 1
78 266 1
78 277 1
78 283 1
78 294 1
78 314 1
78 325 1
78 331 1
78 342 1
78 362 1
78 373 1
78 379 1
79 152 1
79 171 1
79 177 1
79 190 1
79 248 1
79 267 1
79 273 1
79 286 1
79 296 1
79 315 1
79 321 1
79 334 1
79 344 1
79 363 1
79 369 1
79 382 1
80 151 1
80 172 1
80 178 1
80 189 1
80 247 1
80 268 1
80 274 1
80 285 1
80 295 1
80 316 1
80 322 1
80 333 1
80 343 1
80 364 1
80 370 1
80 381 1
81 154 1
81 173 1
81 179 1
81 192 1
81 250 1
81 269 1
81 275 1
81 288 1
81 298 1
81 317 1
81 323 1
81 336 1
81 346 1
81 365 1
81 371 1
81 384 1
82 153 1
82 174 1
82 180 1
82 191 1
82 249 1
82 270 1
82 276 1
82 287 1
82 297 1
82 318 1
82 324 1
82 335 1
82 345 1
82 366 1
82 372 1
82 383 1
83 156 1
83 169 1
83 175 1
83 188 1
83 252 1
83 265 1
83 271 1
83 284 1
83 300 1
83 313 1
83 319 1
83 332 1
83 348 1
83 361 1
83 367 1
83 380 1
84 155 1
84 170 1
84 176 1
84 187 1
84 251 1
84 266 1
84 272 1
84 283 1
84 299 1
84 314 1
84 320 1
84 331 1
84 347 1
84 362 1
84 368 1
84 379 1
85 161 1
85 171 1
85 177 1
85 184 1
85 257 1
85 267 1
85 273 1
85 280 1
85 305 1
85 315 1
85 321 1
85 328 1
85 353 1
85 363 1
85 369 1
85 376 1
86 162 1
86 172 1
86 178 1
86 183 1
86 258 1
86 268 1
86 274 1
86 279 1
86 306 1
86 316 1
86 322 1
86 327 1
86 354 1
86 364 1
86 370 1
86 375 1
87 157 1
87 173 1
87 179 1
87 186 1
87 253 1
87 269 1
87 275 1
87 282 1
87 301 1
87 317 1
87 323 1
87 330 1
87 349 1
87 365 1
87 371 1
87 378 1
88 158 1
88 174 1
88 180 1
88 185 1
88 254 1
88 270 1
88 276 1
88 281 1
88 302 1
88 318 1
88 324 1
88 329 1
88 350 1
88 366 1
88 372 1
88 377 1
89 159 1
89 169 1
89 175 1
89 182 1
89 255 1
89 265 1
89 271 1
89 278 1
89 303 1
89 313 1
89 319 1
89 326 1
89 351 1
89 361 1
89 367 1
89 374 1
90 160 1
90 170 1
90 176 1
90 181 1
90 256 1
90 266 1
90 272 1
90 277 1
90 304 1
90 314 1
90 320 1
90 325 1
90 352 1
90 362 1
90 368 1
90 373 1
91 168 1
91 177 1
91 184 1
91 190 1
91 264 1
91 273 1
91 280 1
91 286 1
91 312 1
91 321 1
91 328 1
91 334 1
91 360 1
91 369 1
91 376 1
91 382 1
92 167 1
92 178 1
92 183 1
92 189 1
92 263 1
92 274 1
92 279 1
92 285 1
92 311 1
92 322 1
92 327 1
92 333 1
92 359 1
92 370 1
92 375 1
92 381 1
93 164 1
93 179 1
93 186 1
93 192 1
93 260 1
93 275 1
93 282 1
93 288 1
93 308 1
93 323 1
93 330 1
93 336 1
93 356 1
93 371 1
93 378 1
93 384 1
94 163 1
94 180 1
94 185 1
94 191 1
94 259 1
94 276 1
94 281 1
94 287 1
94 307 1
94 324 1
94 329 1
94 335 1
94 355 1
94 372 1
94 377 1
94 383 1
95 166 1
95 175 1
95 182 1
95 188 1
95 262 1
95 271 1
95 278 1
95 284 1
95 310 1
95 319 1
95 326 1
95 332 1
95 358 1
95 367 1
95 374 1
95 380 1
96 165 1
96 176 1
96 181 1
96 187 1
96 261 1
96 272 1
96 277 1
96 283 1
96 309 1
96 320 1
96 325 1
96 331 1
96 357 1
96 368 1
96 373 1
96 379 1
97 1 1
97 25 1
97 31 1
97 37 1
97 146 1
97 170 1
97 176 1
97 182 1
97 244 1
97 268 1
97 274 1
97 280 1
97 293 1
97 317 1
97 323 1
97 329 1
98 2 1
98 26 1
98 32 1
98 38 1
98 145 1
98 169 1
98 175 1
98 181 1
98 243 1
98 267 1
98 273 1
98 279 1
98 294 1
98 318 1
98 324 1
98 330 1
99 3 1
99 27 1
99 33 1
99 39 1
99 148 1
99 172 1
99 178 1
99 184 1
99 246 1
99 270 1
99 276 1
99 282 1
99 289 1
99 313 1
99 319 1
99 325 1
100 4 1
100 28 1
100 34 1
100 40 1
100 147 1
100 171 1
100 177 1
100 183 1
100 245 1
100 269 1
100 275 1
100 281 1
100 290 1
100 314 1
100 320 1
100 326 1
101 5 1
101 29 1
101 35 1
101 41 1
101 150 1
101 174 1
101 180 1
101 186 1
101 242 1
101 266 1
101 272 1
101 278 1
101 291 1
101 315 1
101 321 1
101 327 1
102 6 1
102 30 1
102 36 1
102 42 1
102 149 1
102 173 1
102 179 1
102 185 1
102 241 1
102 265 1
102 271 1
102 277 1
102 292 1
102 316 1
102 322 1
102 328 1
103 7 1
103 25 1
103 31 1
103 43 1
103 152 1
103 170 1
103 176 1
103 188 1
103 250 1
103 268 1
103 274 1
103 286 1
103 299 1
103 317 1
103 323 1
103 335 1
104 8 1
104 26 1
104 32 1
104 44 1
104 151 1
104 169 1
104 175 1
104 187 1
104 249 1
104 267 1
104 273 1
104 285 1
104 300 1
104 318 1
104 324 1
104 336 1
105 9 1
105 27 1
105 33 1
105 45 1
105 154 1
105 172 1
105 178 1
105 190 1
105 252 1
105 270 1
105 276 1
105 288 1
105 295 1
105 313 1
105 319 1
105 331 1
106 10 1
106 28 1
106 34 1
106 46 1
106 153 1
106 171 1
106 177 1
106 189 1
106 251 1
106 269 1
106 275 1
106 287 1
106 296 1
106 314 1
106 320 1
106 332 1
107 11 1
107 29 1
107 35 1
107 47 1
107 156 1
107 174 1
107 180 1
107 192 1
107 248 1
107 266 1
107 272 1
107 284 1
107 297 1
107 315 1
107 321 1
107 333 1
108 12 1
108 30 1
108 36 1
108 48 1
108 155 1
108 173 1
108 179 1
108 191 1
108 247 1
108 265 1
108 271 1
108 283 1
108 298 1
108 316 1
108 322 1
108 334 1
109 13 1
109 25 1
109 37 1
109 43 1
109 158 1
109 170 1
109 182 1
109 188 1
109 256 1
109 268 1
109 280 1
109 286 1
109 305 1
109 317 1
109 329 1
109 335 1
110 14 1
110 26 1
110 38 1
110 44 1
110 157 1
110 169 1
110 181 1
110 187 1
110 255 1
110 267 1
110 279 1
110 285 1
110 306 1
110 318 1
110 330 1
110 336 1
111 15 1
111 27 1
111 39 1
111 45 1
111 160 1
111 172 1
111 184 1
111 190 1
111 258 1
111 270 1
111 282 1
111 288 1
111 301 1
111 313 1
111 325 1
111 331 1
112 16 1
112 28 1
112 40 1
112 46 1
112 159 1
112 171 1
112 183 1
112 189 1
112 257 1
112 269 1
112 281 1
112 287 1
112 302 1
112 314 1
112 326 1
112 332 1
113 17 1
113 29 1
113 41 1
113 47 1
113 162 1
113 174 1
113 186 1
113 192 1
113 254 1
113 266 1
113 278 1
113 284 1
113 303 1
113 315 1
113 327 1
113 333 1
114 18 1
114 30 1
114 42 1
114 48 1
114 161 1
114 173 1
114 185 1
114 191 1
114 253 1
114 265 1
114 277 1
114 283 1
114 304 1
114 316 1
114 328 1
114 334 1
115 19 1
115 31 1
115 37 1
115 43 1
115 164 1
115 176 1
115 182 1
115 188 1
115 262 1
115 274 1
115 280 1
115 286 1
115 311 1
115 323 1
115 329 1
115 335 1
116 20 1
116 32 1
116 38 1
116 44 1
116 163 1
116 175 1
116 181 1
116 187 1
116 261 1
116 273 1
116 279 1
116 285 1
116 312 1
116 324 1
116 330 1
116 336 1
117 21 1
117 33 1
117 39 1
117 45 1
117 166 1
117 178 1
117 184 1
117 190 1
117 264 1
117 276 1
117 282 1
117 288 1
117 307 1
117 319 1
117 325 1
117 331 1
118 22 1
118 34 1
118 40 1
118 46 1
118 165 1
118 177 1
118 183 1
118 189 1
118 263 1
118 275 1
118 281 1
118 287 1
118 308 1
118 320 1
118 326 1
118 332 1
119 23 1
119 35 1
119 41 1
119 47 1
119 168 1
119 180 1
119 186 1
119 192 1
119 260 1
119 272 1
119 278 1
119 284 1
119 309 1
119 321 1
119 327 1
119 333 1
120 24 1
120 36 1
120 42 1
120 48 1
120 167 1
120 179 1
120 185 1
120 191 1
120 259 1
120 271 1
120 277 1
120 283 1
120 310 1
120 322 1
120 328 1
120 334 1
121 49 1
121 73 1
121 79 1
121 85 1
121 146 1
121 170 1
121 176 1
121 182 1
121 244 1
121 268 1
121 274 1
121 280 1
121 342 1
121 366 1
121 372 1
121 378 1
122 50 1
122 74 1
122 80 1
122 86 1
122 145 1
122 169 1
122 175 1
122 181 1
122 243 1
122 267 1
122 273 1
122 279 1
122 341 1
122 365 1
122 371 1
122 377 1
123 51 1
123 75 1
123 81 1
123 87 1
123 148 1
123 172 1
123 178 1
123 184 1
123 246 1
123 270 1
123 276 1
123 282 1
123 338 1
123 362 1
123 368 1
123 374 1
124 52 1
124 76 1
124 82 1
124 88 1
124 147 1
124 171 1
124 177 1
124 183 1
124 245 1
124 269 1
124 275 1
124 281 1
124 337 1
124 361 1
124 367 1
124 373 1
125 53 1
125 77 1
125 83 1
125 89 1
125 150 1
125 174 1
125 180 1
125 186 1
125 242 1
125 266 1
125 272 1
125 278 1
125 340 1
125 364 1
125 370 1
125 376 1
126 54 1
126 78 1
126 84 1
126 90 1
126 149 1
126 173 1
126 179 1
126 185 1
126 241 1
126 265 1
126 271 1
126 277 1
126 339 1
126 363 1
126 369 1
126 375 1
127 55 1
127 73 1
127 79 1
127 91 1
127 152 1
127 170 1
127 176 1
127 188 1
127 250 1
127 268 1
127 274 1
127 286 1
127 348 1
127 366 1
127 372 1
127 384 1
128 56 1
128 74 1
128 80 1
128 92 1
128 151 1
128 169 1
128 175 1
128 187 1
128 249 1
128 267 1
128 273 1
128 285 1
128 347 1
128 365 1
128 371 1
128 383 1
129 57 1
129 75 1
129 81 1
129 93 1
129 154 1
129 172 1
129 178 1
129 190 1
129 252 1
129 270 1
129 276 1
129 288 1
129 344 1
129 362 1
129 368 1
129 380 1
130 58 1
130 76 1
130 82 1
130 94 1
130 153 1
130 171 1
130 177 1
130 189 1
130 251 1
130 269 1
130 275 1
130 287 1
130 343 1
130 361 1
130 367 1
130 379 1
131 59 1
131 77 1
131 83 1
131 95 1
131 156 1
131 174 1
131 180 1
131 192 1
131 248 1
131 266 1
131 272 1
131 284 1
131 346 1
131 364 1
131 370 1
131 382 1
132 60 1
132 78 1
132 84 1
132 96 1
132 155 1
132 173 1
132 179 1
132 191 1
132 247 1
132 265 1
132 271 1
132 283 1
132 345 1
132 363 1
132 369 1
132 381 1
133 61 1
133 73 1
133 85 1
133 91 1
133 158 1
133 170 1
133 182 1
133 188 1
133 256 1
133 268 1
133 280 1
133 286 1
133 354 1
133 366 1
133 378 1
133 384 1
134 62 1
134 74 1
134 86 1
134 92 1
134 157 1
134 169 1
134 181 1
134 187 1
134 255 1
134 267 1
134 279 1
134 285 1
134 353 1
134 365 1
134 377 1
134 383 1
135 63 1
135 75 1
135 87 1
135 93 1
135 160 1
135 172 1
135 184 1
135 190 1
135 258 1
135 270 1
135 282 1
135 288 1
135 350 1
135 362 1
135 374 1
135 380 1
136 64 1
136 76 1
136 88 1
136 94 1
136 159 1
136 171 1
136 183 1
136 189 1
136 257 1
136 269 1
136 281 1
136 287 1
136 349 1
136 361 1
136 373 1
136 379 1
137 65 1
137 77 1
137 89 1
137 95 1
137 162 1
137 174 1
137 186 1
137 192 1
137 254 1
137 266 1
137 278 1
137 284 1
137 352 1
137 364 1
137 376 1
137 382 1
138 66 1
138 78 1
138 90 1
138 96 1
138 161 1
138 173 1
138 185 1
138 191 1
138 253 1
138 265 1
138 277 1
138 283 1
138 351 1
138 363 1
138 375 1
138 381 1
139 67 1
139 79 1
139 85 1
139 91 1
139 164 1
139 176 1
139 182 1
139 188 1
139 262 1
139 274 1
139 280 1
139 286 1
139 360 1
139 372 1
139 378 1
139 384 1
140 68 1
140 80 1
140 86 1
140 92 1
140 163 1
140 175 1
140 181 1
140 187 1
140 261 1
140 273 1
140 279 1
140 285 1
140 359 1
140 371 1
140 377 1
140 383 1
141 69 1
141 81 1
141 87 1
141 93 1
141 166 1
141 178 1
141 184 1
141 190 1
141 264 1
141 276 1
141 282 1
141 288 1
141 356 1
141 368 1
141 374 1
141 380 1
142 70 1
142 82 1
142 88 1
142 94 1
142 165 1
142 177 1
142 183 1
142 189 1
142 263 1
142 275 1
142 281 1
142 287 1
142 355 1
142 367 1
142 373 1
142 379 1
143 71 1
143 83 1
143 89 1
143 95 1
143 168 1
143 180 1
143 186 1
143 192 1
143 260 1
143 272 1
143 278 1
143 284 1
143 358 1
143 370 1
143 376 1
143 382 1
144 72 1
144 84 1
144 90 1
144 96 1
144 167 1
144 179 1
144 185 1
144 191 1
144 259 1
144 271 1
144 277 1
144 283 1
144 357 1
144 369 1
144 375 1
144 381 1
145 97 1
145 121 1
145 127 1
145 133 1
145 146 1
145 170 1
145 176 1
145 182 1
145 293 1
145 317 1
145 323 1
145 329 1
145 342 1
145 366 1
145 372 1
145 378 1
146 98 1
146 122 1
146 128 1
146 134 1
146 145 1
146 169 1
146 175 1
146 181 1
146 294 1
146 318 1
146 324 1
146 330 1
146 341 1
146 365 1
146 371 1
146 377 1
147 99 1
147 123 1
147 129 1
147 135 1
147 148 1
147 172 1
147 178 1
147 184 1
147 289 1
147 313 1
147 319 1
147 325 1
147 338 1
147 362 1
147 368 1
147 374 1
148 100 1
148 124 1
148 130 1
148 136 1
148 147 1
148 171 1
148 177 1
148 183 1
148 290 1
148 314 1
148 320 1
148 326 1
148 337 1
148 361 1
148 367 1
148 373 1
149 101 1
149 125 1
149 131 1
149 137 1
149 150 1
149 174 1
149 180 1
149 186 1
149 291 1
149 315 1
149 321 1
149 327 1
149 340 1
149 364 1
149 370 1
149 376 1
150 102 1
150 126 1
150 132 1
150 138 1
150 149 1
150 173 1
150 179 1
150 185 1
150 292 1
150 316 1
150 322 1
150 328 1
150 339 1
150 363 1
150 369 1
150 375 1
151 103 1
151 121 1
151 127 1
151 139 1
151 152 1
151 170 1
151 176 1
151 188 1
151 299 1
151 317 1
151 323 1
151 335 1
151 348 1
151 366 1
151 372 1
151 384 1
152 104 1
152 122 1
152 128 1
152 140 1
152 151 1
152 169 1
152 175 1
152 187 1
152 300 1
152 318 1
152 324 1
152 336 1
152 347 1
152 365 1
152 371 1
152 383 1
153 105 1
153 123 1
153 129 1
153 141 1
153 154 1
153 172 1
153 178 1
153 190 1
153 295 1
153 313 1
153 319 1
153 331 1
153 344 1
153 362 1
153 368 1
153 380 1
154 106 1
154 124 1
154 130 1
154 142 1
154 153 1
154 171 1
154 177 1
154 189 1
154 296 1
154 314 1
154 320 1
154 332 1
154 343 1
154 361 1
154 367 1
154 379 1
155 107 1
155 125 1
155 131 1
155 143 1
155 156 1
155 174 1
155 180 1
155 192 1
155 297 1
155 315 1
155 321 1
155 333 1
155 346 1
155 364 1
155 370 1
155 382 1
156 108 1
156 126 1
156 132 1
156 144 1
156 155 1
156 173 1
156 179 1
156 191 1
156 298 1
156 316 1
156 322 1
156 334 1
156 345 1
156 363 1
156 369 1
156 381 1
157 109 1
157 121 1
157 133 1
157 139 1
157 158 1
157 170 1
157 182 1
157 188 1
157 305 1
157 317 1
157 329 1
157 335 1
157 354 1
157 366 1
157 378 1
157 384 1
158 110 1
158 122 1
158 134 1
158 140 1
158 157 1
158 169 1
158 181 1
158 187 1
158 306 1
158 318 1
158 330 1
158 336 1
158 353 1
158 365 1
158 377 1
158 383 1
159 111 1
159 123 1
159 135 1
159 141 1
159 160 1
159 172 1
159 184 1
159 190 1
159 301 1
159 313 1
159 325 1
159 331 1
159 350 1
159 362 1
159 374 1
159 380 1
160 112 1
160 124 1
160 136 1
160 142 1
160 159 1
160 171 1
160 183 1
160 189 1
160 302 1
160 314 1
160 326 1
160 332 1
160 349 1
160 361 1
160 373 1
160 379 1
161 113 1
161 125 1
161 137 1
161 143 1
161 162 1
161 174 1
161 186 1
161 192 1
161 303 1
161 315 1
161 327 1
161 333 1
161 352 1
161 364 1
161 376 1
161 382 1
162 114 1
162 126 1
162 138 1
162 144 1
162 161 1
162 173 1
162 185 1
162 191 1
162 304 1
162 316 1
162 328 1
162 334 1
162 351 1
162 363 1
162 375 1
162 381 1
163 115 1
163 127 1
163 133 1
163 139 1
163 164 1
163 176 1
163 182 1
163 188 1
163 311 1
163 323 1
163 329 1
163 335 1
163 360 1
163 372 1
163 378 1
163 384 1
164 116 1
164 128 1
164 134 1
164 140 1
164 163 1
164 175 1
164 181 1
164 187 1
164 312 1
164 324 1
164 330 1
164 336 1
164 359 1
164 371 1
164 377 1
164 383 1
165 117 1
165 129 1
165 135 1
165 141 1
165 166 1
165 178 1
165 184 1
165 190 1
165 307 1
165 319 1
165 325 1
165 331 1
165 356 1
165 368 1
165 374 1
165 380 1
166 118 1
166 130 1
166 136 1
166 142 1
166 165 1
166 177 1
166 183 1
166 189 1
166 308 1
166 320 1
166 326 1
166 332 1
166 355 1
166 367 1
166 373 1
166 379 1
167 119 1
167 131 1
167 137 1
167 143 1
167 168 1
167 180 1
167 186 1
167 192 1
167 309 1
167 321 1
167 327 1
167 333 1
167 358 1
167 370 1
167 376 1
167 382 1
168 120 1
168 132 1
168 138 1
168 144 1
168 167 1
168 179 1
168 185 1
168 191 1
168 310 1
168 322 1
168 328 1
168 334 1
168 357 1
168 369 1
168 375 1
168 381 1
169 196 1
169 220 1
169 226 1
169 232 1
169 244 1
169 268 1
169 274 1
169 280 1
169 293 1
169 317 1
169 323 1
169 329 1
169 342 1
169 366 1
169 372 1
169 378 1
170 195 1
170 219 1
170 225 1
170 231 1
170 243 1
170 267 1
170 273 1
170 279 1
170 294 1
170 318 1
170 324 1
170 330 1
170 341 1
170 365 1
170 371 1
170 377 1
171 198 1
171 222 1
171 228 1
171 234 1
171 246 1
171 270 1
171 276 1
171 282 1
171 289 1
171 313 1
171 319 1
171 325 1
171 338 1
171 362 1
171 368 1
171 374 1
172 197 1
172 221 1
172 227 1
172 233 1
172 245 1
172 269 1
172 275 1
172 281 1
172 290 1
172 314 1
172 320 1
172 326 1
172 337 1
172 361 1
172 367 1
172 373 1
173 194 1
173 218 1
173 224 1
173 230 1
173 242 1
173 266 1
173 272 1
173 278 1
173 291 1
173 315 1
173 321 1
173 327 1
173 340 1
173 364 1
173 370 1
173 376 1
174 193 1
174 217 1
174 223 1
174 229 1
174 241 1
174 265 1
174 271 1
174 277 1
174 292 1
174 316 1
174 322 1
174 328 1
174 339 1
174 363 1
174 369 1
174 375 1
175 202 1
175 220 1
175 226 1
175 238 1
175 250 1
175 268 1
175 274 1
175 286 1
175 299 1
175 317 1
175 323 1
175 335 1
175 348 1
175 366 1
175 372 1
175 384 1
176 201 1
176 219 1
176 225 1
176 237 1
176 249 1
176 267 1
176 273 1
176 285 1
176 300 1
176 318 1
176 324 1
176 336 1
176 347 1
176 365 1
176 371 1
176 383 1
177 204 1
177 222 1
177 228 1
177 240 1
177 252 1
177 270 1
177 276 1
177 288 1
177 295 1
177 313 1
177 319 1
177 331 1
177 344 1
177 362 1
177 368 1
177 380 1
178 203 1
178 221 1
178 227 1
178 239 1
178 251 1
178 269 1
178 275 1
178 287 1
178 296 1
178 314 1
178 320 1
178 332 1
178 343 1
178 361 1
178 367 1
178 379 1
179 200 1
179 218 1
179 224 1
179 236 1
179 248 1
179 266 1
179 272 1
179 284 1
179 297 1
179 315 1
179 321 1
179 333 1
179 346 1
179 364 1
179 370 1
179 382 1
180 199 1
180 217 1
180 223 1
180 235 1
180 247 1
180 265 1
180 271 1
180 283 1
180 298 1
180 316 1
180 322 1
180 334 1
180 345 1
180 363 1
180 369 1
180 381 1
181 208 1
181 220 1
181 232 1
181 238 1
181 256 1
181 268 1
181 280 1
181 286 1
181 305 1
181 317 1
181 329 1
181 335 1
181 354 1
181 366 1
181 378 1
181 384 1
182 207 1
182 219 1
182 231 1
182 237 1
182 255 1
182 267 1
182 279 1
182 285 1
182 306 1
182 318 1
182 330 1
182 336 1
182 353 1
182 365 1
182 377 1
182 383 1
183 210 1
183 222 1
183 234 1
183 240 1
183 258 1
183 270 1
183 282 1
183 288 1
183 301 1
183 313 1
183 325 1
183 331 1
183 350 1
183 362 1
183 374 1
183 380 1
184 209 1
184 221 1
184 233 1
184 239 1
184 257 1
184 269 1
184 281 1
184 287 1
184 302 1
184 314 1
184 326 1
184 332 1
184 349 1
184 361 1
184 373 1
184 379 1
185 206 1
185 218 1
185 230 1
185 236 1
185 254 1
185 266 1
185 278 1
185 284 1
185 303 1
185 315 1
185 327 1
185 333 1
185 352 1
185 364 1
185 376 1
185 382 1
186 205 1
186 217 1
186 229 1
186 235 1
186 253 1
186 265 1
186 277 1
186 283 1
186 304 1
186 316 1
186 328 1
186 334 1
186 351 1
186 363 1
186 375 1
186 381 1
187 214 1
187 226 1
187 232 1
187 238 1
187 262 1
187 274 1
187 280 1
187 286 1
187 311 1
187 323 1
187 329 1
187 335 1
187 360 1
187 372 1
187 378 1
187 384 1
188 213 1
188 225 1
188 231 1
188 237 1
188 261 1
188 273 1
188 279 1
188 285 1
188 312 1
188 324 1
188 330 1
188 336 1
188 359 1
188 371 1
188 377 1
188 383 1
189 216 1
189 228 1
189 234 1
189 240 1
189 264 1
189 276 1
189 282 1
189 288 1
189 307 1
189 319 1
189 325 1
189 331 1
189 356 1
189 368 1
189 374 1
189 380 1
190 215 1
190 227 1
190 233 1
190 239 1
190 263 1
190 275 1
190 281 1
190 287 1
190 308 1
190 320 1
190 326 1
190 332 1
190 355 1
190 367 1
190 373 1
190 379 1
191 212 1
191 224 1
191 230 1
191 236 1
191 260 1
191 272 1
191 278 1
191 284 1
191 309 1
191 321 1
191 327 1
191 333 1
191 358 1
191 370 1
191 376 1
191 382 1
192 211 1
192 223 1
192 229 1
192 235 1
192 259 1
192 271 1
192 277 1
192 283 1
192 310 1
192 322 1
192 328 1
192 334 1
192 357 1
192 369 1
192 375 1
192 381 1
