%%MatrixMarket matrix coordinate integer general
128 256 2048
1 1 1
1 17 1
1 21 1
1 25 1
1 129 1
1 145 1
1 149 1
1 153 1
1 161 1
1 177 1
1 181 1
1 185 1
1 193 1
1 209 1
1 213 1
1 217 1
2 2 1
2 18 1
2 22 1
2 26 1
2 130 1
2 146 1
2 150 1
2 154 1
2 162 1
2 178 1
2 182 1
2 186 1
2 194 1
2 210 1
2 214 1
2 218 1
3 3 1
3 19 1
3 23 1
3 27 1
3 131 1
3 147 1
3 151 1
3 155 1
3 163 1
3 179 1
3 183 1
3 187 1
3 195 1
3 211 1
3 215 1
3 219 1
4 4 1
4 20 1
4 24 1
4 28 1
4 132 1
4 148 1
4 152 1
4 156 1
4 164 1
4 180 1
4 184 1
4 188 1
4 196 1
4 212 1
4 216 1
4 220 1
5 5 1
5 17 1
5 21 1
5 29 1
5 133 1
5 145 1
5 149 1
5 157 1
5 165 1
5 177 1
5 181 1
5 189 1
5 197 1
5 209 1
5 213 1
5 221 1
6 6 1
6 18 1
6 22 1
6 30 1
6 134 1
6 146 1
6 150 1
6 158 1
6 166 1
6 178 1
6 182 1
6 190 1
6 198 1
6 210 1
6 214 1
6 222 1
7 7 1
7 19 1
7 23 1
7 31 1
7 135 1
7 147 1
7 151 1
7 159 1
7 167 1
7 179 1
7 183 1
7 191 1
7 199 1
7 211 1
7 215 1
7 223 1
8 8 1
8 20 1
8 24 1
8 32 1
8 136 1
8 148 1
8 152 1
8 160 1
8 168 1
8 180 1
8 184 1
8 192 1
8 200 1
8 212 1
8 216 1
8 224 1
9 9 1
9 17 1
9 25 1
9 29 1
9 137 1
9 145 1
9 153 1
9 157 1
9 169 1
9 177 1
9 185 1
9 189 1
9 201 1
9 209 1
9 217 1
9 221 1
10 10 1
10 18 1
10 26 1
10 30 1
10 138 1
10 146 1
10 154 1
10 158 1
10 170 1
10 178 1
10 186 1
10 190 1
10 202 1
10 210 1
10 218 1
10 222 1
11 11 1
11 19 1
11 27 1
11 31 1
11 139 1
11 147 1
11 155 1
11 159 1
11 171 1
11 179 1
11 187 1
11 191 1
11 203 1
11 211 1
11 219 1
11 223 1
12 12 1
12 20 1
12 28 1
12 32 1
12 140 1
12 148 1
12 156 1
12 160 1
12 172 1
12 180 1
12 188 1
12 192 1
12 204 1
12 212 1
12 220 1
12 224 1
13 13 1
13 21 1
13 25 1
13 29 1
13 141 1
13 149 1
13 153 1
13 157 1
13 173 1
13 181 1
13 185 1
13 189 1
13 205 1
13 213 1
13 217 1
13 221 1
14 14 1
14 22 1
14 26 1
14 30 1
14 142 1
14 150 1
14 154 1
14 158 1
14 174 1
14 182 1
14 186 1
14 190 1
14 206 1
14 214 1
14 218 1
14 222 1
15 15 1
15 23 1
15 27 1
15 31 1
15 143 1
15 151 1
15 155 1
15 159 1
15 175 1
15 183 1
15 187 1
15 191 1
15 207 1
15 215 1
15 219 1
15 223 1
16 16 1
16 24 1
16 28 1
16 32 1
16 144 1
16 152 1
16 156 1
16 160 1
16 176 1
16 184 1
16 188 1
16 192 1
16 208 1
16 216 1
16 220 1
16 224 1
17 33 1
17 49 1
17 53 1
17 57 1
17 129 1
17 145 1
17 149 1
17 153 1
17 161 1
17 177 1
17 181 1
17 185 1
17 225 1
17 241 1
17 245 1
17 249 1
18 34 1
18 50 1
18 54 1
18 58 1
18 130 1
18 146 1
18 150 1
18 154 1
18 162 1
18 178 1
18 182 1
18 186 1
18 226 1
18 242 1
18 246 1
18 250 1
19 35 1
19 51 1
19 55 1
19 59 1
19 131 1
19 147 1
19 151 1
19 155 1
19 163 1
19 179 1
19 183 1
19 187 1
19 227 1
19 243 1
19 247 1
19 251 1
20 36 1
20 52 1
20 56 1
20 60 1
20 132 1
20 148 1
20 152 1
20 156 1
20 164 1
20 180 1
20 184 1
20 188 1
20 228 1
20 244 1
20 248 1
20 252 1
21 37 1
21 49 1
21 53 1
21 61 1
21 133 1
21 145 1
21 149 1
21 157 1
21 165 1
21 177 1
21 181 1
21 189 1
21 229 1
21 241 1
21 245 1
21 253 1
22 38 1
22 50 1
22 54 1
22 62 1
22 134 1
22 146 1
22 150 1
22 158 1
22 166 1
22 178 1
22 182 1
22 190 1
22 230 1
22 242 1
22 246 1
22 254 1
23 39 1
23 51 1
23 55 1
23 63 1
23 135 1
23 147 1
23 151 1
23 159 1
23 167 1
23 179 1
23 183 1
23 191 1
23 231 1
23 243 1
23 247 1
23 255 1
24 40 1
24 52 1
24 56 1
24 64 1
24 136 1
24 148 1
24 152 1
24 160 1
24 168 1
24 180 1
24 184 1
24 192 1
24 232 1
24 244 1
24 248 1
24 256 1
25 41 1
25 49 1
25 57 1
25 61 1
25 137 1
25 145 1
25 153 1
25 157 1
25 169 1
25 177 1
25 185 1
25 189 1
25 233 1
25 241 1
25 249 1
25 253 1
26 42 1
26 50 1
26 58 1
26 62 1
26 138 1
26 146 1
26 154 1
26 158 1
26 170 1
26 178 1
26 186 1
26 190 1
26 234 1
26 242 1
26 250 1
26 254 1
27 43 1
27 51 1
27 59 1
27 63 1
27 139 1
27 147 1
27 155 1
27 159 1
27 171 1
27 179 1
27 187 1
27 191 1
27 235 1
27 243 1
27 251 1
27 255 1
28 44 1
28 52 1
28 60 1
28 64 1
28 140 1
28 148 1
28 156 1
28 160 1
28 172 1
28 180 1
28 188 1
28 192 1
28 236 1
28 244 1
28 252 1
28 256 1
29 45 1
29 53 1
29 57 1
29 61 1
29 141 1
29 149 1
29 153 1
29 157 1
29 173 1
29 181 1
29 185 1
29 189 1
29 237 1
29 245 1
29 249 1
29 253 1
30 46 1
30 54 1
30 58 1
30 62 1
30 142 1
30 150 1
30 154 1
30 158 1
30 174 1
30 182 1
30 186 1
30 190 1
30 238 1
30 246 1
30 250 1
30 254 1
31 47 1
31 55 1
31 59 1
31 63 1
31 143 1
31 151 1
31 155 1
31 159 1
31 175 1
31 183 1
31 187 1
31 191 1
31 239 1
31 247 1
31 251 1
31 255 1
32 48 1
32 56 1
32 60 1
32 64 1
32 144 1
32 152 1
32 156 1
32 160 1
32 176 1
32 184 1
32 188 1
32 192 1
32 240 1
32 248 1
32 252 1
32 256 1
33 65 1
33 81 1
33 85 1
33 89 1
33 129 1
33 145 1
33 149 1
33 153 1
33 193 1
33 209 1
33 213 1
33 217 1
33 225 1
33 241 1
33 245 1
33 249 1
34 66 1
34 82 1
34 86 1
34 90 1
34 130 1
34 146 1
34 150 1
34 154 1
34 194 1
34 210 1
34 214 1
34 218 1
34 226 1
34 242 1
34 246 1
34 250 1
35 67 1
35 83 1
35 87 1
35 91 1
35 131 1
35 147 1
35 151 1
35 155 1
35 195 1
35 211 1
35 215 1
35 219 1
35 227 1
35 243 1
35 247 1
35 251 1
36 68 1
36 84 1
36 88 1
36 92 1
36 132 1
36 148 1
36 152 1
36 156 1
36 196 1
36 212 1
36 216 1
36 220 1
36 228 1
36 244 1
36 248 1
36 252 1
37 69 1
37 81 1
37 85 1
37 93 1
37 133 1
37 145 1
37 149 1
37 157 1
37 197 1
37 209 1
37 213 1
37 221 1
37 229 1
37 241 1
37 245 1
37 253 1
38 70 1
38 82 1
38 86 1
38 94 1
38 134 1
38 146 1
38 150 1
38 158 1
38 198 1
38 210 1
38 214 1
38 222 1
38 230 1
38 242 1
38 246 1
38 254 1
39 71 1
39 83 1
39 87 1
39 95 1
39 135 1
39 147 1
39 151 1
39 159 1
39 199 1
39 211 1
39 215 1
39 223 1
39 231 1
39 243 1
39 247 1
39 255 1
40 72 1
40 84 1
40 88 1
40 96 1
40 136 1
40 148 1
40 152 1
40 160 1
40 200 1
40 212 1
40 216 1
40 224 1
40 232 1
40 244 1
40 248 1
40 256 1
41 73 1
41 81 1
41 89 1
41 93 1
41 137 1
41 145 1
41 153 1
41 157 1
41 201 1
41 209 1
41 217 1
41 221 1
41 233 1
41 241 1
41 249 1
41 253 1
42 74 1
42 82 1
42 90 1
42 94 1
42 138 1
42 146 1
42 154 1
42 158 1
42 202 1
42 210 1
42 218 1
42 222 1
42 234 1
42 242 1
42 250 1
42 254 1
43 75 1
43 83 1
43 91 1
43 95 1
43 139 1
43 147 1
43 155 1
43 159 1
43 203 1
43 211 1
43 219 1
43 223 1
43 235 1
43 243 1
43 251 1
43 255 1
44 76 1
44 84 1
44 92 1
44 96 1
44 140 1
44 148 1
44 156 1
44 160 1
44 204 1
44 212 1
44 220 1
44 224 1
44 236 1
44 244 1
44 252 1
44 256 1
45 77 1
45 85 1
45 89 1
45 93 1
45 141 1
45 149 1
45 153 1
45 157 1
45 205 1
45 213 1
45 217 1
45 221 1
45 237 1
45 245 1
45 249 1
45 253 1
46 78 1
46 86 1
46 90 1
46 94 1
46 142 1
46 150 1
46 154 1
46 158 1
46 206 1
46 214 1
46 218 1
46 222 1
46 238 1
46 246 1
46 250 1
46 254 1
47 79 1
47 87 1
47 91 1
47 95 1
47 143 1
47 151 1
47 155 1
47 159 1
47 207 1
47 215 1
47 219 1
47 223 1
47 239 1
47 247 1
47 251 1
47 255 1
48 80 1
48 88 1
48 92 1
48 96 1
48 144 1
48 152 1
48 156 1
48 160 1
48 208 1
48 216 1
48 220 1
48 224 1
48 240 1
48 248 1
48 252 1
48 256 1
49 97 1
49 113 1
49 117 1
49 121 1
49 161 1
49 177 1
49 181 1
49 185 1
49 193 1
49 209 1
49 213 1
49 217 1
49 225 1
49 241 1
49 245 1
49 249 1
50 98 1
50 114 1
50 118 1
50 122 1
50 162 1
50 178 1
50 182 1
50 186 1
50 194 1
50 210 1
50 214 1
50 218 1
50 226 1
50 242 1
50 246 1
50 250 1
51 99 1
51 115 1
51 119 1
51 123 1
51 163 1
51 179 1
51 183 1
51 187 1
51 195 1
51 211 1
51 215 1
51 219 1
51 227 1
51 243 1
51 247 1
51 251 1
52 100 1
52 116 1
52 120 1
52 124 1
52 164 1
52 180 1
52 184 1
52 188 1
52 196 1
52 212 1
52 216 1
52 220 1
52 228 1
52 244 1
52 248 1
52 252 1
53 101 1
53 113 1
53 117 1
53 125 1
53 165 1
53 177 1
53 181 1
53 189 1
53 197 1
53 209 1
53 213 1
53 221 1
53 229 1
53 241 1
53 245 1
53 253 1
54 102 1
54 114 1
54 118 1
54 126 1
54 166 1
54 178 1
54 182 1
54 190 1
54 198 1
54 210 1
54 214 1
54 222 1
54 230 1
54 242 1
54 246 1
54 254 1
55 103 1
55 115 1
55 119 1
55 127 1
55 167 1
55 179 1
55 183 1
55 191 1
55 199 1
55 211 1
55 215 1
55 223 1
55 231 1
55 243 1
55 247 1
55 255 1
56 104 1
56 116 1
56 120 1
56 128 1
56 168 1
56 180 1
56 184 1
56 192 1
56 200 1
56 212 1
56 216 1
56 224 1
56 232 1
56 244 1
56 248 1
56 256 1
57 105 1
57 113 1
57 121 1
57 125 1
57 169 1
57 177 1
57 185 1
57 189 1
57 201 1
57 209 1
57 217 1
57 221 1
57 233 1
57 241 1
57 249 1
57 253 1
58 106 1
58 114 1
58 122 1
58 126 1
58 170 1
58 178 1
58 186 1
58 190 1
58 202 1
58 210 1
58 218 1
58 222 1
58 234 1
58 242 1
58 250 1
58 254 1
59 107 1
59 115 1
59 123 1
59 127 1
59 171 1
59 179 1
59 187 1
59 191 1
59 203 1
59 211 1
59 219 1
59 223 1
59 235 1
59 243 1
59 251 1
59 255 1
60 108 1
60 116 1
60 124 1
60 128 1
60 172 1
60 180 1
60 188 1
60 192 1
60 204 1
60 212 1
60 220 1
60 224 1
60 236 1
60 244 1
60 252 1
60 256 1
61 109 1
61 117 1
61 121 1
61 125 1
61 173 1
61 181 1
61 185 1
61 189 1
61 205 1
61 213 1
61 217 1
61 221 1
61 237 1
61 245 1
61 249 1
61 253 1
62 110 1
62 118 1
62 122 1
62 126 1
62 174 1
62 182 1
62 186 1
62 190 1
62 206 1
62 214 1
62 218 1
62 222 1
62 238 1
62 246 1
62 250 1
62 254 1
63 111 1
63 119 1
63 123 1
63 127 1
63 175 1
63 183 1
63 187 1
63 191 1
63 207 1
63 215 1
63 219 1
63 223 1
63 239 1
63 247 1
63 251 1
63 255 1
64 112 1
64 120 1
64 124 1
64 128 1
64 176 1
64 184 1
64 188 1
64 192 1
64 208 1
64 216 1
64 220 1
64 224 1
64 240 1
64 248 1
64 252 1
64 256 1
65 1 1
65 13 1
65 24 1
65 28 1
65 131 1
65 143 1
65 150 1
65 154 1
65 195 1
65 207 1
65 214 1
65 218 1
65 228 1
65 240 1
65 247 1
65 251 1
66 2 1
66 14 1
66 21 1
66 25 1
66 132 1
66 144 1
66 151 1
66 155 1
66 196 1
66 208 1
66 215 1
66 219 1
66 225 1
66 237 1
66 248 1
66 252 1
67 3 1
67 15 1
67 22 1
67 26 1
67 129 1
67 141 1
67 152 1
67 156 1
67 193 1
67 205 1
67 216 1
67 220 1
67 226 1
67 238 1
67 245 1
67 249 1
68 4 1
68 16 1
68 23 1
68 27 1
68 130 1
68 142 1
68 149 1
68 153 1
68 194 1
68 206 1
68 213 1
68 217 1
68 227 1
68 239 1
68 246 1
68 250 1
69 5 1
69 13 1
69 24 1
69 30 1
69 135 1
69 143 1
69 150 1
69 160 1
69 199 1
69 207 1
69 214 1
69 224 1
69 232 1
69 240 1
69 247 1
69 253 1
70 6 1
70 14 1
70 21 1
70 31 1
70 136 1
70 144 1
70 151 1
70 157 1
70 200 1
70 208 1
70 215 1
70 221 1
70 229 1
70 237 1
70 248 1
70 254 1
71 7 1
71 15 1
71 22 1
71 32 1
71 133 1
71 141 1
71 152 1
71 158 1
71 197 1
71 205 1
71 216 1
71 222 1
71 230 1
71 238 1
71 245 1
71 255 1
72 8 1
72 16 1
72 23 1
72 29 1
72 134 1
72 142 1
72 149 1
72 159 1
72 198 1
72 206 1
72 213 1
72 223 1
72 231 1
72 239 1
72 246 1
72 256 1
73 9 1
73 13 1
73 28 1
73 30 1
73 139 1
73 143 1
73 154 1
73 160 1
73 203 1
73 207 1
73 218 1
73 224 1
73 236 1
73 240 1
73 251 1
73 253 1
74 10 1
74 14 1
74 25 1
74 31 1
74 140 1
74 144 1
74 155 1
74 157 1
74 204 1
74 208 1
74 219 1
74 221 1
74 233 1
74 237 1
74 252 1
74 254 1
75 11 1
75 15 1
75 26 1
75 32 1
75 137 1
75 141 1
75 156 1
75 158 1
75 201 1
75 205 1
75 220 1
75 222 1
75 234 1
75 238 1
75 249 1
75 255 1
76 12 1
76 16 1
76 27 1
76 29 1
76 138 1
76 142 1
76 153 1
76 159 1
76 202 1
76 206 1
76 217 1
76 223 1
76 235 1
76 239 1
76 250 1
76 256 1
77 20 1
77 24 1
77 28 1
77 30 1
77 146 1
77 150 1
77 154 1
77 160 1
77 210 1
77 214 1
77 218 1
77 224 1
77 243 1
77 247 1
77 251 1
77 253 1
78 17 1
78 21 1
78 25 1
78 31 1
78 147 1
78 151 1
78 155 1
78 157 1
78 211 1
78 215 1
78 219 1
78 221 1
78 244 1
78 248 1
78 252 1
78 254 1
79 18 1
79 22 1
79 26 1
79 32 1
79 148 1
79 152 1
79 156 1
79 158 1
79 212 1
79 216 1
79 220 1
79 222 1
79 241 1
79 245 1
79 249 1
79 255 1
80 19 1
80 23 1
80 27 1
80 29 1
80 145 1
80 149 1
80 153 1
80 159 1
80 209 1
80 213 1
80 217 1
80 223 1
80 242 1
80 246 1
80 250 1
80 256 1
81 33 1
81 45 1
81 56 1
81 60 1
81 131 1
81 143 1
81 150 1
81 154 1
81 163 1
81 175 1
81 182 1
81 186 1
81 195 1
81 207 1
81 214 1
81 218 1
82 34 1
82 46 1
82 53 1
82 57 1
82 132 1
82 144 1
82 151 1
82 155 1
82 164 1
82 176 1
82 183 1
82 187 1
82 196 1
82 208 1
82 215 1
82 219 1
83 35 1
83 47 1
83 54 1
83 58 1
83 129 1
83 141 1
83 152 1
83 156 1
83 161 1
83 173 1
83 184 1
83 188 1
83 193 1
83 205 1
83 216 1
83 220 1
84 36 1
84 48 1
84 55 1
84 59 1
84 130 1
84 142 1
84 149 1
84 153 1
84 162 1
84 174 1
84 181 1
84 185 1
84 194 1
84 206 1
84 213 1
84 217 1
85 37 1
85 45 1
85 56 1
85 62 1
85 135 1
85 143 1
85 150 1
85 160 1
85 167 1
85 175 1
85 182 1
85 192 1
85 199 1
85 207 1
85 214 1
85 224 1
86 38 1
86 46 1
86 53 1
86 63 1
86 136 1
86 144 1
86 151 1
86 157 1
86 168 1
86 176 1
86 183 1
86 189 1
86 200 1
86 208 1
86 215 1
86 221 1
87 39 1
87 47 1
87 54 1
87 64 1
87 133 1
87 141 1
87 152 1
87 158 1
87 165 1
87 173 1
87 184 1
87 190 1
87 197 1
87 205 1
87 216 1
87 222 1
88 40 1
88 48 1
88 55 1
88 61 1
88 134 1
88 142 1
88 149 1
88 159 1
88 166 1
88 174 1
88 181 1
88 191 1
88 198 1
88 206 1
88 213 1
88 223 1
89 41 1
89 45 1
89 60 1
89 62 1
89 139 1
89 143 1
89 154 1
89 160 1
89 171 1
89 175 1
89 186 1
89 192 1
89 203 1
89 207 1
89 218 1
89 224 1
90 42 1
90 46 1
90 57 1
90 63 1
90 140 1
90 144 1
90 155 1
90 157 1
90 172 1
90 176 1
90 187 1
90 189 1
90 204 1
90 208 1
90 219 1
90 221 1
91 43 1
91 47 1
91 58 1
91 64 1
91 137 1
91 141 1
91 156 1
91 158 1
91 169 1
91 173 1
91 188 1
91 190 1
91 201 1
91 205 1
91 220 1
91 222 1
92 44 1
92 48 1
92 59 1
92 61 1
92 138 1
92 142 1
92 153 1
92 159 1
92 170 1
92 174 1
92 185 1
92 191 1
92 202 1
92 206 1
92 217 1
92 223 1
93 52 1
93 56 1
93 60 1
93 62 1
93 146 1
93 150 1
93 154 1
93 160 1
93 178 1
93 182 1
93 186 1
93 192 1
93 210 1
93 214 1
93 218 1
93 224 1
94 49 1
94 53 1
94 57 1
94 63 1
94 147 1
94 151 1
94 155 1
94 157 1
94 179 1
94 183 1
94 187 1
94 189 1
94 211 1
94 215 1
94 219 1
94 221 1
95 50 1
95 54 1
95 58 1
95 64 1
95 148 1
95 152 1
95 156 1
95 158 1
95 180 1
95 184 1
95 188 1
95 190 1
95 212 1
95 216 1
95 220 1
95 222 1
96 51 1
96 55 1
96 59 1
96 61 1
96 145 1
96 149 1
96 153 1
96 159 1
96 177 1
96 181 1
96 185 1
96 191 1
96 209 1
96 213 1
96 217 1
96 223 1
97 66 1
97 78 1
97 85 1
97 89 1
97 131 1
97 143 1
97 150 1
97 154 1
97 163 1
97 175 1
97 182 1
97 186 1
97 228 1
97 240 1
97 247 1
97 251 1
98 67 1
98 79 1
98 86 1
98 90 1
98 132 1
98 144 1
98 151 1
98 155 1
98 164 1
98 176 1
98 183 1
98 187 1
98 225 1
98 237 1
98 248 1
98 252 1
99 68 1
99 80 1
99 87 1
99 91 1
99 129 1
99 141 1
99 152 1
99 156 1
99 161 1
99 173 1
99 184 1
99 188 1
99 226 1
99 238 1
99 245 1
99 249 1
100 65 1
100 77 1
100 88 1
100 92 1
100 130 1
100 142 1
100 149 1
100 153 1
100 162 1
100 174 1
100 181 1
100 185 1
100 227 1
100 239 1
100 246 1
100 250 1
101 70 1
101 78 1
101 85 1
101 95 1
101 135 1
101 143 1
101 150 1
101 160 1
101 167 1
101 175 1
101 182 1
101 192 1
101 232 1
101 240 1
101 247 1
101 253 1
102 71 1
102 79 1
102 86 1
102 96 1
102 136 1
102 144 1
102 151 1
102 157 1
102 168 1
102 176 1
102 183 1
102 189 1
102 229 1
102 237 1
102 248 1
102 254 1
103 72 1
103 80 1
103 87 1
103 93 1
103 133 1
103 141 1
103 152 1
103 158 1
103 165 1
103 173 1
103 184 1
103 190 1
103 230 1
103 238 1
103 245 1
103 255 1
104 69 1
104 77 1
104 88 1
104 94 1
104 134 1
104 142 1
104 149 1
104 159 1
104 166 1
104 174 1
104 181 1
104 191 1
104 231 1
104 239 1
104 246 1
104 256 1
105 74 1
105 78 1
105 89 1
105 95 1
105 139 1
105 143 1
105 154 1
105 160 1
105 171 1
105 175 1
105 186 1
105 192 1
105 236 1
105 240 1
105 251 1
105 253 1
106 75 1
106 79 1
106 90 1
106 96 1
106 140 1
106 144 1
106 155 1
106 157 1
106 172 1
106 176 1
106 187 1
106 189 1
106 233 1
106 237 1
106 252 1
106 254 1
107 76 1
107 80 1
107 91 1
107 93 1
107 137 1
107 141 1
107 156 1
107 158 1
107 169 1
107 173 1
107 188 1
107 190 1
107 234 1
107 238 1
107 249 1
107 255 1
108 73 1
108 77 1
108 92 1
108 94 1
108 138 1
108 142 1
108 153 1
108 159 1
108 170 1
108 174 1
108 185 1
108 191 1
108 235 1
108 239 1
108 250 1
108 256 1
109 81 1
109 85 1
109 89 1
109 95 1
109 146 1
109 150 1
109 154 1
109 160 1
109 178 1
109 182 1
109 186 1
109 192 1
109 243 1
109 247 1
109 251 1
109 253 1
110 82 1
110 86 1
110 90 1
110 96 1
110 147 1
110 151 1
110 155 1
110 157 1
110 179 1
110 183 1
110 187 1
110 189 1
110 244 1
110 248 1
110 252 1
110 254 1
111 83 1
111 87 1
111 91 1
111 93 1
111 148 1
111 152 1
111 156 1
111 158 1
111 180 1
111 184 1
111 188 1
111 190 1
111 241 1
111 245 1
111 249 1
111 255 1
112 84 1
112 88 1
112 92 1
112 94 1
112 145 1
112 149 1
112 153 1
112 159 1
112 177 1
112 181 1
112 185 1
112 191 1
112 242 1
112 246 1
112 250 1
112 256 1
113 98 1
113 110 1
113 117 1
113 121 1
113 163 1
113 175 1
113 182 1
113 186 1
113 195 1
113 207 1
113 214 1
113 218 1
113 228 1
113 240 1
113 247 1
113 251 1
114 99 1
114 111 1
114 118 1
114 122 1
114 164 1
114 176 1
114 183 1
114 187 1
114 196 1
114 208 1
114 215 1
114 219 1
114 225 1
114 237 1
114 248 1
114 252 1
115 100 1
115 112 1
115 119 1
115 123 1
115 161 1
115 173 1
115 184 1
115 188 1
115 193 1
115 205 1
115 216 1
115 220 1
115 226 1
115 238 1
115 245 1
115 249 1
116 97 1
116 109 1
116 120 1
116 124 1
116 162 1
116 174 1
116 181 1
116 185 1
116 194 1
116 206 1
116 213 1
116 217 1
116 227 1
116 239 1
116 246 1
116 250 1
117 102 1
117 110 1
117 117 1
117 127 1
117 167 1
117 175 1
117 182 1
117 192 1
117 199 1
117 207 1
117 214 1
117 224 1
117 232 1
117 240 1
117 247 1
117 253 1
118 103 1
118 111 1
118 118 1
118 128 1
118 168 1
118 176 1
118 183 1
118 189 1
118 200 1
118 208 1
118 215 1
118 221 1
118 229 1
118 237 1
118 248 1
118 254 1
119 104 1
119 112 1
119 119 1
119 125 1
119 165 1
119 173 1
119 184 1
119 190 1
119 197 1
119 205 1
119 216 1
119 222 1
119 230 1
119 238 1
119 245 1
119 255 1
120 101 1
120 109 1
120 120 1
120 126 1
120 166 1
120 174 1
120 181 1
120 191 1
120 198 1
120 206 1
120 213 1
120 223 1
120 231 1
120 239 1
120 246 1
120 256 1
121 106 1
121 110 1
121 121 1
121 127 1
121 171 1
121 175 1
121 186 1
121 192 1
121 203 1
121 207 1
121 218 1
121 224 1
121 236 1
121 240 1
121 251 1
121 253 1
122 107 1
122 111 1
122 122 1
122 128 1
122 172 1
122 176 1
122 187 1
122 189 1
122 204 1
122 208 1
122 219 1
122 221 1
122 233 1
122 237 1
122 252 1
122 254 1
123 108 1
123 112 1
123 123 1
123 125 1
123 169 1
123 173 1
123 188 1
123 190 1
123 201 1
123 205 1
123 220 1
123 222 1
123 234 1
123 238 1
123 249 1
123 255 1
124 105 1
124 109 1
124 124 1
124 126 1
124 170 1
124 174 1
124 185 1
124 191 1
124 202 1
124 206 1
124 217 1
124 223 1
124 235 1
124 239 1
124 250 1
124 256 1
125 113 1
125 117 1
125 121 1
125 127 1
125 178 1
125 182 1
125 186 1
125 192 1
125 210 1
125 214 1
125 218 1
125 224 1
125 243 1
125 247 1
125 251 1
125 253 1
126 114 1
126 118 1
126 122 1
126 128 1
126 179 1
126 183 1
126 187 1
126 189 1
126 211 1
126 215 1
126 219 1
126 221 1
126 244 1
126 248 1
126 252 1
126 254 1
127 115 1
127 119 1
127 123 1
127 125 1
127 180 1
127 184 1
127 188 1
127 190 1
127 212 1
127 216 1
127 220 1
127 222 1
127 241 1
127 245 1
127 249 1
127 255 1
128 116 1
128 120 1
128 124 1
128 126 1
128 177 1
128 181 1
128 185 1
128 191 1
128 209 1
128 213 1
128 217 1
128 223 1
128 242 1
128 246 1
128 250 1
128 256 1
