%%MatrixMarket matrix coordinate integer general
256 512 4096
1 1 1
1 33 1
1 41 1
1 49 1
1 257 1
1 289 1
1 297 1
1 305 1
1 321 1
1 353 1
1 361 1
1 369 1
1 385 1
1 417 1
1 425 1
1 433 1
2 2 1
2 34 1
2 42 1
2 50 1
2 258 1
2 290 1
2 298 1
2 306 1
2 322 1
2 354 1
2 362 1
2 370 1
2 386 1
2 418 1
2 426 1
2 434 1
3 3 1
3 35 1
3 43 1
3 51 1
3 259 1
3 291 1
3 299 1
3 307 1
3 323 1
3 355 1
3 363 1
3 371 1
3 387 1
3 419 1
3 427 1
3 435 1
4 4 1
4 36 1
4 44 1
4 52 1
4 260 1
4 292 1
4 300 1
4 308 1
4 324 1
4 356 1
4 364 1
4 372 1
4 388 1
4 420 1
4 428 1
4 436 1
5 5 1
5 37 1
5 45 1
5 53 1
5 261 1
5 293 1
5 301 1
5 309 1
5 325 1
5 357 1
5 365 1
5 373 1
5 389 1
5 421 1
5 429 1
5 437 1
6 6 1
6 38 1
6 46 1
6 54 1
6 262 1
6 294 1
6 302 1
6 310 1
6 326 1
6 358 1
6 366 1
6 374 1
6 390 1
6 422 1
6 430 1
6 438 1
7 7 1
7 39 1
7 47 1
7 55 1
7 263 1
7 295 1
7 303 1
7 311 1
7 327 1
7 359 1
7 367 1
7 375 1
7 391 1
7 423 1
7 431 1
7 439 1
8 8 1
8 40 1
8 48 1
8 56 1
8 264 1
8 296 1
8 304 1
8 312 1
8 328 1
8 360 1
8 368 1
8 376 1
8 392 1
8 424 1
8 432 1
8 440 1
9 9 1
9 33 1
9 41 1
9 57 1
9 265 1
9 289 1
9 297 1
9 313 1
9 329 1
9 353 1
9 361 1
9 377 1
9 393 1
9 417 1
9 425 1
9 441 1
10 10 1
10 34 1
10 42 1
10 58 1
10 266 1
10 290 1
10 298 1
10 314 1
10 330 1
10 354 1
10 362 1
10 378 1
10 394 1
10 418 1
10 426 1
10 442 1
11 11 1
11 35 1
11 43 1
11 59 1
11 267 1
11 291 1
11 299 1
11 315 1
11 331 1
11 355 1
11 363 1
11 379 1
11 395 1
11 419 1
11 427 1
11 443 1
12 12 1
12 36 1
12 44 1
12 60 1
12 268 1
12 292 1
12 300 1
12 316 1
12 332 1
12 356 1
12 364 1
12 380 1
12 396 1
12 420 1
12 428 1
12 444 1
13 13 1
13 37 1
13 45 1
13 61 1
13 269 1
13 293 1
13 301 1
13 317 1
13 333 1
13 357 1
13 365 1
13 381 1
13 397 1
13 421 1
13 429 1
13 445 1
14 14 1
14 38 1
14 46 1
14 62 1
14 270 1
14 294 1
14 302 1
14 318 1
14 334 1
14 358 1
14 366 1
14 382 1
14 398 1
14 422 1
14 430 1
14 446 1
15 15 1
15 39 1
15 47 1
15 63 1
15 271 1
15 295 1
15 303 1
15 319 1
15 335 1
15 359 1
15 367 1
15 383 1
15 399 1
15 423 1
15 431 1
15 447 1
16 16 1
16 40 1
16 48 1
16 64 1
16 272 1
16 296 1
16 304 1
16 320 1
16 336 1
16 360 1
16 368 1
16 384 1
16 400 1
16 424 1
16 432 1
16 448 1
17 17 1
17 33 1
17 49 1
17 57 1
17 273 1
17 289 1
17 305 1
17 313 1
17 337 1
17 353 1
17 369 1
17 377 1
17 401 1
17 417 1
17 433 1
17 441 1
18 18 1
18 34 1
18 50 1
18 58 1
18 274 1
18 290 1
18 306 1
18 314 1
18 338 1
18 354 1
18 370 1
18 378 1
18 402 1
18 418 1
18 434 1
18 442 1
19 19 1
19 35 1
19 51 1
19 59 1
19 275 1
19 291 1
19 307 1
19 315 1
19 339 1
19 355 1
19 371 1
19 379 1
19 403 1
19 419 1
19 435 1
19 443 1
20 20 1
20 36 1
20 52 1
20 60 1
20 276 1
20 292 1
20 308 1
20 316 1
20 340 1
20 356 1
20 372 1
20 380 1
20 404 1
20 420 1
20 436 1
20 444 1
21 21 1
21 37 1
21 53 1
21 61 1
21 277 1
21 293 1
21 309 1
21 317 1
21 341 1
21 357 1
21 373 1
21 381 1
21 405 1
21 421 1
21 437 1
21 445 1
22 22 1
22 38 1
22 54 1
22 62 1
22 278 1
22 294 1
22 310 1
22 318 1
22 342 1
22 358 1
22 374 1
22 382 1
22 406 1
22 422 1
22 438 1
22 446 1
23 23 1
23 39 1
23 55 1
23 63 1
23 279 1
23 295 1
23 311 1
23 319 1
23 343 1
23 359 1
23 375 1
23 383 1
23 407 1
23 423 1
23 439 1
23 447 1
24 24 1
24 40 1
24 56 1
24 64 1
24 280 1
24 296 1
24 312 1
24 320 1
24 344 1
24 360 1
24 376 1
24 384 1
24 408 1
24 424 1
24 440 1
24 448 1
25 25 1
25 41 1
25 49 1
25 57 1
25 281 1
25 297 1
25 305 1
25 313 1
25 345 1
25 361 1
25 369 1
25 377 1
25 409 1
25 425 1
25 433 1
25 441 1
26 26 1
26 42 1
26 50 1
26 58 1
26 282 1
26 298 1
26 306 1
26 314 1
26 346 1
26 362 1
26 370 1
26 378 1
26 410 1
26 426 1
26 434 1
26 442 1
27 27 1
27 43 1
27 51 1
27 59 1
27 283 1
27 299 1
27 307 1
27 315 1
27 347 1
27 363 1
27 371 1
27 379 1
27 411 1
27 427 1
27 435 1
27 443 1
28 28 1
28 44 1
28 52 1
28 60 1
28 284 1
28 300 1
28 308 1
28 316 1
28 348 1
28 364 1
28 372 1
28 380 1
28 412 1
28 428 1
28 436 1
28 444 1
29 29 1
29 45 1
29 53 1
29 61 1
29 285 1
29 301 1
29 309 1
29 317 1
29 349 1
29 365 1
29 373 1
29 381 1
29 413 1
29 429 1
29 437 1
29 445 1
30 30 1
30 46 1
30 54 1
30 62 1
30 286 1
30 302 1
30 310 1
30 318 1
30 350 1
30 366 1
30 374 1
30 382 1
30 414 1
30 430 1
30 438 1
30 446 1
31 31 1
31 47 1
31 55 1
31 63 1
31 287 1
31 303 1
31 311 1
31 319 1
31 351 1
31 367 1
31 375 1
31 383 1
31 415 1
31 431 1
31 439 1
31 447 1
32 32 1
32 48 1
32 56 1
32 64 1
32 288 1
32 304 1
32 312 1
32 320 1
32 352 1
32 368 1
32 376 1
32 384 1
32 416 1
32 432 1
32 440 1
32 448 1
33 65 1
33 97 1
33 105 1
33 113 1
33 257 1
33 289 1
33 297 1
33 305 1
33 321 1
33 353 1
33 361 1
33 369 1
33 449 1
33 481 1
33 489 1
33 497 1
34 66 1
34 98 1
34 106 1
34 114 1
34 258 1
34 290 1
34 298 1
34 306 1
34 322 1
34 354 1
34 362 1
34 370 1
34 450 1
34 482 1
34 490 1
34 498 1
35 67 1
35 99 1
35 107 1
35 115 1
35 259 1
35 291 1
35 299 1
35 307 1
35 323 1
35 355 1
35 363 1
35 371 1
35 451 1
35 483 1
35 491 1
35 499 1
36 68 1
36 100 1
36 108 1
36 116 1
36 260 1
36 292 1
36 300 1
36 308 1
36 324 1
36 356 1
36 364 1
36 372 1
36 452 1
36 484 1
36 492 1
36 500 1
37 69 1
37 101 1
37 109 1
37 117 1
37 261 1
37 293 1
37 301 1
37 309 1
37 325 1
37 357 1
37 365 1
37 373 1
37 453 1
37 485 1
37 493 1
37 501 1
38 70 1
38 102 1
38 110 1
38 118 1
38 262 1
38 294 1
38 302 1
38 310 1
38 326 1
38 358 1
38 366 1
38 374 1
38 454 1
38 486 1
38 494 1
38 502 1
39 71 1
39 103 1
39 111 1
39 119 1
39 263 1
39 295 1
39 303 1
39 311 1
39 327 1
39 359 1
39 367 1
39 375 1
39 455 1
39 487 1
39 495 1
39 503 1
40 72 1
40 104 1
40 112 1
40 120 1
40 264 1
40 296 1
40 304 1
40 312 1
40 328 1
40 360 1
40 368 1
40 376 1
40 456 1
40 488 1
40 496 1
40 504 1
41 73 1
41 97 1
41 105 1
41 121 1
41 265 1
41 289 1
41 297 1
41 313 1
41 329 1
41 353 1
41 361 1
41 377 1
41 457 1
41 481 1
41 489 1
41 505 1
42 74 1
42 98 1
42 106 1
42 122 1
42 266 1
42 290 1
42 298 1
42 314 1
42 330 1
42 354 1
42 362 1
42 378 1
42 458 1
42 482 1
42 490 1
42 506 1
43 75 1
43 99 1
43 107 1
43 123 1
43 267 1
43 291 1
43 299 1
43 315 1
43 331 1
43 355 1
43 363 1
43 379 1
43 459 1
43 483 1
43 491 1
43 507 1
44 76 1
44 100 1
44 108 1
44 124 1
44 268 1
44 292 1
44 300 1
44 316 1
44 332 1
44 356 1
44 364 1
44 380 1
44 460 1
44 484 1
44 492 1
44 508 1
45 77 1
45 101 1
45 109 1
45 125 1
45 269 1
45 293 1
45 301 1
45 317 1
45 333 1
45 357 1
45 365 1
45 381 1
45 461 1
45 485 1
45 493 1
45 509 1
46 78 1
46 102 1
46 110 1
46 126 1
46 270 1
46 294 1
46 302 1
46 318 1
46 334 1
46 358 1
46 366 1
46 382 1
46 462 1
46 486 1
46 494 1
46 510 1
47 79 1
47 103 1
47 111 1
47 127 1
47 271 1
47 295 1
47 303 1
47 319 1
47 335 1
47 359 1
47 367 1
47 383 1
47 463 1
47 487 1
47 495 1
47 511 1
48 80 1
48 104 1
48 112 1
48 128 1
48 272 1
48 296 1
48 304 1
48 320 1
48 336 1
48 360 1
48 368 1
48 384 1
48 464 1
48 488 1
48 496 1
48 512 1
49 81 1
49 97 1
49 113 1
49 121 1
49 273 1
49 289 1
49 305 1
49 313 1
49 337 1
49 353 1
49 369 1
49 377 1
49 465 1
49 481 1
49 497 1
49 505 1
50 82 1
50 98 1
50 114 1
50 122 1
50 274 1
50 290 1
50 306 1
50 314 1
50 338 1
50 354 1
50 370 1
50 378 1
50 466 1
50 482 1
50 498 1
50 506 1
51 83 1
51 99 1
51 115 1
51 123 1
51 275 1
51 291 1
51 307 1
51 315 1
51 339 1
51 355 1
51 371 1
51 379 1
51 467 1
51 483 1
51 499 1
51 507 1
52 84 1
52 100 1
52 116 1
52 124 1
52 276 1
52 292 1
52 308 1
52 316 1
52 340 1
52 356 1
52 372 1
52 380 1
52 468 1
52 484 1
52 500 1
52 508 1
53 85 1
53 101 1
53 117 1
53 125 1
53 277 1
53 293 1
53 309 1
53 317 1
53 341 1
53 357 1
53 373 1
53 381 1
53 469 1
53 485 1
53 501 1
53 509 1
54 86 1
54 102 1
54 118 1
54 126 1
54 278 1
54 294 1
54 310 1
54 318 1
54 342 1
54 358 1
54 374 1
54 382 1
54 470 1
54 486 1
54 502 1
54 510 1
55 87 1
55 103 1
55 119 1
55 127 1
55 279 1
55 295 1
55 311 1
55 319 1
55 343 1
55 359 1
55 375 1
55 383 1
55 471 1
55 487 1
55 503 1
55 511 1
56 88 1
56 104 1
56 120 1
56 128 1
56 280 1
56 296 1
56 312 1
56 320 1
56 344 1
56 360 1
56 376 1
56 384 1
56 472 1
56 488 1
56 504 1
56 512 1
57 89 1
57 105 1
57 113 1
57 121 1
57 281 1
57 297 1
57 305 1
57 313 1
57 345 1
57 361 1
57 369 1
57 377 1
57 473 1
57 489 1
57 497 1
57 505 1
58 90 1
58 106 1
58 114 1
58 122 1
58 282 1
58 298 1
58 306 1
58 314 1
58 346 1
58 362 1
58 370 1
58 378 1
58 474 1
58 490 1
58 498 1
58 506 1
59 91 1
59 107 1
59 115 1
59 123 1
59 283 1
59 299 1
59 307 1
59 315 1
59 347 1
59 363 1
59 371 1
59 379 1
59 475 1
59 491 1
59 499 1
59 507 1
60 92 1
60 108 1
60 116 1
60 124 1
60 284 1
60 300 1
60 308 1
60 316 1
60 348 1
60 364 1
60 372 1
60 380 1
60 476 1
60 492 1
60 500 1
60 508 1
61 93 1
61 109 1
61 117 1
61 125 1
61 285 1
61 301 1
61 309 1
61 317 1
61 349 1
61 365 1
61 373 1
61 381 1
61 477 1
61 493 1
61 501 1
61 509 1
62 94 1
62 110 1
62 118 1
62 126 1
62 286 1
62 302 1
62 310 1
62 318 1
62 350 1
62 366 1
62 374 1
62 382 1
62 478 1
62 494 1
62 502 1
62 510 1
63 95 1
63 111 1
63 119 1
63 127 1
63 287 1
63 303 1
63 311 1
63 319 1
63 351 1
63 367 1
63 375 1
63 383 1
63 479 1
63 495 1
63 503 1
63 511 1
64 96 1
64 112 1
64 120 1
64 128 1
64 288 1
64 304 1
64 312 1
64 320 1
64 352 1
64 368 1
64 376 1
64 384 1
64 480 1
64 496 1
64 504 1
64 512 1
65 129 1
65 161 1
65 169 1
65 177 1
65 257 1
65 289 1
65 297 1
65 305 1
65 385 1
65 417 1
65 425 1
65 433 1
65 449 1
65 481 1
65 489 1
65 497 1
66 130 1
66 162 1
66 170 1
66 178 1
66 258 1
66 290 1
66 298 1
66 306 1
66 386 1
66 418 1
66 426 1
66 434 1
66 450 1
66 482 1
66 490 1
66 498 1
67 131 1
67 163 1
67 171 1
67 179 1
67 259 1
67 291 1
67 299 1
67 307 1
67 387 1
67 419 1
67 427 1
67 435 1
67 451 1
67 483 1
67 491 1
67 499 1
68 132 1
68 164 1
68 172 1
68 180 1
68 260 1
68 292 1
68 300 1
68 308 1
68 388 1
68 420 1
68 428 1
68 436 1
68 452 1
68 484 1
68 492 1
68 500 1
69 133 1
69 165 1
69 173 1
69 181 1
69 261 1
69 293 1
69 301 1
69 309 1
69 389 1
69 421 1
69 429 1
69 437 1
69 453 1
69 485 1
69 493 1
69 501 1
70 134 1
70 166 1
70 174 1
70 182 1
70 262 1
70 294 1
70 302 1
70 310 1
70 390 1
70 422 1
70 430 1
70 438 1
70 454 1
70 486 1
70 494 1
70 502 1
71 135 1
71 167 1
71 175 1
71 183 1
71 263 1
71 295 1
71 303 1
71 311 1
71 391 1
71 423 1
71 431 1
71 439 1
71 455 1
71 487 1
71 495 1
71 503 1
72 136 1
72 168 1
72 176 1
72 184 1
72 264 1
72 296 1
72 304 1
72 312 1
72 392 1
72 424 1
72 432 1
72 440 1
72 456 1
72 488 1
72 496 1
72 504 1
73 137 1
73 161 1
73 169 1
73 185 1
73 265 1
73 289 1
73 297 1
73 313 1
73 393 1
73 417 1
73 425 1
73 441 1
73 457 1
73 481 1
73 489 1
73 505 1
74 138 1
74 162 1
74 170 1
74 186 1
74 266 1
74 290 1
74 298 1
74 314 1
74 394 1
74 418 1
74 426 1
74 442 1
74 458 1
74 482 1
74 490 1
74 506 1
75 139 1
75 163 1
75 171 1
75 187 1
75 267 1
75 291 1
75 299 1
75 315 1
75 395 1
75 419 1
75 427 1
75 443 1
75 459 1
75 483 1
75 491 1
75 507 1
76 140 1
76 164 1
76 172 1
76 188 1
76 268 1
76 292 1
76 300 1
76 316 1
76 396 1
76 420 1
76 428 1
76 444 1
76 460 1
76 484 1
76 492 1
76 508 1
77 141 1
77 165 1
77 173 1
77 189 1
77 269 1
77 293 1
77 301 1
77 317 1
77 397 1
77 421 1
77 429 1
77 445 1
77 461 1
77 485 1
77 493 1
77 509 1
78 142 1
78 166 1
78 174 1
78 190 1
78 270 1
78 294 1
78 302 1
78 318 1
78 398 1
78 422 1
78 430 1
78 446 1
78 462 1
78 486 1
78 494 1
78 510 1
79 143 1
79 167 1
79 175 1
79 191 1
79 271 1
79 295 1
79 303 1
79 319 1
79 399 1
79 423 1
79 431 1
79 447 1
79 463 1
79 487 1
79 495 1
79 511 1
80 144 1
80 168 1
80 176 1
80 192 1
80 272 1
80 296 1
80 304 1
80 320 1
80 400 1
80 424 1
80 432 1
80 448 1
80 464 1
80 488 1
80 496 1
80 512 1
81 145 1
81 161 1
81 177 1
81 185 1
81 273 1
81 289 1
81 305 1
81 313 1
81 401 1
81 417 1
81 433 1
81 441 1
81 465 1
81 481 1
81 497 1
81 505 1
82 146 1
82 162 1
82 178 1
82 186 1
82 274 1
82 290 1
82 306 1
82 314 1
82 402 1
82 418 1
82 434 1
82 442 1
82 466 1
82 482 1
82 498 1
82 506 1
83 147 1
83 163 1
83 179 1
83 187 1
83 275 1
83 291 1
83 307 1
83 315 1
83 403 1
83 419 1
83 435 1
83 443 1
83 467 1
83 483 1
83 499 1
83 507 1
84 148 1
84 164 1
84 180 1
84 188 1
84 276 1
84 292 1
84 308 1
84 316 1
84 404 1
84 420 1
84 436 1
84 444 1
84 468 1
84 484 1
84 500 1
84 508 1
85 149 1
85 165 1
85 181 1
85 189 1
85 277 1
85 293 1
85 309 1
85 317 1
85 405 1
85 421 1
85 437 1
85 445 1
85 469 1
85 485 1
85 501 1
85 509 1
86 150 1
86 166 1
86 182 1
86 190 1
86 278 1
86 294 1
86 310 1
86 318 1
86 406 1
86 422 1
86 438 1
86 446 1
86 470 1
86 486 1
86 502 1
86 510 1
87 151 1
87 167 1
87 183 1
87 191 1
87 279 1
87 295 1
87 311 1
87 319 1
87 407 1
87 423 1
87 439 1
87 447 1
87 471 1
87 487 1
87 503 1
87 511 1
88 152 1
88 168 1
88 184 1
88 192 1
88 280 1
88 296 1
88 312 1
88 320 1
88 408 1
88 424 1
88 440 1
88 448 1
88 472 1
88 488 1
88 504 1
88 512 1
89 153 1
89 169 1
89 177 1
89 185 1
89 281 1
89 297 1
89 305 1
89 313 1
89 409 1
89 425 1
89 433 1
89 441 1
89 473 1
89 489 1
89 497 1
89 505 1
90 154 1
90 170 1
90 178 1
90 186 1
90 282 1
90 298 1
90 306 1
90 314 1
90 410 1
90 426 1
90 434 1
90 442 1
90 474 1
90 490 1
90 498 1
90 506 1
91 155 1
91 171 1
91 179 1
91 187 1
91 283 1
91 299 1
91 307 1
91 315 1
91 411 1
91 427 1
91 435 1
91 443 1
91 475 1
91 491 1
91 499 1
91 507 1
92 156 1
92 172 1
92 180 1
92 188 1
92 284 1
92 300 1
92 308 1
92 316 1
92 412 1
92 428 1
92 436 1
92 444 1
92 476 1
92 492 1
92 500 1
92 508 1
93 157 1
93 173 1
93 181 1
93 189 1
93 285 1
93 301 1
93 309 1
93 317 1
93 413 1
93 429 1
93 437 1
93 445 1
93 477 1
93 493 1
93 501 1
93 509 1
94 158 1
94 174 1
94 182 1
94 190 1
94 286 1
94 302 1
94 310 1
94 318 1
94 414 1
94 430 1
94 438 1
94 446 1
94 478 1
94 494 1
94 502 1
94 510 1
95 159 1
95 175 1
95 183 1
95 191 1
95 287 1
95 303 1
95 311 1
95 319 1
95 415 1
95 431 1
95 439 1
95 447 1
95 479 1
95 495 1
95 503 1
95 511 1
96 160 1
96 176 1
96 184 1
96 192 1
96 288 1
96 304 1
96 312 1
96 320 1
96 416 1
96 432 1
96 440 1
96 448 1
96 480 1
96 496 1
96 504 1
96 512 1
97 193 1
97 225 1
97 233 1
97 241 1
97 321 1
97 353 1
97 361 1
97 369 1
97 385 1
97 417 1
97 425 1
97 433 1
97 449 1
97 481 1
97 489 1
97 497 1
98 194 1
98 226 1
98 234 1
98 242 1
98 322 1
98 354 1
98 362 1
98 370 1
98 386 1
98 418 1
98 426 1
98 434 1
98 450 1
98 482 1
98 490 1
98 498 1
99 195 1
99 227 1
99 235 1
99 243 1
99 323 1
99 355 1
99 363 1
99 371 1
99 387 1
99 419 1
99 427 1
99 435 1
99 451 1
99 483 1
99 491 1
99 499 1
100 196 1
100 228 1
100 236 1
100 244 1
100 324 1
100 356 1
100 364 1
100 372 1
100 388 1
100 420 1
100 428 1
100 436 1
100 452 1
100 484 1
100 492 1
100 500 1
101 197 1
101 229 1
101 237 1
101 245 1
101 325 1
101 357 1
101 365 1
101 373 1
101 389 1
101 421 1
101 429 1
101 437 1
101 453 1
101 485 1
101 493 1
101 501 1
102 198 1
102 230 1
102 238 1
102 246 1
102 326 1
102 358 1
102 366 1
102 374 1
102 390 1
102 422 1
102 430 1
102 438 1
102 454 1
102 486 1
102 494 1
102 502 1
103 199 1
103 231 1
103 239 1
103 247 1
103 327 1
103 359 1
103 367 1
103 375 1
103 391 1
103 423 1
103 431 1
103 439 1
103 455 1
103 487 1
103 495 1
103 503 1
104 200 1
104 232 1
104 240 1
104 248 1
104 328 1
104 360 1
104 368 1
104 376 1
104 392 1
104 424 1
104 432 1
104 440 1
104 456 1
104 488 1
104 496 1
104 504 1
105 201 1
105 225 1
105 233 1
105 249 1
105 329 1
105 353 1
105 361 1
105 377 1
105 393 1
105 417 1
105 425 1
105 441 1
105 457 1
105 481 1
105 489 1
105 505 1
106 202 1
106 226 1
106 234 1
106 250 1
106 330 1
106 354 1
106 362 1
106 378 1
106 394 1
106 418 1
106 426 1
106 442 1
106 458 1
106 482 1
106 490 1
106 506 1
107 203 1
107 227 1
107 235 1
107 251 1
107 331 1
107 355 1
107 363 1
107 379 1
107 395 1
107 419 1
107 427 1
107 443 1
107 459 1
107 483 1
107 491 1
107 507 1
108 204 1
108 228 1
108 236 1
108 252 1
108 332 1
108 356 1
108 364 1
108 380 1
108 396 1
108 420 1
108 428 1
108 444 1
108 460 1
108 484 1
108 492 1
108 508 1
109 205 1
109 229 1
109 237 1
109 253 1
109 333 1
109 357 1
109 365 1
109 381 1
109 397 1
109 421 1
109 429 1
109 445 1
109 461 1
109 485 1
109 493 1
109 509 1
110 206 1
110 230 1
110 238 1
110 254 1
110 334 1
110 358 1
110 366 1
110 382 1
110 398 1
110 422 1
110 430 1
110 446 1
110 462 1
110 486 1
110 494 1
110 510 1
111 207 1
111 231 1
111 239 1
111 255 1
111 335 1
111 359 1
111 367 1
111 383 1
111 399 1
111 423 1
111 431 1
111 447 1
111 463 1
111 487 1
111 495 1
111 511 1
112 208 1
112 232 1
112 240 1
112 256 1
112 336 1
112 360 1
112 368 1
112 384 1
112 400 1
112 424 1
112 432 1
112 448 1
112 464 1
112 488 1
112 496 1
112 512 1
113 209 1
113 225 1
113 241 1
113 249 1
113 337 1
113 353 1
113 369 1
113 377 1
113 401 1
113 417 1
113 433 1
113 441 1
113 465 1
113 481 1
113 497 1
113 505 1
114 210 1
114 226 1
114 242 1
114 250 1
114 338 1
114 354 1
114 370 1
114 378 1
114 402 1
114 418 1
114 434 1
114 442 1
114 466 1
114 482 1
114 498 1
114 506 1
115 211 1
115 227 1
115 243 1
115 251 1
115 339 1
115 355 1
115 371 1
115 379 1
115 403 1
115 419 1
115 435 1
115 443 1
115 467 1
115 483 1
115 499 1
115 507 1
116 212 1
116 228 1
116 244 1
116 252 1
116 340 1
116 356 1
116 372 1
116 380 1
116 404 1
116 420 1
116 436 1
116 444 1
116 468 1
116 484 1
116 500 1
116 508 1
117 213 1
117 229 1
117 245 1
117 253 1
117 341 1
117 357 1
117 373 1
117 381 1
117 405 1
117 421 1
117 437 1
117 445 1
117 469 1
117 485 1
117 501 1
117 509 1
118 214 1
118 230 1
118 246 1
118 254 1
118 342 1
118 358 1
118 374 1
118 382 1
118 406 1
118 422 1
118 438 1
118 446 1
118 470 1
118 486 1
118 502 1
118 510 1
119 215 1
119 231 1
119 247 1
119 255 1
119 343 1
119 359 1
119 375 1
119 383 1
119 407 1
119 423 1
119 439 1
119 447 1
119 471 1
119 487 1
119 503 1
119 511 1
120 216 1
120 232 1
120 248 1
120 256 1
120 344 1
120 360 1
120 376 1
120 384 1
120 408 1
120 424 1
120 440 1
120 448 1
120 472 1
120 488 1
120 504 1
120 512 1
121 217 1
121 233 1
121 241 1
121 249 1
121 345 1
121 361 1
121 369 1
121 377 1
121 409 1
121 425 1
121 433 1
121 441 1
121 473 1
121 489 1
121 497 1
121 505 1
122 218 1
122 234 1
122 242 1
122 250 1
122 346 1
122 362 1
122 370 1
122 378 1
122 410 1
122 426 1
122 434 1
122 442 1
122 474 1
122 490 1
122 498 1
122 506 1
123 219 1
123 235 1
123 243 1
123 251 1
123 347 1
123 363 1
123 371 1
123 379 1
123 411 1
123 427 1
123 435 1
123 443 1
123 475 1
123 491 1
123 499 1
123 507 1
124 220 1
124 236 1
124 244 1
124 252 1
124 348 1
124 364 1
124 372 1
124 380 1
124 412 1
124 428 1
124 436 1
124 444 1
124 476 1
124 492 1
124 500 1
124 508 1
125 221 1
125 237 1
125 245 1
125 253 1
125 349 1
125 365 1
125 373 1
125 381 1
125 413 1
125 429 1
125 437 1
125 445 1
125 477 1
125 493 1
125 501 1
125 509 1
126 222 1
126 238 1
126 246 1
126 254 1
126 350 1
126 366 1
126 374 1
126 382 1
126 414 1
126 430 1
126 438 1
126 446 1
126 478 1
126 494 1
126 502 1
126 510 1
127 223 1
127 239 1
127 247 1
127 255 1
127 351 1
127 367 1
127 375 1
127 383 1
127 415 1
127 431 1
127 439 1
127 447 1
127 479 1
127 495 1
127 503 1
127 511 1
128 224 1
128 240 1
128 248 1
128 256 1
128 352 1
128 368 1
128 376 1
128 384 1
128 416 1
128 432 1
128 440 1
128 448 1
128 480 1
128 496 1
128 504 1
128 512 1
129 1 1
129 33 1
129 41 1
129 58 1
129 261 1
129 293 1
129 301 1
129 316 1
129 391 1
129 423 1
129 431 1
129 448 1
129 456 1
129 488 1
129 496 1
129 505 1
130 2 1
130 34 1
130 42 1
130 59 1
130 260 1
130 292 1
130 300 1
130 318 1
130 392 1
130 424 1
130 432 1
130 441 1
130 449 1
130 481 1
130 489 1
130 506 1
131 3 1
131 35 1
131 43 1
131 61 1
131 262 1
131 294 1
131 302 1
131 319 1
131 385 1
131 417 1
131 425 1
131 442 1
131 450 1
131 482 1
131 490 1
131 507 1
132 4 1
132 36 1
132 44 1
132 62 1
132 264 1
132 296 1
132 304 1
132 313 1
132 387 1
132 419 1
132 427 1
132 445 1
132 453 1
132 485 1
132 493 1
132 508 1
133 5 1
133 37 1
133 45 1
133 60 1
133 263 1
133 295 1
133 303 1
133 320 1
133 386 1
133 418 1
133 426 1
133 443 1
133 451 1
133 483 1
133 491 1
133 509 1
134 6 1
134 38 1
134 46 1
134 63 1
134 257 1
134 289 1
134 297 1
134 314 1
134 389 1
134 421 1
134 429 1
134 444 1
134 452 1
134 484 1
134 492 1
134 510 1
135 7 1
135 39 1
135 47 1
135 64 1
135 258 1
135 290 1
135 298 1
135 315 1
135 388 1
135 420 1
135 428 1
135 446 1
135 454 1
135 486 1
135 494 1
135 511 1
136 8 1
136 40 1
136 48 1
136 57 1
136 259 1
136 291 1
136 299 1
136 317 1
136 390 1
136 422 1
136 430 1
136 447 1
136 455 1
136 487 1
136 495 1
136 512 1
137 9 1
137 33 1
137 55 1
137 58 1
137 269 1
137 293 1
137 306 1
137 316 1
137 399 1
137 423 1
137 436 1
137 448 1
137 464 1
137 488 1
137 502 1
137 505 1
138 10 1
138 34 1
138 56 1
138 59 1
138 268 1
138 292 1
138 307 1
138 318 1
138 400 1
138 424 1
138 438 1
138 441 1
138 457 1
138 481 1
138 503 1
138 506 1
139 11 1
139 35 1
139 49 1
139 61 1
139 270 1
139 294 1
139 309 1
139 319 1
139 393 1
139 417 1
139 439 1
139 442 1
139 458 1
139 482 1
139 504 1
139 507 1
140 12 1
140 36 1
140 51 1
140 62 1
140 272 1
140 296 1
140 310 1
140 313 1
140 395 1
140 419 1
140 433 1
140 445 1
140 461 1
140 485 1
140 498 1
140 508 1
141 13 1
141 37 1
141 50 1
141 60 1
141 271 1
141 295 1
141 308 1
141 320 1
141 394 1
141 418 1
141 440 1
141 443 1
141 459 1
141 483 1
141 497 1
141 509 1
142 14 1
142 38 1
142 53 1
142 63 1
142 265 1
142 289 1
142 311 1
142 314 1
142 397 1
142 421 1
142 434 1
142 444 1
142 460 1
142 484 1
142 499 1
142 510 1
143 15 1
143 39 1
143 52 1
143 64 1
143 266 1
143 290 1
143 312 1
143 315 1
143 396 1
143 420 1
143 435 1
143 446 1
143 462 1
143 486 1
143 501 1
143 511 1
144 16 1
144 40 1
144 54 1
144 57 1
144 267 1
144 291 1
144 305 1
144 317 1
144 398 1
144 422 1
144 437 1
144 447 1
144 463 1
144 487 1
144 500 1
144 512 1
145 17 1
145 41 1
145 55 1
145 58 1
145 277 1
145 301 1
145 306 1
145 316 1
145 407 1
145 431 1
145 436 1
145 448 1
145 472 1
145 496 1
145 502 1
145 505 1
146 18 1
146 42 1
146 56 1
146 59 1
146 276 1
146 300 1
146 307 1
146 318 1
146 408 1
146 432 1
146 438 1
146 441 1
146 465 1
146 489 1
146 503 1
146 506 1
147 19 1
147 43 1
147 49 1
147 61 1
147 278 1
147 302 1
147 309 1
147 319 1
147 401 1
147 425 1
147 439 1
147 442 1
147 466 1
147 490 1
147 504 1
147 507 1
148 20 1
148 44 1
148 51 1
148 62 1
148 280 1
148 304 1
148 310 1
148 313 1
148 403 1
148 427 1
148 433 1
148 445 1
148 469 1
148 493 1
148 498 1
148 508 1
149 21 1
149 45 1
149 50 1
149 60 1
149 279 1
149 303 1
149 308 1
149 320 1
149 402 1
149 426 1
149 440 1
149 443 1
149 467 1
149 491 1
149 497 1
149 509 1
150 22 1
150 46 1
150 53 1
150 63 1
150 273 1
150 297 1
150 311 1
150 314 1
150 405 1
150 429 1
150 434 1
150 444 1
150 468 1
150 492 1
150 499 1
150 510 1
151 23 1
151 47 1
151 52 1
151 64 1
151 274 1
151 298 1
151 312 1
151 315 1
151 404 1
151 428 1
151 435 1
151 446 1
151 470 1
151 494 1
151 501 1
151 511 1
152 24 1
152 48 1
152 54 1
152 57 1
152 275 1
152 299 1
152 305 1
152 317 1
152 406 1
152 430 1
152 437 1
152 447 1
152 471 1
152 495 1
152 500 1
152 512 1
153 25 1
153 33 1
153 41 1
153 55 1
153 285 1
153 293 1
153 301 1
153 306 1
153 415 1
153 423 1
153 431 1
153 436 1
153 480 1
153 488 1
153 496 1
153 502 1
154 26 1
154 34 1
154 42 1
154 56 1
154 284 1
154 292 1
154 300 1
154 307 1
154 416 1
154 424 1
154 432 1
154 438 1
154 473 1
154 481 1
154 489 1
154 503 1
155 27 1
155 35 1
155 43 1
155 49 1
155 286 1
155 294 1
155 302 1
155 309 1
155 409 1
155 417 1
155 425 1
155 439 1
155 474 1
155 482 1
155 490 1
155 504 1
156 28 1
156 36 1
156 44 1
156 51 1
156 288 1
156 296 1
156 304 1
156 310 1
156 411 1
156 419 1
156 427 1
156 433 1
156 477 1
156 485 1
156 493 1
156 498 1
157 29 1
157 37 1
157 45 1
157 50 1
157 287 1
157 295 1
157 303 1
157 308 1
157 410 1
157 418 1
157 426 1
157 440 1
157 475 1
157 483 1
157 491 1
157 497 1
158 30 1
158 38 1
158 46 1
158 53 1
158 281 1
158 289 1
158 297 1
158 311 1
158 413 1
158 421 1
158 429 1
158 434 1
158 476 1
158 484 1
158 492 1
158 499 1
159 31 1
159 39 1
159 47 1
159 52 1
159 282 1
159 290 1
159 298 1
159 312 1
159 412 1
159 420 1
159 428 1
159 435 1
159 478 1
159 486 1
159 494 1
159 501 1
160 32 1
160 40 1
160 48 1
160 54 1
160 283 1
160 291 1
160 299 1
160 305 1
160 414 1
160 422 1
160 430 1
160 437 1
160 479 1
160 487 1
160 495 1
160 500 1
161 66 1
161 98 1
161 106 1
161 123 1
161 261 1
161 293 1
161 301 1
161 316 1
161 326 1
161 358 1
161 366 1
161 383 1
161 391 1
161 423 1
161 431 1
161 448 1
162 67 1
162 99 1
162 107 1
162 125 1
162 260 1
162 292 1
162 300 1
162 318 1
162 327 1
162 359 1
162 367 1
162 384 1
162 392 1
162 424 1
162 432 1
162 441 1
163 69 1
163 101 1
163 109 1
163 124 1
163 262 1
163 294 1
163 302 1
163 319 1
163 328 1
163 360 1
163 368 1
163 377 1
163 385 1
163 417 1
163 425 1
163 442 1
164 70 1
164 102 1
164 110 1
164 127 1
164 264 1
164 296 1
164 304 1
164 313 1
164 322 1
164 354 1
164 362 1
164 379 1
164 387 1
164 419 1
164 427 1
164 445 1
165 68 1
165 100 1
165 108 1
165 126 1
165 263 1
165 295 1
165 303 1
165 320 1
165 321 1
165 353 1
165 361 1
165 378 1
165 386 1
165 418 1
165 426 1
165 443 1
166 71 1
166 103 1
166 111 1
166 128 1
166 257 1
166 289 1
166 297 1
166 314 1
166 323 1
166 355 1
166 363 1
166 381 1
166 389 1
166 421 1
166 429 1
166 444 1
167 72 1
167 104 1
167 112 1
167 121 1
167 258 1
167 290 1
167 298 1
167 315 1
167 325 1
167 357 1
167 365 1
167 380 1
167 388 1
167 420 1
167 428 1
167 446 1
168 65 1
168 97 1
168 105 1
168 122 1
168 259 1
168 291 1
168 299 1
168 317 1
168 324 1
168 356 1
168 364 1
168 382 1
168 390 1
168 422 1
168 430 1
168 447 1
169 74 1
169 98 1
169 120 1
169 123 1
169 269 1
169 293 1
169 306 1
169 316 1
169 334 1
169 358 1
169 373 1
169 383 1
169 399 1
169 423 1
169 436 1
169 448 1
170 75 1
170 99 1
170 113 1
170 125 1
170 268 1
170 292 1
170 307 1
170 318 1
170 335 1
170 359 1
170 372 1
170 384 1
170 400 1
170 424 1
170 438 1
170 441 1
171 77 1
171 101 1
171 114 1
171 124 1
171 270 1
171 294 1
171 309 1
171 319 1
171 336 1
171 360 1
171 374 1
171 377 1
171 393 1
171 417 1
171 439 1
171 442 1
172 78 1
172 102 1
172 117 1
172 127 1
172 272 1
172 296 1
172 310 1
172 313 1
172 330 1
172 354 1
172 376 1
172 379 1
172 395 1
172 419 1
172 433 1
172 445 1
173 76 1
173 100 1
173 115 1
173 126 1
173 271 1
173 295 1
173 308 1
173 320 1
173 329 1
173 353 1
173 375 1
173 378 1
173 394 1
173 418 1
173 440 1
173 443 1
174 79 1
174 103 1
174 116 1
174 128 1
174 265 1
174 289 1
174 311 1
174 314 1
174 331 1
174 355 1
174 369 1
174 381 1
174 397 1
174 421 1
174 434 1
174 444 1
175 80 1
175 104 1
175 118 1
175 121 1
175 266 1
175 290 1
175 312 1
175 315 1
175 333 1
175 357 1
175 370 1
175 380 1
175 396 1
175 420 1
175 435 1
175 446 1
176 73 1
176 97 1
176 119 1
176 122 1
176 267 1
176 291 1
176 305 1
176 317 1
176 332 1
176 356 1
176 371 1
176 382 1
176 398 1
176 422 1
176 437 1
176 447 1
177 82 1
177 106 1
177 120 1
177 123 1
177 277 1
177 301 1
177 306 1
177 316 1
177 342 1
177 366 1
177 373 1
177 383 1
177 407 1
177 431 1
177 436 1
177 448 1
178 83 1
178 107 1
178 113 1
178 125 1
178 276 1
178 300 1
178 307 1
178 318 1
178 343 1
178 367 1
178 372 1
178 384 1
178 408 1
178 432 1
178 438 1
178 441 1
179 85 1
179 109 1
179 114 1
179 124 1
179 278 1
179 302 1
179 309 1
179 319 1
179 344 1
179 368 1
179 374 1
179 377 1
179 401 1
179 425 1
179 439 1
179 442 1
180 86 1
180 110 1
180 117 1
180 127 1
180 280 1
180 304 1
180 310 1
180 313 1
180 338 1
180 362 1
180 376 1
180 379 1
180 403 1
180 427 1
180 433 1
180 445 1
181 84 1
181 108 1
181 115 1
181 126 1
181 279 1
181 303 1
181 308 1
181 320 1
181 337 1
181 361 1
181 375 1
181 378 1
181 402 1
181 426 1
181 440 1
181 443 1
182 87 1
182 111 1
182 116 1
182 128 1
182 273 1
182 297 1
182 311 1
182 314 1
182 339 1
182 363 1
182 369 1
182 381 1
182 405 1
182 429 1
182 434 1
182 444 1
183 88 1
183 112 1
183 118 1
183 121 1
183 274 1
183 298 1
183 312 1
183 315 1
183 341 1
183 365 1
183 370 1
183 380 1
183 404 1
183 428 1
183 435 1
183 446 1
184 81 1
184 105 1
184 119 1
184 122 1
184 275 1
184 299 1
184 305 1
184 317 1
184 340 1
184 364 1
184 371 1
184 382 1
184 406 1
184 430 1
184 437 1
184 447 1
185 90 1
185 98 1
185 106 1
185 120 1
185 285 1
185 293 1
185 301 1
185 306 1
185 350 1
185 358 1
185 366 1
185 373 1
185 415 1
185 423 1
185 431 1
185 436 1
186 91 1
186 99 1
186 107 1
186 113 1
186 284 1
186 292 1
186 300 1
186 307 1
186 351 1
186 359 1
186 367 1
186 372 1
186 416 1
186 424 1
186 432 1
186 438 1
187 93 1
187 101 1
187 109 1
187 114 1
187 286 1
187 294 1
187 302 1
187 309 1
187 352 1
187 360 1
187 368 1
187 374 1
187 409 1
187 417 1
187 425 1
187 439 1
188 94 1
188 102 1
188 110 1
188 117 1
188 288 1
188 296 1
188 304 1
188 310 1
188 346 1
188 354 1
188 362 1
188 376 1
188 411 1
188 419 1
188 427 1
188 433 1
189 92 1
189 100 1
189 108 1
189 115 1
189 287 1
189 295 1
189 303 1
189 308 1
189 345 1
189 353 1
189 361 1
189 375 1
189 410 1
189 418 1
189 426 1
189 440 1
190 95 1
190 103 1
190 111 1
190 116 1
190 281 1
190 289 1
190 297 1
190 311 1
190 347 1
190 355 1
190 363 1
190 369 1
190 413 1
190 421 1
190 429 1
190 434 1
191 96 1
191 104 1
191 112 1
191 118 1
191 282 1
191 290 1
191 298 1
191 312 1
191 349 1
191 357 1
191 365 1
191 370 1
191 412 1
191 420 1
191 428 1
191 435 1
192 89 1
192 97 1
192 105 1
192 119 1
192 283 1
192 291 1
192 299 1
192 305 1
192 348 1
192 356 1
192 364 1
192 371 1
192 414 1
192 422 1
192 430 1
192 437 1
193 131 1
193 163 1
193 171 1
193 189 1
193 261 1
193 293 1
193 301 1
193 316 1
193 326 1
193 358 1
193 366 1
193 383 1
193 456 1
193 488 1
193 496 1
193 505 1
194 133 1
194 165 1
194 173 1
194 188 1
194 260 1
194 292 1
194 300 1
194 318 1
194 327 1
194 359 1
194 367 1
194 384 1
194 449 1
194 481 1
194 489 1
194 506 1
195 132 1
195 164 1
195 172 1
195 190 1
195 262 1
195 294 1
195 302 1
195 319 1
195 328 1
195 360 1
195 368 1
195 377 1
195 450 1
195 482 1
195 490 1
195 507 1
196 135 1
196 167 1
196 175 1
196 192 1
196 264 1
196 296 1
196 304 1
196 313 1
196 322 1
196 354 1
196 362 1
196 379 1
196 453 1
196 485 1
196 493 1
196 508 1
197 134 1
197 166 1
197 174 1
197 191 1
197 263 1
197 295 1
197 303 1
197 320 1
197 321 1
197 353 1
197 361 1
197 378 1
197 451 1
197 483 1
197 491 1
197 509 1
198 136 1
198 168 1
198 176 1
198 185 1
198 257 1
198 289 1
198 297 1
198 314 1
198 323 1
198 355 1
198 363 1
198 381 1
198 452 1
198 484 1
198 492 1
198 510 1
199 129 1
199 161 1
199 169 1
199 186 1
199 258 1
199 290 1
199 298 1
199 315 1
199 325 1
199 357 1
199 365 1
199 380 1
199 454 1
199 486 1
199 494 1
199 511 1
200 130 1
200 162 1
200 170 1
200 187 1
200 259 1
200 291 1
200 299 1
200 317 1
200 324 1
200 356 1
200 364 1
200 382 1
200 455 1
200 487 1
200 495 1
200 512 1
201 139 1
201 163 1
201 177 1
201 189 1
201 269 1
201 293 1
201 306 1
201 316 1
201 334 1
201 358 1
201 373 1
201 383 1
201 464 1
201 488 1
201 502 1
201 505 1
202 141 1
202 165 1
202 178 1
202 188 1
202 268 1
202 292 1
202 307 1
202 318 1
202 335 1
202 359 1
202 372 1
202 384 1
202 457 1
202 481 1
202 503 1
202 506 1
203 140 1
203 164 1
203 179 1
203 190 1
203 270 1
203 294 1
203 309 1
203 319 1
203 336 1
203 360 1
203 374 1
203 377 1
203 458 1
203 482 1
203 504 1
203 507 1
204 143 1
204 167 1
204 180 1
204 192 1
204 272 1
204 296 1
204 310 1
204 313 1
204 330 1
204 354 1
204 376 1
204 379 1
204 461 1
204 485 1
204 498 1
204 508 1
205 142 1
205 166 1
205 181 1
205 191 1
205 271 1
205 295 1
205 308 1
205 320 1
205 329 1
205 353 1
205 375 1
205 378 1
205 459 1
205 483 1
205 497 1
205 509 1
206 144 1
206 168 1
206 182 1
206 185 1
206 265 1
206 289 1
206 311 1
206 314 1
206 331 1
206 355 1
206 369 1
206 381 1
206 460 1
206 484 1
206 499 1
206 510 1
207 137 1
207 161 1
207 183 1
207 186 1
207 266 1
207 290 1
207 312 1
207 315 1
207 333 1
207 357 1
207 370 1
207 380 1
207 462 1
207 486 1
207 501 1
207 511 1
208 138 1
208 162 1
208 184 1
208 187 1
208 267 1
208 291 1
208 305 1
208 317 1
208 332 1
208 356 1
208 371 1
208 382 1
208 463 1
208 487 1
208 500 1
208 512 1
209 147 1
209 171 1
209 177 1
209 189 1
209 277 1
209 301 1
209 306 1
209 316 1
209 342 1
209 366 1
209 373 1
209 383 1
209 472 1
209 496 1
209 502 1
209 505 1
210 149 1
210 173 1
210 178 1
210 188 1
210 276 1
210 300 1
210 307 1
210 318 1
210 343 1
210 367 1
210 372 1
210 384 1
210 465 1
210 489 1
210 503 1
210 506 1
211 148 1
211 172 1
211 179 1
211 190 1
211 278 1
211 302 1
211 309 1
211 319 1
211 344 1
211 368 1
211 374 1
211 377 1
211 466 1
211 490 1
211 504 1
211 507 1
212 151 1
212 175 1
212 180 1
212 192 1
212 280 1
212 304 1
212 310 1
212 313 1
212 338 1
212 362 1
212 376 1
212 379 1
212 469 1
212 493 1
212 498 1
212 508 1
213 150 1
213 174 1
213 181 1
213 191 1
213 279 1
213 303 1
213 308 1
213 320 1
213 337 1
213 361 1
213 375 1
213 378 1
213 467 1
213 491 1
213 497 1
213 509 1
214 152 1
214 176 1
214 182 1
214 185 1
214 273 1
214 297 1
214 311 1
214 314 1
214 339 1
214 363 1
214 369 1
214 381 1
214 468 1
214 492 1
214 499 1
214 510 1
215 145 1
215 169 1
215 183 1
215 186 1
215 274 1
215 298 1
215 312 1
215 315 1
215 341 1
215 365 1
215 370 1
215 380 1
215 470 1
215 494 1
215 501 1
215 511 1
216 146 1
216 170 1
216 184 1
216 187 1
216 275 1
216 299 1
216 305 1
216 317 1
216 340 1
216 364 1
216 371 1
216 382 1
216 471 1
216 495 1
216 500 1
216 512 1
217 155 1
217 163 1
217 171 1
217 177 1
217 285 1
217 293 1
217 301 1
217 306 1
217 350 1
217 358 1
217 366 1
217 373 1
217 480 1
217 488 1
217 496 1
217 502 1
218 157 1
218 165 1
218 173 1
218 178 1
218 284 1
218 292 1
218 300 1
218 307 1
218 351 1
218 359 1
218 367 1
218 372 1
218 473 1
218 481 1
218 489 1
218 503 1
219 156 1
219 164 1
219 172 1
219 179 1
219 286 1
219 294 1
219 302 1
219 309 1
219 352 1
219 360 1
219 368 1
219 374 1
219 474 1
219 482 1
219 490 1
219 504 1
220 159 1
220 167 1
220 175 1
220 180 1
220 288 1
220 296 1
220 304 1
220 310 1
220 346 1
220 354 1
220 362 1
220 376 1
220 477 1
220 485 1
220 493 1
220 498 1
221 158 1
221 166 1
221 174 1
221 181 1
221 287 1
221 295 1
221 303 1
221 308 1
221 345 1
221 353 1
221 361 1
221 375 1
221 475 1
221 483 1
221 491 1
221 497 1
222 160 1
222 168 1
222 176 1
222 182 1
222 281 1
222 289 1
222 297 1
222 311 1
222 347 1
222 355 1
222 363 1
222 369 1
222 476 1
222 484 1
222 492 1
222 499 1
223 153 1
223 161 1
223 169 1
223 183 1
223 282 1
223 290 1
223 298 1
223 312 1
223 349 1
223 357 1
223 365 1
223 370 1
223 478 1
223 486 1
223 494 1
223 501 1
224 154 1
224 162 1
224 170 1
224 184 1
224 283 1
224 291 1
224 299 1
224 305 1
224 348 1
224 356 1
224 364 1
224 371 1
224 479 1
224 487 1
224 495 1
224 500 1
225 196 1
225 228 1
225 236 1
225 254 1
225 326 1
225 358 1
225 366 1
225 383 1
225 391 1
225 423 1
225 431 1
225 448 1
225 456 1
225 488 1
225 496 1
225 505 1
226 198 1
226 230 1
226 238 1
226 255 1
226 327 1
226 359 1
226 367 1
226 384 1
226 392 1
226 424 1
226 432 1
226 441 1
226 449 1
226 481 1
226 489 1
226 506 1
227 199 1
227 231 1
227 239 1
227 256 1
227 328 1
227 360 1
227 368 1
227 377 1
227 385 1
227 417 1
227 425 1
227 442 1
227 450 1
227 482 1
227 490 1
227 507 1
228 193 1
228 225 1
228 233 1
228 250 1
228 322 1
228 354 1
228 362 1
228 379 1
228 387 1
228 419 1
228 427 1
228 445 1
228 453 1
228 485 1
228 493 1
228 508 1
229 200 1
229 232 1
229 240 1
229 249 1
229 321 1
229 353 1
229 361 1
229 378 1
229 386 1
229 418 1
229 426 1
229 443 1
229 451 1
229 483 1
229 491 1
229 509 1
230 194 1
230 226 1
230 234 1
230 251 1
230 323 1
230 355 1
230 363 1
230 381 1
230 389 1
230 421 1
230 429 1
230 444 1
230 452 1
230 484 1
230 492 1
230 510 1
231 195 1
231 227 1
231 235 1
231 253 1
231 325 1
231 357 1
231 365 1
231 380 1
231 388 1
231 420 1
231 428 1
231 446 1
231 454 1
231 486 1
231 494 1
231 511 1
232 197 1
232 229 1
232 237 1
232 252 1
232 324 1
232 356 1
232 364 1
232 382 1
232 390 1
232 422 1
232 430 1
232 447 1
232 455 1
232 487 1
232 495 1
232 512 1
233 204 1
233 228 1
233 243 1
233 254 1
233 334 1
233 358 1
233 373 1
233 383 1
233 399 1
233 423 1
233 436 1
233 448 1
233 464 1
233 488 1
233 502 1
233 505 1
234 206 1
234 230 1
234 245 1
234 255 1
234 335 1
234 359 1
234 372 1
234 384 1
234 400 1
234 424 1
234 438 1
234 441 1
234 457 1
234 481 1
234 503 1
234 506 1
235 207 1
235 231 1
235 244 1
235 256 1
235 336 1
235 360 1
235 374 1
235 377 1
235 393 1
235 417 1
235 439 1
235 442 1
235 458 1
235 482 1
235 504 1
235 507 1
236 201 1
236 225 1
236 247 1
236 250 1
236 330 1
236 354 1
236 376 1
236 379 1
236 395 1
236 419 1
236 433 1
236 445 1
236 461 1
236 485 1
236 498 1
236 508 1
237 208 1
237 232 1
237 246 1
237 249 1
237 329 1
237 353 1
237 375 1
237 378 1
237 394 1
237 418 1
237 440 1
237 443 1
237 459 1
237 483 1
237 497 1
237 509 1
238 202 1
238 226 1
238 248 1
238 251 1
238 331 1
238 355 1
238 369 1
238 381 1
238 397 1
238 421 1
238 434 1
238 444 1
238 460 1
238 484 1
238 499 1
238 510 1
239 203 1
239 227 1
239 241 1
239 253 1
239 333 1
239 357 1
239 370 1
239 380 1
239 396 1
239 420 1
239 435 1
239 446 1
239 462 1
239 486 1
239 501 1
239 511 1
240 205 1
240 229 1
240 242 1
240 252 1
240 332 1
240 356 1
240 371 1
240 382 1
240 398 1
240 422 1
240 437 1
240 447 1
240 463 1
240 487 1
240 500 1
240 512 1
241 212 1
241 236 1
241 243 1
241 254 1
241 342 1
241 366 1
241 373 1
241 383 1
241 407 1
241 431 1
241 436 1
241 448 1
241 472 1
241 496 1
241 502 1
241 505 1
242 214 1
242 238 1
242 245 1
242 255 1
242 343 1
242 367 1
242 372 1
242 384 1
242 408 1
242 432 1
242 438 1
242 441 1
242 465 1
242 489 1
242 503 1
242 506 1
243 215 1
243 239 1
243 244 1
243 256 1
243 344 1
243 368 1
243 374 1
243 377 1
243 401 1
243 425 1
243 439 1
243 442 1
243 466 1
243 490 1
243 504 1
243 507 1
244 209 1
244 233 1
244 247 1
244 250 1
244 338 1
244 362 1
244 376 1
244 379 1
244 403 1
244 427 1
244 433 1
244 445 1
244 469 1
244 493 1
244 498 1
244 508 1
245 216 1
245 240 1
245 246 1
245 249 1
245 337 1
245 361 1
245 375 1
245 378 1
245 402 1
245 426 1
245 440 1
245 443 1
245 467 1
245 491 1
245 497 1
245 509 1
246 210 1
246 234 1
246 248 1
246 251 1
246 339 1
246 363 1
246 369 1
246 381 1
246 405 1
246 429 1
246 434 1
246 444 1
246 468 1
246 492 1
246 499 1
246 510 1
247 211 1
247 235 1
247 241 1
247 253 1
247 341 1
247 365 1
247 370 1
247 380 1
247 404 1
247 428 1
247 435 1
247 446 1
247 470 1
247 494 1
247 501 1
247 511 1
248 213 1
248 237 1
248 242 1
248 252 1
248 340 1
248 364 1
248 371 1
248 382 1
248 406 1
248 430 1
248 437 1
248 447 1
248 471 1
248 495 1
248 500 1
248 512 1
249 220 1
249 228 1
249 236 1
249 243 1
249 350 1
249 358 1
249 366 1
249 373 1
249 415 1
249 423 1
249 431 1
249 436 1
249 480 1
249 488 1
249 496 1
249 502 1
250 222 1
250 230 1
250 238 1
250 245 1
250 351 1
250 359 1
250 367 1
250 372 1
250 416 1
250 424 1
250 432 1
250 438 1
250 473 1
250 481 1
250 489 1
250 503 1
251 223 1
251 231 1
251 239 1
251 244 1
251 352 1
251 360 1
251 368 1
251 374 1
251 409 1
251 417 1
251 425 1
251 439 1
251 474 1
251 482 1
251 490 1
251 504 1
252 217 1
252 225 1
252 233 1
252 247 1
252 346 1
252 354 1
252 362 1
252 376 1
252 411 1
252 419 1
252 427 1
252 433 1
252 477 1
252 485 1
252 493 1
252 498 1
253 224 1
253 232 1
253 240 1
253 246 1
253 345 1
253 353 1
253 361 1
253 375 1
253 410 1
253 418 1
253 426 1
253 440 1
253 475 1
253 483 1
253 491 1
253 497 1
254 218 1
254 226 1
254 234 1
254 248 1
254 347 1
254 355 1
254 363 1
254 369 1
254 413 1
254 421 1
254 429 1
254 434 1
254 476 1
254 484 1
254 492 1
254 499 1
255 219 1
255 227 1
255 235 1
255 241 1
255 349 1
255 357 1
255 365 1
255 370 1
255 412 1
255 420 1
255 428 1
255 435 1
255 478 1
255 486 1
255 494 1
255 501 1
256 221 1
256 229 1
256 237 1
256 242 1
256 348 1
256 356 1
256 364 1
256 371 1
256 414 1
256 422 1
256 430 1
256 437 1
256 479 1
256 487 1
256 495 1
256 500 1
