%%MatrixMarket matrix coordinate integer general
192 384 3072
1 1 1
1 25 1
1 31 1
1 37 1
1 193 1
1 217 1
1 223 1
1 229 1
1 241 1
1 265 1
1 271 1
1 277 1
1 289 1
1 313 1
1 319 1
1 325 1
2 2 1
2 26 1
2 32 1
2 38 1
2 194 1
2 218 1
2 224 1
2 230 1
2 242 1
2 266 1
2 272 1
2 278 1
2 290 1
2 314 1
2 320 1
2 326 1
3 3 1
3 27 1
3 33 1
3 39 1
3 195 1
3 219 1
3 225 1
3 231 1
3 243 1
3 267 1
3 273 1
3 279 1
3 291 1
3 315 1
3 321 1
3 327 1
4 4 1
4 28 1
4 34 1
4 40 1
4 196 1
4 220 1
4 226 1
4 232 1
4 244 1
4 268 1
4 274 1
4 280 1
4 292 1
4 316 1
4 322 1
4 328 1
5 5 1
5 29 1
5 35 1
5 41 1
5 197 1
5 221 1
5 227 1
5 233 1
5 245 1
5 269 1
5 275 1
5 281 1
5 293 1
5 317 1
5 323 1
5 329 1
6 6 1
6 30 1
6 36 1
6 42 1
6 198 1
6 222 1
6 228 1
6 234 1
6 246 1
6 270 1
6 276 1
6 282 1
6 294 1
6 318 1
6 324 1
6 330 1
7 7 1
7 25 1
7 31 1
7 43 1
7 199 1
7 217 1
7 223 1
7 235 1
7 247 1
7 265 1
7 271 1
7 283 1
7 295 1
7 313 1
7 319 1
7 331 1
8 8 1
8 26 1
8 32 1
8 44 1
8 200 1
8 218 1
8 224 1
8 236 1
8 248 1
8 266 1
8 272 1
8 284 1
8 296 1
8 314 1
8 320 1
8 332 1
9 9 1
9 27 1
9 33 1
9 45 1
9 201 1
9 219 1
9 225 1
9 237 1
9 249 1
9 267 1
9 273 1
9 285 1
9 297 1
9 315 1
9 321 1
9 333 1
10 10 1
10 28 1
10 34 1
10 46 1
10 202 1
10 220 1
10 226 1
10 238 1
10 250 1
10 268 1
10 274 1
10 286 1
10 298 1
10 316 1
10 322 1
10 334 1
11 11 1
11 29 1
11 35 1
11 47 1
11 203 1
11 221 1
11 227 1
11 239 1
11 251 1
11 269 1
11 275 1
11 287 1
11 299 1
11 317 1
11 323 1
11 335 1
12 12 1
12 30 1
12 36 1
12 48 1
12 204 1
12 222 1
12 228 1
12 240 1
12 252 1
12 270 1
12 276 1
12 288 1
12 300 1
12 318 1
12 324 1
12 336 1
13 13 1
13 25 1
13 37 1
13 43 1
13 205 1
13 217 1
13 229 1
13 235 1
13 253 1
13 265 1
13 277 1
13 283 1
13 301 1
13 313 1
13 325 1
13 331 1
14 14 1
14 26 1
14 38 1
14 44 1
14 206 1
14 218 1
14 230 1
14 236 1
14 254 1
14 266 1
14 278 1
14 284 1
14 302 1
14 314 1
14 326 1
14 332 1
15 15 1
15 27 1
15 39 1
15 45 1
15 207 1
15 219 1
15 231 1
15 237 1
15 255 1
15 267 1
15 279 1
15 285 1
15 303 1
15 315 1
15 327 1
15 333 1
16 16 1
16 28 1
16 40 1
16 46 1
16 208 1
16 220 1
16 232 1
16 238 1
16 256 1
16 268 1
16 280 1
16 286 1
16 304 1
16 316 1
16 328 1
16 334 1
17 17 1
17 29 1
17 41 1
17 47 1
17 209 1
17 221 1
17 233 1
17 239 1
17 257 1
17 269 1
17 281 1
17 287 1
17 305 1
17 317 1
17 329 1
17 335 1
18 18 1
18 30 1
18 42 1
18 48 1
18 210 1
18 222 1
18 234 1
18 240 1
18 258 1
18 270 1
18 282 1
18 288 1
18 306 1
18 318 1
18 330 1
18 336 1
19 19 1
19 31 1
19 37 1
19 43 1
19 211 1
19 223 1
19 229 1
19 235 1
19 259 1
19 271 1
19 277 1
19 283 1
19 307 1
19 319 1
19 325 1
19 331 1
20 20 1
20 32 1
20 38 1
20 44 1
20 212 1
20 224 1
20 230 1
20 236 1
20 260 1
20 272 1
20 278 1
20 284 1
20 308 1
20 320 1
20 326 1
20 332 1
21 21 1
21 33 1
21 39 1
21 45 1
21 213 1
21 225 1
21 231 1
21 237 1
21 261 1
21 273 1
21 279 1
21 285 1
21 309 1
21 321 1
21 327 1
21 333 1
22 22 1
22 34 1
22 40 1
22 46 1
22 214 1
22 226 1
22 232 1
22 238 1
22 262 1
22 274 1
22 280 1
22 286 1
22 310 1
22 322 1
22 328 1
22 334 1
23 23 1
23 35 1
23 41 1
23 47 1
23 215 1
23 227 1
23 233 1
23 239 1
23 263 1
23 275 1
23 281 1
23 287 1
23 311 1
23 323 1
23 329 1
23 335 1
24 24 1
24 36 1
24 42 1
24 48 1
24 216 1
24 228 1
24 234 1
24 240 1
24 264 1
24 276 1
24 282 1
24 288 1
24 312 1
24 324 1
24 330 1
24 336 1
25 49 1
25 73 1
25 79 1
25 85 1
25 193 1
25 217 1
25 223 1
25 229 1
25 241 1
25 265 1
25 271 1
25 277 1
25 337 1
25 361 1
25 367 1
25 373 1
26 50 1
26 74 1
26 80 1
26 86 1
26 194 1
26 218 1
26 224 1
26 230 1
26 242 1
26 266 1
26 272 1
26 278 1
26 338 1
26 362 1
26 368 1
26 374 1
27 51 1
27 75 1
27 81 1
27 87 1
27 195 1
27 219 1
27 225 1
27 231 1
27 243 1
27 267 1
27 273 1
27 279 1
27 339 1
27 363 1
27 369 1
27 375 1
28 52 1
28 76 1
28 82 1
28 88 1
28 196 1
28 220 1
28 226 1
28 232 1
28 244 1
28 268 1
28 274 1
28 280 1
28 340 1
28 364 1
28 370 1
28 376 1
29 53 1
29 77 1
29 83 1
29 89 1
29 197 1
29 221 1
29 227 1
29 233 1
29 245 1
29 269 1
29 275 1
29 281 1
29 341 1
29 365 1
29 371 1
29 377 1
30 54 1
30 78 1
30 84 1
30 90 1
30 198 1
30 222 1
30 228 1
30 234 1
30 246 1
30 270 1
30 276 1
30 282 1
30 342 1
30 366 1
30 372 1
30 378 1
31 55 1
31 73 1
31 79 1
31 91 1
31 199 1
31 217 1
31 223 1
31 235 1
31 247 1
31 265 1
31 271 1
31 283 1
31 343 1
31 361 1
31 367 1
31 379 1
32 56 1
32 74 1
32 80 1
32 92 1
32 200 1
32 218 1
32 224 1
32 236 1
32 248 1
32 266 1
32 272 1
32 284 1
32 344 1
32 362 1
32 368 1
32 380 1
33 57 1
33 75 1
33 81 1
33 93 1
33 201 1
33 219 1
33 225 1
33 237 1
33 249 1
33 267 1
33 273 1
33 285 1
33 345 1
33 363 1
33 369 1
33 381 1
34 58 1
34 76 1
34 82 1
34 94 1
34 202 1
34 220 1
34 226 1
34 238 1
34 250 1
34 268 1
34 274 1
34 286 1
34 346 1
34 364 1
34 370 1
34 382 1
35 59 1
35 77 1
35 83 1
35 95 1
35 203 1
35 221 1
35 227 1
35 239 1
35 251 1
35 269 1
35 275 1
35 287 1
35 347 1
35 365 1
35 371 1
35 383 1
36 60 1
36 78 1
36 84 1
36 96 1
36 204 1
36 222 1
36 228 1
36 240 1
36 252 1
36 270 1
36 276 1
36 288 1
36 348 1
36 366 1
36 372 1
36 384 1
37 61 1
37 73 1
37 85 1
37 91 1
37 205 1
37 217 1
37 229 1
37 235 1
37 253 1
37 265 1
37 277 1
37 283 1
37 349 1
37 361 1
37 373 1
37 379 1
38 62 1
38 74 1
38 86 1
38 92 1
38 206 1
38 218 1
38 230 1
38 236 1
38 254 1
38 266 1
38 278 1
38 284 1
38 350 1
38 362 1
38 374 1
38 380 1
39 63 1
39 75 1
39 87 1
39 93 1
39 207 1
39 219 1
39 231 1
39 237 1
39 255 1
39 267 1
39 279 1
39 285 1
39 351 1
39 363 1
39 375 1
39 381 1
40 64 1
40 76 1
40 88 1
40 94 1
40 208 1
40 220 1
40 232 1
40 238 1
40 256 1
40 268 1
40 280 1
40 286 1
40 352 1
40 364 1
40 376 1
40 382 1
41 65 1
41 77 1
41 89 1
41 95 1
41 209 1
41 221 1
41 233 1
41 239 1
41 257 1
41 269 1
41 281 1
41 287 1
41 353 1
41 365 1
41 377 1
41 383 1
42 66 1
42 78 1
42 90 1
42 96 1
42 210 1
42 222 1
42 234 1
42 240 1
42 258 1
42 270 1
42 282 1
42 288 1
42 354 1
42 366 1
42 378 1
42 384 1
43 67 1
43 79 1
43 85 1
43 91 1
43 211 1
43 223 1
43 229 1
43 235 1
43 259 1
43 271 1
43 277 1
43 283 1
43 355 1
43 367 1
43 373 1
43 379 1
44 68 1
44 80 1
44 86 1
44 92 1
44 212 1
44 224 1
44 230 1
44 236 1
44 260 1
44 272 1
44 278 1
44 284 1
44 356 1
44 368 1
44 374 1
44 380 1
45 69 1
45 81 1
45 87 1
45 93 1
45 213 1
45 225 1
45 231 1
45 237 1
45 261 1
45 273 1
45 279 1
45 285 1
45 357 1
45 369 1
45 375 1
45 381 1
46 70 1
46 82 1
46 88 1
46 94 1
46 214 1
46 226 1
46 232 1
46 238 1
46 262 1
46 274 1
46 280 1
46 286 1
46 358 1
46 370 1
46 376 1
46 382 1
47 71 1
47 83 1
47 89 1
47 95 1
47 215 1
47 227 1
47 233 1
47 239 1
47 263 1
47 275 1
47 281 1
47 287 1
47 359 1
47 371 1
47 377 1
47 383 1
48 72 1
48 84 1
48 90 1
48 96 1
48 216 1
48 228 1
48 234 1
48 240 1
48 264 1
48 276 1
48 282 1
48 288 1
48 360 1
48 372 1
48 378 1
48 384 1
49 97 1
49 121 1
49 127 1
49 133 1
49 193 1
49 217 1
49 223 1
49 229 1
49 289 1
49 313 1
49 319 1
49 325 1
49 337 1
49 361 1
49 367 1
49 373 1
50 98 1
50 122 1
50 128 1
50 134 1
50 194 1
50 218 1
50 224 1
50 230 1
50 290 1
50 314 1
50 320 1
50 326 1
50 338 1
50 362 1
50 368 1
50 374 1
51 99 1
51 123 1
51 129 1
51 135 1
51 195 1
51 219 1
51 225 1
51 231 1
51 291 1
51 315 1
51 321 1
51 327 1
51 339 1
51 363 1
51 369 1
51 375 1
52 100 1
52 124 1
52 130 1
52 136 1
52 196 1
52 220 1
52 226 1
52 232 1
52 292 1
52 316 1
52 322 1
52 328 1
52 340 1
52 364 1
52 370 1
52 376 1
53 101 1
53 125 1
53 131 1
53 137 1
53 197 1
53 221 1
53 227 1
53 233 1
53 293 1
53 317 1
53 323 1
53 329 1
53 341 1
53 365 1
53 371 1
53 377 1
54 102 1
54 126 1
54 132 1
54 138 1
54 198 1
54 222 1
54 228 1
54 234 1
54 294 1
54 318 1
54 324 1
54 330 1
54 342 1
54 366 1
54 372 1
54 378 1
55 103 1
55 121 1
55 127 1
55 139 1
55 199 1
55 217 1
55 223 1
55 235 1
55 295 1
55 313 1
55 319 1
55 331 1
55 343 1
55 361 1
55 367 1
55 379 1
56 104 1
56 122 1
56 128 1
56 140 1
56 200 1
56 218 1
56 224 1
56 236 1
56 296 1
56 314 1
56 320 1
56 332 1
56 344 1
56 362 1
56 368 1
56 380 1
57 105 1
57 123 1
57 129 1
57 141 1
57 201 1
57 219 1
57 225 1
57 237 1
57 297 1
57 315 1
57 321 1
57 333 1
57 345 1
57 363 1
57 369 1
57 381 1
58 106 1
58 124 1
58 130 1
58 142 1
58 202 1
58 220 1
58 226 1
58 238 1
58 298 1
58 316 1
58 322 1
58 334 1
58 346 1
58 364 1
58 370 1
58 382 1
59 107 1
59 125 1
59 131 1
59 143 1
59 203 1
59 221 1
59 227 1
59 239 1
59 299 1
59 317 1
59 323 1
59 335 1
59 347 1
59 365 1
59 371 1
59 383 1
60 108 1
60 126 1
60 132 1
60 144 1
60 204 1
60 222 1
60 228 1
60 240 1
60 300 1
60 318 1
60 324 1
60 336 1
60 348 1
60 366 1
60 372 1
60 384 1
61 109 1
61 121 1
61 133 1
61 139 1
61 205 1
61 217 1
61 229 1
61 235 1
61 301 1
61 313 1
61 325 1
61 331 1
61 349 1
61 361 1
61 373 1
61 379 1
62 110 1
62 122 1
62 134 1
62 140 1
62 206 1
62 218 1
62 230 1
62 236 1
62 302 1
62 314 1
62 326 1
62 332 1
62 350 1
62 362 1
62 374 1
62 380 1
63 111 1
63 123 1
63 135 1
63 141 1
63 207 1
63 219 1
63 231 1
63 237 1
63 303 1
63 315 1
63 327 1
63 333 1
63 351 1
63 363 1
63 375 1
63 381 1
64 112 1
64 124 1
64 136 1
64 142 1
64 208 1
64 220 1
64 232 1
64 238 1
64 304 1
64 316 1
64 328 1
64 334 1
64 352 1
64 364 1
64 376 1
64 382 1
65 113 1
65 125 1
65 137 1
65 143 1
65 209 1
65 221 1
65 233 1
65 239 1
65 305 1
65 317 1
65 329 1
65 335 1
65 353 1
65 365 1
65 377 1
65 383 1
66 114 1
66 126 1
66 138 1
66 144 1
66 210 1
66 222 1
66 234 1
66 240 1
66 306 1
66 318 1
66 330 1
66 336 1
66 354 1
66 366 1
66 378 1
66 384 1
67 115 1
67 127 1
67 133 1
67 139 1
67 211 1
67 223 1
67 229 1
67 235 1
67 307 1
67 319 1
67 325 1
67 331 1
67 355 1
67 367 1
67 373 1
67 379 1
68 116 1
68 128 1
68 134 1
68 140 1
68 212 1
68 224 1
68 230 1
68 236 1
68 308 1
68 320 1
68 326 1
68 332 1
68 356 1
68 368 1
68 374 1
68 380 1
69 117 1
69 129 1
69 135 1
69 141 1
69 213 1
69 225 1
69 231 1
69 237 1
69 309 1
69 321 1
69 327 1
69 333 1
69 357 1
69 369 1
69 375 1
69 381 1
70 118 1
70 130 1
70 136 1
70 142 1
70 214 1
70 226 1
70 232 1
70 238 1
70 310 1
70 322 1
70 328 1
70 334 1
70 358 1
70 370 1
70 376 1
70 382 1
71 119 1
71 131 1
71 137 1
71 143 1
71 215 1
71 227 1
71 233 1
71 239 1
71 311 1
71 323 1
71 329 1
71 335 1
71 359 1
71 371 1
71 377 1
71 383 1
72 120 1
72 132 1
72 138 1
72 144 1
72 216 1
72 228 1
72 234 1
72 240 1
72 312 1
72 324 1
72 330 1
72 336 1
72 360 1
72 372 1
72 378 1
72 384 1
73 145 1
73 169 1
73 175 1
73 181 1
73 241 1
73 265 1
73 271 1
73 277 1
73 289 1
73 313 1
73 319 1
73 325 1
73 337 1
73 361 1
73 367 1
73 373 1
74 146 1
74 170 1
74 176 1
74 182 1
74 242 1
74 266 1
74 272 1
74 278 1
74 290 1
74 314 1
74 320 1
74 326 1
74 338 1
74 362 1
74 368 1
74 374 1
75 147 1
75 171 1
75 177 1
75 183 1
75 243 1
75 267 1
75 273 1
75 279 1
75 291 1
75 315 1
75 321 1
75 327 1
75 339 1
75 363 1
75 369 1
75 375 1
76 148 1
76 172 1
76 178 1
76 184 1
76 244 1
76 268 1
76 274 1
76 280 1
76 292 1
76 316 1
76 322 1
76 328 1
76 340 1
76 364 1
76 370 1
76 376 1
77 149 1
77 173 1
77 179 1
77 185 1
77 245 1
77 269 1
77 275 1
77 281 1
77 293 1
77 317 1
77 323 1
77 329 1
77 341 1
77 365 1
77 371 1
77 377 1
78 150 1
78 174 1
78 180 1
78 186 1
78 246 1
78 270 1
78 276 1
78 282 1
78 294 1
78 318 1
78 324 1
78 330 1
78 342 1
78 366 1
78 372 1
78 378 1
79 151 1
79 169 1
79 175 1
79 187 1
79 247 1
79 265 1
79 271 1
79 283 1
79 295 1
79 313 1
79 319 1
79 331 1
79 343 1
79 361 1
79 367 1
79 379 1
80 152 1
80 170 1
80 176 1
80 188 1
80 248 1
80 266 1
80 272 1
80 284 1
80 296 1
80 314 1
80 320 1
80 332 1
80 344 1
80 362 1
80 368 1
80 380 1
81 153 1
81 171 1
81 177 1
81 189 1
81 249 1
81 267 1
81 273 1
81 285 1
81 297 1
81 315 1
81 321 1
81 333 1
81 345 1
81 363 1
81 369 1
81 381 1
82 154 1
82 172 1
82 178 1
82 190 1
82 250 1
82 268 1
82 274 1
82 286 1
82 298 1
82 316 1
82 322 1
82 334 1
82 346 1
82 364 1
82 370 1
82 382 1
83 155 1
83 173 1
83 179 1
83 191 1
83 251 1
83 269 1
83 275 1
83 287 1
83 299 1
83 317 1
83 323 1
83 335 1
83 347 1
83 365 1
83 371 1
83 383 1
84 156 1
84 174 1
84 180 1
84 192 1
84 252 1
84 270 1
84 276 1
84 288 1
84 300 1
84 318 1
84 324 1
84 336 1
84 348 1
84 366 1
84 372 1
84 384 1
85 157 1
85 169 1
85 181 1
85 187 1
85 253 1
85 265 1
85 277 1
85 283 1
85 301 1
85 313 1
85 325 1
85 331 1
85 349 1
85 361 1
85 373 1
85 379 1
86 158 1
86 170 1
86 182 1
86 188 1
86 254 1
86 266 1
86 278 1
86 284 1
86 302 1
86 314 1
86 326 1
86 332 1
86 350 1
86 362 1
86 374 1
86 380 1
87 159 1
87 171 1
87 183 1
87 189 1
87 255 1
87 267 1
87 279 1
87 285 1
87 303 1
87 315 1
87 327 1
87 333 1
87 351 1
87 363 1
87 375 1
87 381 1
88 160 1
88 172 1
88 184 1
88 190 1
88 256 1
88 268 1
88 280 1
88 286 1
88 304 1
88 316 1
88 328 1
88 334 1
88 352 1
88 364 1
88 376 1
88 382 1
89 161 1
89 173 1
89 185 1
89 191 1
89 257 1
89 269 1
89 281 1
89 287 1
89 305 1
89 317 1
89 329 1
89 335 1
89 353 1
89 365 1
89 377 1
89 383 1
90 162 1
90 174 1
90 186 1
90 192 1
90 258 1
90 270 1
90 282 1
90 288 1
90 306 1
90 318 1
90 330 1
90 336 1
90 354 1
90 366 1
90 378 1
90 384 1
91 163 1
91 175 1
91 181 1
91 187 1
91 259 1
91 271 1
91 277 1
91 283 1
91 307 1
91 319 1
91 325 1
91 331 1
91 355 1
91 367 1
91 373 1
91 379 1
92 164 1
92 176 1
92 182 1
92 188 1
92 260 1
92 272 1
92 278 1
92 284 1
92 308 1
92 320 1
92 326 1
92 332 1
92 356 1
92 368 1
92 374 1
92 380 1
93 165 1
93 177 1
93 183 1
93 189 1
93 261 1
93 273 1
93 279 1
93 285 1
93 309 1
93 321 1
93 327 1
93 333 1
93 357 1
93 369 1
93 375 1
93 381 1
94 166 1
94 178 1
94 184 1
94 190 1
94 262 1
94 274 1
94 280 1
94 286 1
94 310 1
94 322 1
94 328 1
94 334 1
94 358 1
94 370 1
94 376 1
94 382 1
95 167 1
95 179 1
95 185 1
95 191 1
95 263 1
95 275 1
95 281 1
95 287 1
95 311 1
95 323 1
95 329 1
95 335 1
95 359 1
95 371 1
95 377 1
95 383 1
96 168 1
96 180 1
96 186 1
96 192 1
96 264 1
96 276 1
96 282 1
96 288 1
96 312 1
96 324 1
96 330 1
96 336 1
96 360 1
96 372 1
96 378 1
96 384 1
97 1 1
97 23 1
97 40 1
97 46 1
97 195 1
97 211 1
97 234 1
97 240 1
97 294 1
97 310 1
97 325 1
97 331 1
97 342 1
97 358 1
97 373 1
97 379 1
98 2 1
98 24 1
98 39 1
98 45 1
98 196 1
98 212 1
98 233 1
98 239 1
98 293 1
98 309 1
98 326 1
98 332 1
98 341 1
98 357 1
98 374 1
98 380 1
99 3 1
99 19 1
99 42 1
99 48 1
99 197 1
99 213 1
99 230 1
99 236 1
99 290 1
99 312 1
99 327 1
99 333 1
99 338 1
99 360 1
99 375 1
99 381 1
100 4 1
100 20 1
100 41 1
100 47 1
100 198 1
100 214 1
100 229 1
100 235 1
100 289 1
100 311 1
100 328 1
100 334 1
100 337 1
100 359 1
100 376 1
100 382 1
101 5 1
101 21 1
101 38 1
101 44 1
101 193 1
101 215 1
101 232 1
101 238 1
101 292 1
101 308 1
101 329 1
101 335 1
101 340 1
101 356 1
101 377 1
101 383 1
102 6 1
102 22 1
102 37 1
102 43 1
102 194 1
102 216 1
102 231 1
102 237 1
102 291 1
102 307 1
102 330 1
102 336 1
102 339 1
102 355 1
102 378 1
102 384 1
103 7 1
103 23 1
103 36 1
103 40 1
103 201 1
103 211 1
103 224 1
103 234 1
103 300 1
103 310 1
103 321 1
103 325 1
103 348 1
103 358 1
103 369 1
103 373 1
104 8 1
104 24 1
104 35 1
104 39 1
104 202 1
104 212 1
104 223 1
104 233 1
104 299 1
104 309 1
104 322 1
104 326 1
104 347 1
104 357 1
104 370 1
104 374 1
105 9 1
105 19 1
105 32 1
105 42 1
105 203 1
105 213 1
105 226 1
105 230 1
105 296 1
105 312 1
105 323 1
105 327 1
105 344 1
105 360 1
105 371 1
105 375 1
106 10 1
106 20 1
106 31 1
106 41 1
106 204 1
106 214 1
106 225 1
106 229 1
106 295 1
106 311 1
106 324 1
106 328 1
106 343 1
106 359 1
106 372 1
106 376 1
107 11 1
107 21 1
107 34 1
107 38 1
107 199 1
107 215 1
107 228 1
107 232 1
107 298 1
107 308 1
107 319 1
107 329 1
107 346 1
107 356 1
107 367 1
107 377 1
108 12 1
108 22 1
108 33 1
108 37 1
108 200 1
108 216 1
108 227 1
108 231 1
108 297 1
108 307 1
108 320 1
108 330 1
108 345 1
108 355 1
108 368 1
108 378 1
109 14 1
109 23 1
109 36 1
109 46 1
109 208 1
109 211 1
109 224 1
109 240 1
109 305 1
109 310 1
109 321 1
109 331 1
109 353 1
109 358 1
109 369 1
109 379 1
110 13 1
110 24 1
110 35 1
110 45 1
110 207 1
110 212 1
110 223 1
110 239 1
110 306 1
110 309 1
110 322 1
110 332 1
110 354 1
110 357 1
110 370 1
110 380 1
111 16 1
111 19 1
111 32 1
111 48 1
111 210 1
111 213 1
111 226 1
111 236 1
111 301 1
111 312 1
111 323 1
111 333 1
111 349 1
111 360 1
111 371 1
111 381 1
112 15 1
112 20 1
112 31 1
112 47 1
112 209 1
112 214 1
112 225 1
112 235 1
112 302 1
112 311 1
112 324 1
112 334 1
112 350 1
112 359 1
112 372 1
112 382 1
113 18 1
113 21 1
113 34 1
113 44 1
113 206 1
113 215 1
113 228 1
113 238 1
113 303 1
113 308 1
113 319 1
113 335 1
113 351 1
113 356 1
113 367 1
113 383 1
114 17 1
114 22 1
114 33 1
114 43 1
114 205 1
114 216 1
114 227 1
114 237 1
114 304 1
114 307 1
114 320 1
114 336 1
114 352 1
114 355 1
114 368 1
114 384 1
115 29 1
115 36 1
115 40 1
115 46 1
115 217 1
115 224 1
115 234 1
115 240 1
115 316 1
115 321 1
115 325 1
115 331 1
115 364 1
115 369 1
115 373 1
115 379 1
116 30 1
116 35 1
116 39 1
116 45 1
116 218 1
116 223 1
116 233 1
116 239 1
116 315 1
116 322 1
116 326 1
116 332 1
116 363 1
116 370 1
116 374 1
116 380 1
117 25 1
117 32 1
117 42 1
117 48 1
117 219 1
117 226 1
117 230 1
117 236 1
117 318 1
117 323 1
117 327 1
117 333 1
117 366 1
117 371 1
117 375 1
117 381 1
118 26 1
118 31 1
118 41 1
118 47 1
118 220 1
118 225 1
118 229 1
118 235 1
118 317 1
118 324 1
118 328 1
118 334 1
118 365 1
118 372 1
118 376 1
118 382 1
119 27 1
119 34 1
119 38 1
119 44 1
119 221 1
119 228 1
119 232 1
119 238 1
119 314 1
119 319 1
119 329 1
119 335 1
119 362 1
119 367 1
119 377 1
119 383 1
120 28 1
120 33 1
120 37 1
120 43 1
120 222 1
120 227 1
120 231 1
120 237 1
120 313 1
120 320 1
120 330 1
120 336 1
120 361 1
120 368 1
120 378 1
120 384 1
121 50 1
121 72 1
121 87 1
121 93 1
121 195 1
121 211 1
121 234 1
121 240 1
121 245 1
121 261 1
121 278 1
121 284 1
121 294 1
121 310 1
121 325 1
121 331 1
122 49 1
122 71 1
122 88 1
122 94 1
122 196 1
122 212 1
122 233 1
122 239 1
122 246 1
122 262 1
122 277 1
122 283 1
122 293 1
122 309 1
122 326 1
122 332 1
123 52 1
123 68 1
123 89 1
123 95 1
123 197 1
123 213 1
123 230 1
123 236 1
123 241 1
123 263 1
123 280 1
123 286 1
123 290 1
123 312 1
123 327 1
123 333 1
124 51 1
124 67 1
124 90 1
124 96 1
124 198 1
124 214 1
124 229 1
124 235 1
124 242 1
124 264 1
124 279 1
124 285 1
124 289 1
124 311 1
124 328 1
124 334 1
125 54 1
125 70 1
125 85 1
125 91 1
125 193 1
125 215 1
125 232 1
125 238 1
125 243 1
125 259 1
125 282 1
125 288 1
125 292 1
125 308 1
125 329 1
125 335 1
126 53 1
126 69 1
126 86 1
126 92 1
126 194 1
126 216 1
126 231 1
126 237 1
126 244 1
126 260 1
126 281 1
126 287 1
126 291 1
126 307 1
126 330 1
126 336 1
127 56 1
127 72 1
127 83 1
127 87 1
127 201 1
127 211 1
127 224 1
127 234 1
127 251 1
127 261 1
127 274 1
127 278 1
127 300 1
127 310 1
127 321 1
127 325 1
128 55 1
128 71 1
128 84 1
128 88 1
128 202 1
128 212 1
128 223 1
128 233 1
128 252 1
128 262 1
128 273 1
128 277 1
128 299 1
128 309 1
128 322 1
128 326 1
129 58 1
129 68 1
129 79 1
129 89 1
129 203 1
129 213 1
129 226 1
129 230 1
129 247 1
129 263 1
129 276 1
129 280 1
129 296 1
129 312 1
129 323 1
129 327 1
130 57 1
130 67 1
130 80 1
130 90 1
130 204 1
130 214 1
130 225 1
130 229 1
130 248 1
130 264 1
130 275 1
130 279 1
130 295 1
130 311 1
130 324 1
130 328 1
131 60 1
131 70 1
131 81 1
131 85 1
131 199 1
131 215 1
131 228 1
131 232 1
131 249 1
131 259 1
131 272 1
131 282 1
131 298 1
131 308 1
131 319 1
131 329 1
132 59 1
132 69 1
132 82 1
132 86 1
132 200 1
132 216 1
132 227 1
132 231 1
132 250 1
132 260 1
132 271 1
132 281 1
132 297 1
132 307 1
132 320 1
132 330 1
133 61 1
133 72 1
133 83 1
133 93 1
133 208 1
133 211 1
133 224 1
133 240 1
133 258 1
133 261 1
133 274 1
133 284 1
133 305 1
133 310 1
133 321 1
133 331 1
134 62 1
134 71 1
134 84 1
134 94 1
134 207 1
134 212 1
134 223 1
134 239 1
134 257 1
134 262 1
134 273 1
134 283 1
134 306 1
134 309 1
134 322 1
134 332 1
135 63 1
135 68 1
135 79 1
135 95 1
135 210 1
135 213 1
135 226 1
135 236 1
135 254 1
135 263 1
135 276 1
135 286 1
135 301 1
135 312 1
135 323 1
135 333 1
136 64 1
136 67 1
136 80 1
136 96 1
136 209 1
136 214 1
136 225 1
136 235 1
136 253 1
136 264 1
136 275 1
136 285 1
136 302 1
136 311 1
136 324 1
136 334 1
137 65 1
137 70 1
137 81 1
137 91 1
137 206 1
137 215 1
137 228 1
137 238 1
137 256 1
137 259 1
137 272 1
137 288 1
137 303 1
137 308 1
137 319 1
137 335 1
138 66 1
138 69 1
138 82 1
138 92 1
138 205 1
138 216 1
138 227 1
138 237 1
138 255 1
138 260 1
138 271 1
138 287 1
138 304 1
138 307 1
138 320 1
138 336 1
139 78 1
139 83 1
139 87 1
139 93 1
139 217 1
139 224 1
139 234 1
139 240 1
139 267 1
139 274 1
139 278 1
139 284 1
139 316 1
139 321 1
139 325 1
139 331 1
140 77 1
140 84 1
140 88 1
140 94 1
140 218 1
140 223 1
140 233 1
140 239 1
140 268 1
140 273 1
140 277 1
140 283 1
140 315 1
140 322 1
140 326 1
140 332 1
141 74 1
141 79 1
141 89 1
141 95 1
141 219 1
141 226 1
141 230 1
141 236 1
141 269 1
141 276 1
141 280 1
141 286 1
141 318 1
141 323 1
141 327 1
141 333 1
142 73 1
142 80 1
142 90 1
142 96 1
142 220 1
142 225 1
142 229 1
142 235 1
142 270 1
142 275 1
142 279 1
142 285 1
142 317 1
142 324 1
142 328 1
142 334 1
143 76 1
143 81 1
143 85 1
143 91 1
143 221 1
143 228 1
143 232 1
143 238 1
143 265 1
143 272 1
143 282 1
143 288 1
143 314 1
143 319 1
143 329 1
143 335 1
144 75 1
144 82 1
144 86 1
144 92 1
144 222 1
144 227 1
144 231 1
144 237 1
144 266 1
144 271 1
144 281 1
144 287 1
144 313 1
144 320 1
144 330 1
144 336 1
145 98 1
145 120 1
145 135 1
145 141 1
145 195 1
145 211 1
145 234 1
145 240 1
145 245 1
145 261 1
145 278 1
145 284 1
145 342 1
145 358 1
145 373 1
145 379 1
146 97 1
146 119 1
146 136 1
146 142 1
146 196 1
146 212 1
146 233 1
146 239 1
146 246 1
146 262 1
146 277 1
146 283 1
146 341 1
146 357 1
146 374 1
146 380 1
147 100 1
147 116 1
147 137 1
147 143 1
147 197 1
147 213 1
147 230 1
147 236 1
147 241 1
147 263 1
147 280 1
147 286 1
147 338 1
147 360 1
147 375 1
147 381 1
148 99 1
148 115 1
148 138 1
148 144 1
148 198 1
148 214 1
148 229 1
148 235 1
148 242 1
148 264 1
148 279 1
148 285 1
148 337 1
148 359 1
148 376 1
148 382 1
149 102 1
149 118 1
149 133 1
149 139 1
149 193 1
149 215 1
149 232 1
149 238 1
149 243 1
149 259 1
149 282 1
149 288 1
149 340 1
149 356 1
149 377 1
149 383 1
150 101 1
150 117 1
150 134 1
150 140 1
150 194 1
150 216 1
150 231 1
150 237 1
150 244 1
150 260 1
150 281 1
150 287 1
150 339 1
150 355 1
150 378 1
150 384 1
151 104 1
151 120 1
151 131 1
151 135 1
151 201 1
151 211 1
151 224 1
151 234 1
151 251 1
151 261 1
151 274 1
151 278 1
151 348 1
151 358 1
151 369 1
151 373 1
152 103 1
152 119 1
152 132 1
152 136 1
152 202 1
152 212 1
152 223 1
152 233 1
152 252 1
152 262 1
152 273 1
152 277 1
152 347 1
152 357 1
152 370 1
152 374 1
153 106 1
153 116 1
153 127 1
153 137 1
153 203 1
153 213 1
153 226 1
153 230 1
153 247 1
153 263 1
153 276 1
153 280 1
153 344 1
153 360 1
153 371 1
153 375 1
154 105 1
154 115 1
154 128 1
154 138 1
154 204 1
154 214 1
154 225 1
154 229 1
154 248 1
154 264 1
154 275 1
154 279 1
154 343 1
154 359 1
154 372 1
154 376 1
155 108 1
155 118 1
155 129 1
155 133 1
155 199 1
155 215 1
155 228 1
155 232 1
155 249 1
155 259 1
155 272 1
155 282 1
155 346 1
155 356 1
155 367 1
155 377 1
156 107 1
156 117 1
156 130 1
156 134 1
156 200 1
156 216 1
156 227 1
156 231 1
156 250 1
156 260 1
156 271 1
156 281 1
156 345 1
156 355 1
156 368 1
156 378 1
157 109 1
157 120 1
157 131 1
157 141 1
157 208 1
157 211 1
157 224 1
157 240 1
157 258 1
157 261 1
157 274 1
157 284 1
157 353 1
157 358 1
157 369 1
157 379 1
158 110 1
158 119 1
158 132 1
158 142 1
158 207 1
158 212 1
158 223 1
158 239 1
158 257 1
158 262 1
158 273 1
158 283 1
158 354 1
158 357 1
158 370 1
158 380 1
159 111 1
159 116 1
159 127 1
159 143 1
159 210 1
159 213 1
159 226 1
159 236 1
159 254 1
159 263 1
159 276 1
159 286 1
159 349 1
159 360 1
159 371 1
159 381 1
160 112 1
160 115 1
160 128 1
160 144 1
160 209 1
160 214 1
160 225 1
160 235 1
160 253 1
160 264 1
160 275 1
160 285 1
160 350 1
160 359 1
160 372 1
160 382 1
161 113 1
161 118 1
161 129 1
161 139 1
161 206 1
161 215 1
161 228 1
161 238 1
161 256 1
161 259 1
161 272 1
161 288 1
161 351 1
161 356 1
161 367 1
161 383 1
162 114 1
162 117 1
162 130 1
162 140 1
162 205 1
162 216 1
162 227 1
162 237 1
162 255 1
162 260 1
162 271 1
162 287 1
162 352 1
162 355 1
162 368 1
162 384 1
163 126 1
163 131 1
163 135 1
163 141 1
163 217 1
163 224 1
163 234 1
163 240 1
163 267 1
163 274 1
163 278 1
163 284 1
163 364 1
163 369 1
163 373 1
163 379 1
164 125 1
164 132 1
164 136 1
164 142 1
164 218 1
164 223 1
164 233 1
164 239 1
164 268 1
164 273 1
164 277 1
164 283 1
164 363 1
164 370 1
164 374 1
164 380 1
165 122 1
165 127 1
165 137 1
165 143 1
165 219 1
165 226 1
165 230 1
165 236 1
165 269 1
165 276 1
165 280 1
165 286 1
165 366 1
165 371 1
165 375 1
165 381 1
166 121 1
166 128 1
166 138 1
166 144 1
166 220 1
166 225 1
166 229 1
166 235 1
166 270 1
166 275 1
166 279 1
166 285 1
166 365 1
166 372 1
166 376 1
166 382 1
167 124 1
167 129 1
167 133 1
167 139 1
167 221 1
167 228 1
167 232 1
167 238 1
167 265 1
167 272 1
167 282 1
167 288 1
167 362 1
167 367 1
167 377 1
167 383 1
168 123 1
168 130 1
168 134 1
168 140 1
168 222 1
168 227 1
168 231 1
168 237 1
168 266 1
168 271 1
168 281 1
168 287 1
168 361 1
168 368 1
168 378 1
168 384 1
169 147 1
169 163 1
169 186 1
169 192 1
169 245 1
169 261 1
169 278 1
169 284 1
169 294 1
169 310 1
169 325 1
169 331 1
169 342 1
169 358 1
169 373 1
169 379 1
170 148 1
170 164 1
170 185 1
170 191 1
170 246 1
170 262 1
170 277 1
170 283 1
170 293 1
170 309 1
170 326 1
170 332 1
170 341 1
170 357 1
170 374 1
170 380 1
171 149 1
171 165 1
171 182 1
171 188 1
171 241 1
171 263 1
171 280 1
171 286 1
171 290 1
171 312 1
171 327 1
171 333 1
171 338 1
171 360 1
171 375 1
171 381 1
172 150 1
172 166 1
172 181 1
172 187 1
172 242 1
172 264 1
172 279 1
172 285 1
172 289 1
172 311 1
172 328 1
172 334 1
172 337 1
172 359 1
172 376 1
172 382 1
173 145 1
173 167 1
173 184 1
173 190 1
173 243 1
173 259 1
173 282 1
173 288 1
173 292 1
173 308 1
173 329 1
173 335 1
173 340 1
173 356 1
173 377 1
173 383 1
174 146 1
174 168 1
174 183 1
174 189 1
174 244 1
174 260 1
174 281 1
174 287 1
174 291 1
174 307 1
174 330 1
174 336 1
174 339 1
174 355 1
174 378 1
174 384 1
175 153 1
175 163 1
175 176 1
175 186 1
175 251 1
175 261 1
175 274 1
175 278 1
175 300 1
175 310 1
175 321 1
175 325 1
175 348 1
175 358 1
175 369 1
175 373 1
176 154 1
176 164 1
176 175 1
176 185 1
176 252 1
176 262 1
176 273 1
176 277 1
176 299 1
176 309 1
176 322 1
176 326 1
176 347 1
176 357 1
176 370 1
176 374 1
177 155 1
177 165 1
177 178 1
177 182 1
177 247 1
177 263 1
177 276 1
177 280 1
177 296 1
177 312 1
177 323 1
177 327 1
177 344 1
177 360 1
177 371 1
177 375 1
178 156 1
178 166 1
178 177 1
178 181 1
178 248 1
178 264 1
178 275 1
178 279 1
178 295 1
178 311 1
178 324 1
178 328 1
178 343 1
178 359 1
178 372 1
178 376 1
179 151 1
179 167 1
179 180 1
179 184 1
179 249 1
179 259 1
179 272 1
179 282 1
179 298 1
179 308 1
179 319 1
179 329 1
179 346 1
179 356 1
179 367 1
179 377 1
180 152 1
180 168 1
180 179 1
180 183 1
180 250 1
180 260 1
180 271 1
180 281 1
180 297 1
180 307 1
180 320 1
180 330 1
180 345 1
180 355 1
180 368 1
180 378 1
181 160 1
181 163 1
181 176 1
181 192 1
181 258 1
181 261 1
181 274 1
181 284 1
181 305 1
181 310 1
181 321 1
181 331 1
181 353 1
181 358 1
181 369 1
181 379 1
182 159 1
182 164 1
182 175 1
182 191 1
182 257 1
182 262 1
182 273 1
182 283 1
182 306 1
182 309 1
182 322 1
182 332 1
182 354 1
182 357 1
182 370 1
182 380 1
183 162 1
183 165 1
183 178 1
183 188 1
183 254 1
183 263 1
183 276 1
183 286 1
183 301 1
183 312 1
183 323 1
183 333 1
183 349 1
183 360 1
183 371 1
183 381 1
184 161 1
184 166 1
184 177 1
184 187 1
184 253 1
184 264 1
184 275 1
184 285 1
184 302 1
184 311 1
184 324 1
184 334 1
184 350 1
184 359 1
184 372 1
184 382 1
185 158 1
185 167 1
185 180 1
185 190 1
185 256 1
185 259 1
185 272 1
185 288 1
185 303 1
185 308 1
185 319 1
185 335 1
185 351 1
185 356 1
185 367 1
185 383 1
186 157 1
186 168 1
186 179 1
186 189 1
186 255 1
186 260 1
186 271 1
186 287 1
186 304 1
186 307 1
186 320 1
186 336 1
186 352 1
186 355 1
186 368 1
186 384 1
187 169 1
187 176 1
187 186 1
187 192 1
187 267 1
187 274 1
187 278 1
187 284 1
187 316 1
187 321 1
187 325 1
187 331 1
187 364 1
187 369 1
187 373 1
187 379 1
188 170 1
188 175 1
188 185 1
188 191 1
188 268 1
188 273 1
188 277 1
188 283 1
188 315 1
188 322 1
188 326 1
188 332 1
188 363 1
188 370 1
188 374 1
188 380 1
189 171 1
189 178 1
189 182 1
189 188 1
189 269 1
189 276 1
189 280 1
189 286 1
189 318 1
189 323 1
189 327 1
189 333 1
189 366 1
189 371 1
189 375 1
189 381 1
190 172 1
190 177 1
190 181 1
190 187 1
190 270 1
190 275 1
190 279 1
190 285 1
190 317 1
190 324 1
190 328 1
190 334 1
190 365 1
190 372 1
190 376 1
190 382 1
191 173 1
191 180 1
191 184 1
191 190 1
191 265 1
191 272 1
191 282 1
191 288 1
191 314 1
191 319 1
191 329 1
191 335 1
191 362 1
191 367 1
191 377 1
191 383 1
192 174 1
192 179 1
192 183 1
192 189 1
192 266 1
192 271 1
192 281 1
192 287 1
192 313 1
192 320 1
192 330 1
192 336 1
192 361 1
192 368 1
192 378 1
192 384 1
