%%MatrixMarket matrix coordinate integer general
306 612 2754
1 1 1
1 34 1
1 61 1
1 307 1
1 340 1
1 367 1
1 409 1
1 442 1
1 469 1
2 2 1
2 18 1
2 62 1
2 308 1
2 324 1
2 368 1
2 410 1
2 426 1
2 470 1
3 3 1
3 19 1
3 63 1
3 309 1
3 325 1
3 369 1
3 411 1
3 427 1
3 471 1
4 4 1
4 20 1
4 64 1
4 310 1
4 326 1
4 370 1
4 412 1
4 428 1
4 472 1
5 5 1
5 21 1
5 65 1
5 311 1
5 327 1
5 371 1
5 413 1
5 429 1
5 473 1
6 6 1
6 22 1
6 66 1
6 312 1
6 328 1
6 372 1
6 414 1
6 430 1
6 474 1
7 7 1
7 23 1
7 67 1
7 313 1
7 329 1
7 373 1
7 415 1
7 431 1
7 475 1
8 8 1
8 24 1
8 68 1
8 314 1
8 330 1
8 374 1
8 416 1
8 432 1
8 476 1
9 9 1
9 25 1
9 52 1
9 315 1
9 331 1
9 358 1
9 417 1
9 433 1
9 460 1
10 10 1
10 26 1
10 53 1
10 316 1
10 332 1
10 359 1
10 418 1
10 434 1
10 461 1
11 11 1
11 27 1
11 54 1
11 317 1
11 333 1
11 360 1
11 419 1
11 435 1
11 462 1
12 12 1
12 28 1
12 55 1
12 318 1
12 334 1
12 361 1
12 420 1
12 436 1
12 463 1
13 13 1
13 29 1
13 56 1
13 319 1
13 335 1
13 362 1
13 421 1
13 437 1
13 464 1
14 14 1
14 30 1
14 57 1
14 320 1
14 336 1
14 363 1
14 422 1
14 438 1
14 465 1
15 15 1
15 31 1
15 58 1
15 321 1
15 337 1
15 364 1
15 423 1
15 439 1
15 466 1
16 16 1
16 32 1
16 59 1
16 322 1
16 338 1
16 365 1
16 424 1
16 440 1
16 467 1
17 17 1
17 33 1
17 60 1
17 323 1
17 339 1
17 366 1
17 425 1
17 441 1
17 468 1
18 1 1
18 45 1
18 76 1
18 307 1
18 351 1
18 382 1
18 409 1
18 453 1
18 484 1
19 2 1
19 46 1
19 77 1
19 308 1
19 352 1
19 383 1
19 410 1
19 454 1
19 485 1
20 3 1
20 47 1
20 78 1
20 309 1
20 353 1
20 384 1
20 411 1
20 455 1
20 486 1
21 4 1
21 48 1
21 79 1
21 310 1
21 354 1
21 385 1
21 412 1
21 456 1
21 487 1
22 5 1
22 49 1
22 80 1
22 311 1
22 355 1
22 386 1
22 413 1
22 457 1
22 488 1
23 6 1
23 50 1
23 81 1
23 312 1
23 356 1
23 387 1
23 414 1
23 458 1
23 489 1
24 7 1
24 51 1
24 82 1
24 313 1
24 357 1
24 388 1
24 415 1
24 459 1
24 490 1
25 8 1
25 35 1
25 83 1
25 314 1
25 341 1
25 389 1
25 416 1
25 443 1
25 491 1
26 9 1
26 36 1
26 84 1
26 315 1
26 342 1
26 390 1
26 417 1
26 444 1
26 492 1
27 10 1
27 37 1
27 85 1
27 316 1
27 343 1
27 391 1
27 418 1
27 445 1
27 493 1
28 11 1
28 38 1
28 69 1
28 317 1
28 344 1
28 375 1
28 419 1
28 446 1
28 477 1
29 12 1
29 39 1
29 70 1
29 318 1
29 345 1
29 376 1
29 420 1
29 447 1
29 478 1
30 13 1
30 40 1
30 71 1
30 319 1
30 346 1
30 377 1
30 421 1
30 448 1
30 479 1
31 14 1
31 41 1
31 72 1
31 320 1
31 347 1
31 378 1
31 422 1
31 449 1
31 480 1
32 15 1
32 42 1
32 73 1
32 321 1
32 348 1
32 379 1
32 423 1
32 450 1
32 481 1
33 16 1
33 43 1
33 74 1
33 322 1
33 349 1
33 380 1
33 424 1
33 451 1
33 482 1
34 17 1
34 44 1
34 75 1
34 323 1
34 350 1
34 381 1
34 425 1
34 452 1
34 483 1
35 34 1
35 45 1
35 92 1
35 340 1
35 351 1
35 398 1
35 442 1
35 453 1
35 500 1
36 18 1
36 46 1
36 93 1
36 324 1
36 352 1
36 399 1
36 426 1
36 454 1
36 501 1
37 19 1
37 47 1
37 94 1
37 325 1
37 353 1
37 400 1
37 427 1
37 455 1
37 502 1
38 20 1
38 48 1
38 95 1
38 326 1
38 354 1
38 401 1
38 428 1
38 456 1
38 503 1
39 21 1
39 49 1
39 96 1
39 327 1
39 355 1
39 402 1
39 429 1
39 457 1
39 504 1
40 22 1
40 50 1
40 97 1
40 328 1
40 356 1
40 403 1
40 430 1
40 458 1
40 505 1
41 23 1
41 51 1
41 98 1
41 329 1
41 357 1
41 404 1
41 431 1
41 459 1
41 506 1
42 24 1
42 35 1
42 99 1
42 330 1
42 341 1
42 405 1
42 432 1
42 443 1
42 507 1
43 25 1
43 36 1
43 100 1
43 331 1
43 342 1
43 406 1
43 433 1
43 444 1
43 508 1
44 26 1
44 37 1
44 101 1
44 332 1
44 343 1
44 407 1
44 434 1
44 445 1
44 509 1
45 27 1
45 38 1
45 102 1
45 333 1
45 344 1
45 408 1
45 435 1
45 446 1
45 510 1
46 28 1
46 39 1
46 86 1
46 334 1
46 345 1
46 392 1
46 436 1
46 447 1
46 494 1
47 29 1
47 40 1
47 87 1
47 335 1
47 346 1
47 393 1
47 437 1
47 448 1
47 495 1
48 30 1
48 41 1
48 88 1
48 336 1
48 347 1
48 394 1
48 438 1
48 449 1
48 496 1
49 31 1
49 42 1
49 89 1
49 337 1
49 348 1
49 395 1
49 439 1
49 450 1
49 497 1
50 32 1
50 43 1
50 90 1
50 338 1
50 349 1
50 396 1
50 440 1
50 451 1
50 498 1
51 33 1
51 44 1
51 91 1
51 339 1
51 350 1
51 397 1
51 441 1
51 452 1
51 499 1
52 103 1
52 136 1
52 163 1
52 307 1
52 340 1
52 367 1
52 511 1
52 544 1
52 571 1
53 104 1
53 120 1
53 164 1
53 308 1
53 324 1
53 368 1
53 512 1
53 528 1
53 572 1
54 105 1
54 121 1
54 165 1
54 309 1
54 325 1
54 369 1
54 513 1
54 529 1
54 573 1
55 106 1
55 122 1
55 166 1
55 310 1
55 326 1
55 370 1
55 514 1
55 530 1
55 574 1
56 107 1
56 123 1
56 167 1
56 311 1
56 327 1
56 371 1
56 515 1
56 531 1
56 575 1
57 108 1
57 124 1
57 168 1
57 312 1
57 328 1
57 372 1
57 516 1
57 532 1
57 576 1
58 109 1
58 125 1
58 169 1
58 313 1
58 329 1
58 373 1
58 517 1
58 533 1
58 577 1
59 110 1
59 126 1
59 170 1
59 314 1
59 330 1
59 374 1
59 518 1
59 534 1
59 578 1
60 111 1
60 127 1
60 154 1
60 315 1
60 331 1
60 358 1
60 519 1
60 535 1
60 562 1
61 112 1
61 128 1
61 155 1
61 316 1
61 332 1
61 359 1
61 520 1
61 536 1
61 563 1
62 113 1
62 129 1
62 156 1
62 317 1
62 333 1
62 360 1
62 521 1
62 537 1
62 564 1
63 114 1
63 130 1
63 157 1
63 318 1
63 334 1
63 361 1
63 522 1
63 538 1
63 565 1
64 115 1
64 131 1
64 158 1
64 319 1
64 335 1
64 362 1
64 523 1
64 539 1
64 566 1
65 116 1
65 132 1
65 159 1
65 320 1
65 336 1
65 363 1
65 524 1
65 540 1
65 567 1
66 117 1
66 133 1
66 160 1
66 321 1
66 337 1
66 364 1
66 525 1
66 541 1
66 568 1
67 118 1
67 134 1
67 161 1
67 322 1
67 338 1
67 365 1
67 526 1
67 542 1
67 569 1
68 119 1
68 135 1
68 162 1
68 323 1
68 339 1
68 366 1
68 527 1
68 543 1
68 570 1
69 103 1
69 147 1
69 178 1
69 307 1
69 351 1
69 382 1
69 511 1
69 555 1
69 586 1
70 104 1
70 148 1
70 179 1
70 308 1
70 352 1
70 383 1
70 512 1
70 556 1
70 587 1
71 105 1
71 149 1
71 180 1
71 309 1
71 353 1
71 384 1
71 513 1
71 557 1
71 588 1
72 106 1
72 150 1
72 181 1
72 310 1
72 354 1
72 385 1
72 514 1
72 558 1
72 589 1
73 107 1
73 151 1
73 182 1
73 311 1
73 355 1
73 386 1
73 515 1
73 559 1
73 590 1
74 108 1
74 152 1
74 183 1
74 312 1
74 356 1
74 387 1
74 516 1
74 560 1
74 591 1
75 109 1
75 153 1
75 184 1
75 313 1
75 357 1
75 388 1
75 517 1
75 561 1
75 592 1
76 110 1
76 137 1
76 185 1
76 314 1
76 341 1
76 389 1
76 518 1
76 545 1
76 593 1
77 111 1
77 138 1
77 186 1
77 315 1
77 342 1
77 390 1
77 519 1
77 546 1
77 594 1
78 112 1
78 139 1
78 187 1
78 316 1
78 343 1
78 391 1
78 520 1
78 547 1
78 595 1
79 113 1
79 140 1
79 171 1
79 317 1
79 344 1
79 375 1
79 521 1
79 548 1
79 579 1
80 114 1
80 141 1
80 172 1
80 318 1
80 345 1
80 376 1
80 522 1
80 549 1
80 580 1
81 115 1
81 142 1
81 173 1
81 319 1
81 346 1
81 377 1
81 523 1
81 550 1
81 581 1
82 116 1
82 143 1
82 174 1
82 320 1
82 347 1
82 378 1
82 524 1
82 551 1
82 582 1
83 117 1
83 144 1
83 175 1
83 321 1
83 348 1
83 379 1
83 525 1
83 552 1
83 583 1
84 118 1
84 145 1
84 176 1
84 322 1
84 349 1
84 380 1
84 526 1
84 553 1
84 584 1
85 119 1
85 146 1
85 177 1
85 323 1
85 350 1
85 381 1
85 527 1
85 554 1
85 585 1
86 136 1
86 147 1
86 194 1
86 340 1
86 351 1
86 398 1
86 544 1
86 555 1
86 602 1
87 120 1
87 148 1
87 195 1
87 324 1
87 352 1
87 399 1
87 528 1
87 556 1
87 603 1
88 121 1
88 149 1
88 196 1
88 325 1
88 353 1
88 400 1
88 529 1
88 557 1
88 604 1
89 122 1
89 150 1
89 197 1
89 326 1
89 354 1
89 401 1
89 530 1
89 558 1
89 605 1
90 123 1
90 151 1
90 198 1
90 327 1
90 355 1
90 402 1
90 531 1
90 559 1
90 606 1
91 124 1
91 152 1
91 199 1
91 328 1
91 356 1
91 403 1
91 532 1
91 560 1
91 607 1
92 125 1
92 153 1
92 200 1
92 329 1
92 357 1
92 404 1
92 533 1
92 561 1
92 608 1
93 126 1
93 137 1
93 201 1
93 330 1
93 341 1
93 405 1
93 534 1
93 545 1
93 609 1
94 127 1
94 138 1
94 202 1
94 331 1
94 342 1
94 406 1
94 535 1
94 546 1
94 610 1
95 128 1
95 139 1
95 203 1
95 332 1
95 343 1
95 407 1
95 536 1
95 547 1
95 611 1
96 129 1
96 140 1
96 204 1
96 333 1
96 344 1
96 408 1
96 537 1
96 548 1
96 612 1
97 130 1
97 141 1
97 188 1
97 334 1
97 345 1
97 392 1
97 538 1
97 549 1
97 596 1
98 131 1
98 142 1
98 189 1
98 335 1
98 346 1
98 393 1
98 539 1
98 550 1
98 597 1
99 132 1
99 143 1
99 190 1
99 336 1
99 347 1
99 394 1
99 540 1
99 551 1
99 598 1
100 133 1
100 144 1
100 191 1
100 337 1
100 348 1
100 395 1
100 541 1
100 552 1
100 599 1
101 134 1
101 145 1
101 192 1
101 338 1
101 349 1
101 396 1
101 542 1
101 553 1
101 600 1
102 135 1
102 146 1
102 193 1
102 339 1
102 350 1
102 397 1
102 543 1
102 554 1
102 601 1
103 205 1
103 238 1
103 265 1
103 409 1
103 442 1
103 469 1
103 511 1
103 544 1
103 571 1
104 206 1
104 222 1
104 266 1
104 410 1
104 426 1
104 470 1
104 512 1
104 528 1
104 572 1
105 207 1
105 223 1
105 267 1
105 411 1
105 427 1
105 471 1
105 513 1
105 529 1
105 573 1
106 208 1
106 224 1
106 268 1
106 412 1
106 428 1
106 472 1
106 514 1
106 530 1
106 574 1
107 209 1
107 225 1
107 269 1
107 413 1
107 429 1
107 473 1
107 515 1
107 531 1
107 575 1
108 210 1
108 226 1
108 270 1
108 414 1
108 430 1
108 474 1
108 516 1
108 532 1
108 576 1
109 211 1
109 227 1
109 271 1
109 415 1
109 431 1
109 475 1
109 517 1
109 533 1
109 577 1
110 212 1
110 228 1
110 272 1
110 416 1
110 432 1
110 476 1
110 518 1
110 534 1
110 578 1
111 213 1
111 229 1
111 256 1
111 417 1
111 433 1
111 460 1
111 519 1
111 535 1
111 562 1
112 214 1
112 230 1
112 257 1
112 418 1
112 434 1
112 461 1
112 520 1
112 536 1
112 563 1
113 215 1
113 231 1
113 258 1
113 419 1
113 435 1
113 462 1
113 521 1
113 537 1
113 564 1
114 216 1
114 232 1
114 259 1
114 420 1
114 436 1
114 463 1
114 522 1
114 538 1
114 565 1
115 217 1
115 233 1
115 260 1
115 421 1
115 437 1
115 464 1
115 523 1
115 539 1
115 566 1
116 218 1
116 234 1
116 261 1
116 422 1
116 438 1
116 465 1
116 524 1
116 540 1
116 567 1
117 219 1
117 235 1
117 262 1
117 423 1
117 439 1
117 466 1
117 525 1
117 541 1
117 568 1
118 220 1
118 236 1
118 263 1
118 424 1
118 440 1
118 467 1
118 526 1
118 542 1
118 569 1
119 221 1
119 237 1
119 264 1
119 425 1
119 441 1
119 468 1
119 527 1
119 543 1
119 570 1
120 205 1
120 249 1
120 280 1
120 409 1
120 453 1
120 484 1
120 511 1
120 555 1
120 586 1
121 206 1
121 250 1
121 281 1
121 410 1
121 454 1
121 485 1
121 512 1
121 556 1
121 587 1
122 207 1
122 251 1
122 282 1
122 411 1
122 455 1
122 486 1
122 513 1
122 557 1
122 588 1
123 208 1
123 252 1
123 283 1
123 412 1
123 456 1
123 487 1
123 514 1
123 558 1
123 589 1
124 209 1
124 253 1
124 284 1
124 413 1
124 457 1
124 488 1
124 515 1
124 559 1
124 590 1
125 210 1
125 254 1
125 285 1
125 414 1
125 458 1
125 489 1
125 516 1
125 560 1
125 591 1
126 211 1
126 255 1
126 286 1
126 415 1
126 459 1
126 490 1
126 517 1
126 561 1
126 592 1
127 212 1
127 239 1
127 287 1
127 416 1
127 443 1
127 491 1
127 518 1
127 545 1
127 593 1
128 213 1
128 240 1
128 288 1
128 417 1
128 444 1
128 492 1
128 519 1
128 546 1
128 594 1
129 214 1
129 241 1
129 289 1
129 418 1
129 445 1
129 493 1
129 520 1
129 547 1
129 595 1
130 215 1
130 242 1
130 273 1
130 419 1
130 446 1
130 477 1
130 521 1
130 548 1
130 579 1
131 216 1
131 243 1
131 274 1
131 420 1
131 447 1
131 478 1
131 522 1
131 549 1
131 580 1
132 217 1
132 244 1
132 275 1
132 421 1
132 448 1
132 479 1
132 523 1
132 550 1
132 581 1
133 218 1
133 245 1
133 276 1
133 422 1
133 449 1
133 480 1
133 524 1
133 551 1
133 582 1
134 219 1
134 246 1
134 277 1
134 423 1
134 450 1
134 481 1
134 525 1
134 552 1
134 583 1
135 220 1
135 247 1
135 278 1
135 424 1
135 451 1
135 482 1
135 526 1
135 553 1
135 584 1
136 221 1
136 248 1
136 279 1
136 425 1
136 452 1
136 483 1
136 527 1
136 554 1
136 585 1
137 238 1
137 249 1
137 296 1
137 442 1
137 453 1
137 500 1
137 544 1
137 555 1
137 602 1
138 222 1
138 250 1
138 297 1
138 426 1
138 454 1
138 501 1
138 528 1
138 556 1
138 603 1
139 223 1
139 251 1
139 298 1
139 427 1
139 455 1
139 502 1
139 529 1
139 557 1
139 604 1
140 224 1
140 252 1
140 299 1
140 428 1
140 456 1
140 503 1
140 530 1
140 558 1
140 605 1
141 225 1
141 253 1
141 300 1
141 429 1
141 457 1
141 504 1
141 531 1
141 559 1
141 606 1
142 226 1
142 254 1
142 301 1
142 430 1
142 458 1
142 505 1
142 532 1
142 560 1
142 607 1
143 227 1
143 255 1
143 302 1
143 431 1
143 459 1
143 506 1
143 533 1
143 561 1
143 608 1
144 228 1
144 239 1
144 303 1
144 432 1
144 443 1
144 507 1
144 534 1
144 545 1
144 609 1
145 229 1
145 240 1
145 304 1
145 433 1
145 444 1
145 508 1
145 535 1
145 546 1
145 610 1
146 230 1
146 241 1
146 305 1
146 434 1
146 445 1
146 509 1
146 536 1
146 547 1
146 611 1
147 231 1
147 242 1
147 306 1
147 435 1
147 446 1
147 510 1
147 537 1
147 548 1
147 612 1
148 232 1
148 243 1
148 290 1
148 436 1
148 447 1
148 494 1
148 538 1
148 549 1
148 596 1
149 233 1
149 244 1
149 291 1
149 437 1
149 448 1
149 495 1
149 539 1
149 550 1
149 597 1
150 234 1
150 245 1
150 292 1
150 438 1
150 449 1
150 496 1
150 540 1
150 551 1
150 598 1
151 235 1
151 246 1
151 293 1
151 439 1
151 450 1
151 497 1
151 541 1
151 552 1
151 599 1
152 236 1
152 247 1
152 294 1
152 440 1
152 451 1
152 498 1
152 542 1
152 553 1
152 600 1
153 237 1
153 248 1
153 295 1
153 441 1
153 452 1
153 499 1
153 543 1
153 554 1
153 601 1
154 1 1
154 18 1
154 52 1
154 315 1
154 332 1
154 366 1
154 417 1
154 434 1
154 468 1
155 2 1
155 19 1
155 53 1
155 316 1
155 333 1
155 367 1
155 418 1
155 435 1
155 469 1
156 3 1
156 20 1
156 54 1
156 317 1
156 334 1
156 368 1
156 419 1
156 436 1
156 470 1
157 4 1
157 21 1
157 55 1
157 318 1
157 335 1
157 369 1
157 420 1
157 437 1
157 471 1
158 5 1
158 22 1
158 56 1
158 319 1
158 336 1
158 370 1
158 421 1
158 438 1
158 472 1
159 6 1
159 23 1
159 57 1
159 320 1
159 337 1
159 371 1
159 422 1
159 439 1
159 473 1
160 7 1
160 24 1
160 58 1
160 321 1
160 338 1
160 372 1
160 423 1
160 440 1
160 474 1
161 8 1
161 25 1
161 59 1
161 322 1
161 339 1
161 373 1
161 424 1
161 441 1
161 475 1
162 9 1
162 26 1
162 60 1
162 323 1
162 340 1
162 374 1
162 425 1
162 442 1
162 476 1
163 10 1
163 27 1
163 61 1
163 307 1
163 324 1
163 358 1
163 409 1
163 426 1
163 460 1
164 11 1
164 28 1
164 62 1
164 308 1
164 325 1
164 359 1
164 410 1
164 427 1
164 461 1
165 12 1
165 29 1
165 63 1
165 309 1
165 326 1
165 360 1
165 411 1
165 428 1
165 462 1
166 13 1
166 30 1
166 64 1
166 310 1
166 327 1
166 361 1
166 412 1
166 429 1
166 463 1
167 14 1
167 31 1
167 65 1
167 311 1
167 328 1
167 362 1
167 413 1
167 430 1
167 464 1
168 15 1
168 32 1
168 66 1
168 312 1
168 329 1
168 363 1
168 414 1
168 431 1
168 465 1
169 16 1
169 33 1
169 67 1
169 313 1
169 330 1
169 364 1
169 415 1
169 432 1
169 466 1
170 17 1
170 34 1
170 68 1
170 314 1
170 331 1
170 365 1
170 416 1
170 433 1
170 467 1
171 1 1
171 35 1
171 69 1
171 315 1
171 349 1
171 383 1
171 417 1
171 451 1
171 485 1
172 2 1
172 36 1
172 70 1
172 316 1
172 350 1
172 384 1
172 418 1
172 452 1
172 486 1
173 3 1
173 37 1
173 71 1
173 317 1
173 351 1
173 385 1
173 419 1
173 453 1
173 487 1
174 4 1
174 38 1
174 72 1
174 318 1
174 352 1
174 386 1
174 420 1
174 454 1
174 488 1
175 5 1
175 39 1
175 73 1
175 319 1
175 353 1
175 387 1
175 421 1
175 455 1
175 489 1
176 6 1
176 40 1
176 74 1
176 320 1
176 354 1
176 388 1
176 422 1
176 456 1
176 490 1
177 7 1
177 41 1
177 75 1
177 321 1
177 355 1
177 389 1
177 423 1
177 457 1
177 491 1
178 8 1
178 42 1
178 76 1
178 322 1
178 356 1
178 390 1
178 424 1
178 458 1
178 492 1
179 9 1
179 43 1
179 77 1
179 323 1
179 357 1
179 391 1
179 425 1
179 459 1
179 493 1
180 10 1
180 44 1
180 78 1
180 307 1
180 341 1
180 375 1
180 409 1
180 443 1
180 477 1
181 11 1
181 45 1
181 79 1
181 308 1
181 342 1
181 376 1
181 410 1
181 444 1
181 478 1
182 12 1
182 46 1
182 80 1
182 309 1
182 343 1
182 377 1
182 411 1
182 445 1
182 479 1
183 13 1
183 47 1
183 81 1
183 310 1
183 344 1
183 378 1
183 412 1
183 446 1
183 480 1
184 14 1
184 48 1
184 82 1
184 311 1
184 345 1
184 379 1
184 413 1
184 447 1
184 481 1
185 15 1
185 49 1
185 83 1
185 312 1
185 346 1
185 380 1
185 414 1
185 448 1
185 482 1
186 16 1
186 50 1
186 84 1
186 313 1
186 347 1
186 381 1
186 415 1
186 449 1
186 483 1
187 17 1
187 51 1
187 85 1
187 314 1
187 348 1
187 382 1
187 416 1
187 450 1
187 484 1
188 18 1
188 35 1
188 86 1
188 332 1
188 349 1
188 400 1
188 434 1
188 451 1
188 502 1
189 19 1
189 36 1
189 87 1
189 333 1
189 350 1
189 401 1
189 435 1
189 452 1
189 503 1
190 20 1
190 37 1
190 88 1
190 334 1
190 351 1
190 402 1
190 436 1
190 453 1
190 504 1
191 21 1
191 38 1
191 89 1
191 335 1
191 352 1
191 403 1
191 437 1
191 454 1
191 505 1
192 22 1
192 39 1
192 90 1
192 336 1
192 353 1
192 404 1
192 438 1
192 455 1
192 506 1
193 23 1
193 40 1
193 91 1
193 337 1
193 354 1
193 405 1
193 439 1
193 456 1
193 507 1
194 24 1
194 41 1
194 92 1
194 338 1
194 355 1
194 406 1
194 440 1
194 457 1
194 508 1
195 25 1
195 42 1
195 93 1
195 339 1
195 356 1
195 407 1
195 441 1
195 458 1
195 509 1
196 26 1
196 43 1
196 94 1
196 340 1
196 357 1
196 408 1
196 442 1
196 459 1
196 510 1
197 27 1
197 44 1
197 95 1
197 324 1
197 341 1
197 392 1
197 426 1
197 443 1
197 494 1
198 28 1
198 45 1
198 96 1
198 325 1
198 342 1
198 393 1
198 427 1
198 444 1
198 495 1
199 29 1
199 46 1
199 97 1
199 326 1
199 343 1
199 394 1
199 428 1
199 445 1
199 496 1
200 30 1
200 47 1
200 98 1
200 327 1
200 344 1
200 395 1
200 429 1
200 446 1
200 497 1
201 31 1
201 48 1
201 99 1
201 328 1
201 345 1
201 396 1
201 430 1
201 447 1
201 498 1
202 32 1
202 49 1
202 100 1
202 329 1
202 346 1
202 397 1
202 431 1
202 448 1
202 499 1
203 33 1
203 50 1
203 101 1
203 330 1
203 347 1
203 398 1
203 432 1
203 449 1
203 500 1
204 34 1
204 51 1
204 102 1
204 331 1
204 348 1
204 399 1
204 433 1
204 450 1
204 501 1
205 111 1
205 128 1
205 162 1
205 315 1
205 332 1
205 366 1
205 519 1
205 536 1
205 570 1
206 112 1
206 129 1
206 163 1
206 316 1
206 333 1
206 367 1
206 520 1
206 537 1
206 571 1
207 113 1
207 130 1
207 164 1
207 317 1
207 334 1
207 368 1
207 521 1
207 538 1
207 572 1
208 114 1
208 131 1
208 165 1
208 318 1
208 335 1
208 369 1
208 522 1
208 539 1
208 573 1
209 115 1
209 132 1
209 166 1
209 319 1
209 336 1
209 370 1
209 523 1
209 540 1
209 574 1
210 116 1
210 133 1
210 167 1
210 320 1
210 337 1
210 371 1
210 524 1
210 541 1
210 575 1
211 117 1
211 134 1
211 168 1
211 321 1
211 338 1
211 372 1
211 525 1
211 542 1
211 576 1
212 118 1
212 135 1
212 169 1
212 322 1
212 339 1
212 373 1
212 526 1
212 543 1
212 577 1
213 119 1
213 136 1
213 170 1
213 323 1
213 340 1
213 374 1
213 527 1
213 544 1
213 578 1
214 103 1
214 120 1
214 154 1
214 307 1
214 324 1
214 358 1
214 511 1
214 528 1
214 562 1
215 104 1
215 121 1
215 155 1
215 308 1
215 325 1
215 359 1
215 512 1
215 529 1
215 563 1
216 105 1
216 122 1
216 156 1
216 309 1
216 326 1
216 360 1
216 513 1
216 530 1
216 564 1
217 106 1
217 123 1
217 157 1
217 310 1
217 327 1
217 361 1
217 514 1
217 531 1
217 565 1
218 107 1
218 124 1
218 158 1
218 311 1
218 328 1
218 362 1
218 515 1
218 532 1
218 566 1
219 108 1
219 125 1
219 159 1
219 312 1
219 329 1
219 363 1
219 516 1
219 533 1
219 567 1
220 109 1
220 126 1
220 160 1
220 313 1
220 330 1
220 364 1
220 517 1
220 534 1
220 568 1
221 110 1
221 127 1
221 161 1
221 314 1
221 331 1
221 365 1
221 518 1
221 535 1
221 569 1
222 111 1
222 145 1
222 179 1
222 315 1
222 349 1
222 383 1
222 519 1
222 553 1
222 587 1
223 112 1
223 146 1
223 180 1
223 316 1
223 350 1
223 384 1
223 520 1
223 554 1
223 588 1
224 113 1
224 147 1
224 181 1
224 317 1
224 351 1
224 385 1
224 521 1
224 555 1
224 589 1
225 114 1
225 148 1
225 182 1
225 318 1
225 352 1
225 386 1
225 522 1
225 556 1
225 590 1
226 115 1
226 149 1
226 183 1
226 319 1
226 353 1
226 387 1
226 523 1
226 557 1
226 591 1
227 116 1
227 150 1
227 184 1
227 320 1
227 354 1
227 388 1
227 524 1
227 558 1
227 592 1
228 117 1
228 151 1
228 185 1
228 321 1
228 355 1
228 389 1
228 525 1
228 559 1
228 593 1
229 118 1
229 152 1
229 186 1
229 322 1
229 356 1
229 390 1
229 526 1
229 560 1
229 594 1
230 119 1
230 153 1
230 187 1
230 323 1
230 357 1
230 391 1
230 527 1
230 561 1
230 595 1
231 103 1
231 137 1
231 171 1
231 307 1
231 341 1
231 375 1
231 511 1
231 545 1
231 579 1
232 104 1
232 138 1
232 172 1
232 308 1
232 342 1
232 376 1
232 512 1
232 546 1
232 580 1
233 105 1
233 139 1
233 173 1
233 309 1
233 343 1
233 377 1
233 513 1
233 547 1
233 581 1
234 106 1
234 140 1
234 174 1
234 310 1
234 344 1
234 378 1
234 514 1
234 548 1
234 582 1
235 107 1
235 141 1
235 175 1
235 311 1
235 345 1
235 379 1
235 515 1
235 549 1
235 583 1
236 108 1
236 142 1
236 176 1
236 312 1
236 346 1
236 380 1
236 516 1
236 550 1
236 584 1
237 109 1
237 143 1
237 177 1
237 313 1
237 347 1
237 381 1
237 517 1
237 551 1
237 585 1
238 110 1
238 144 1
238 178 1
238 314 1
238 348 1
238 382 1
238 518 1
238 552 1
238 586 1
239 128 1
239 145 1
239 196 1
239 332 1
239 349 1
239 400 1
239 536 1
239 553 1
239 604 1
240 129 1
240 146 1
240 197 1
240 333 1
240 350 1
240 401 1
240 537 1
240 554 1
240 605 1
241 130 1
241 147 1
241 198 1
241 334 1
241 351 1
241 402 1
241 538 1
241 555 1
241 606 1
242 131 1
242 148 1
242 199 1
242 335 1
242 352 1
242 403 1
242 539 1
242 556 1
242 607 1
243 132 1
243 149 1
243 200 1
243 336 1
243 353 1
243 404 1
243 540 1
243 557 1
243 608 1
244 133 1
244 150 1
244 201 1
244 337 1
244 354 1
244 405 1
244 541 1
244 558 1
244 609 1
245 134 1
245 151 1
245 202 1
245 338 1
245 355 1
245 406 1
245 542 1
245 559 1
245 610 1
246 135 1
246 152 1
246 203 1
246 339 1
246 356 1
246 407 1
246 543 1
246 560 1
246 611 1
247 136 1
247 153 1
247 204 1
247 340 1
247 357 1
247 408 1
247 544 1
247 561 1
247 612 1
248 120 1
248 137 1
248 188 1
248 324 1
248 341 1
248 392 1
248 528 1
248 545 1
248 596 1
249 121 1
249 138 1
249 189 1
249 325 1
249 342 1
249 393 1
249 529 1
249 546 1
249 597 1
250 122 1
250 139 1
250 190 1
250 326 1
250 343 1
250 394 1
250 530 1
250 547 1
250 598 1
251 123 1
251 140 1
251 191 1
251 327 1
251 344 1
251 395 1
251 531 1
251 548 1
251 599 1
252 124 1
252 141 1
252 192 1
252 328 1
252 345 1
252 396 1
252 532 1
252 549 1
252 600 1
253 125 1
253 142 1
253 193 1
253 329 1
253 346 1
253 397 1
253 533 1
253 550 1
253 601 1
254 126 1
254 143 1
254 194 1
254 330 1
254 347 1
254 398 1
254 534 1
254 551 1
254 602 1
255 127 1
255 144 1
255 195 1
255 331 1
255 348 1
255 399 1
255 535 1
255 552 1
255 603 1
256 213 1
256 230 1
256 264 1
256 417 1
256 434 1
256 468 1
256 519 1
256 536 1
256 570 1
257 214 1
257 231 1
257 265 1
257 418 1
257 435 1
257 469 1
257 520 1
257 537 1
257 571 1
258 215 1
258 232 1
258 266 1
258 419 1
258 436 1
258 470 1
258 521 1
258 538 1
258 572 1
259 216 1
259 233 1
259 267 1
259 420 1
259 437 1
259 471 1
259 522 1
259 539 1
259 573 1
260 217 1
260 234 1
260 268 1
260 421 1
260 438 1
260 472 1
260 523 1
260 540 1
260 574 1
261 218 1
261 235 1
261 269 1
261 422 1
261 439 1
261 473 1
261 524 1
261 541 1
261 575 1
262 219 1
262 236 1
262 270 1
262 423 1
262 440 1
262 474 1
262 525 1
262 542 1
262 576 1
263 220 1
263 237 1
263 271 1
263 424 1
263 441 1
263 475 1
263 526 1
263 543 1
263 577 1
264 221 1
264 238 1
264 272 1
264 425 1
264 442 1
264 476 1
264 527 1
264 544 1
264 578 1
265 205 1
265 222 1
265 256 1
265 409 1
265 426 1
265 460 1
265 511 1
265 528 1
265 562 1
266 206 1
266 223 1
266 257 1
266 410 1
266 427 1
266 461 1
266 512 1
266 529 1
266 563 1
267 207 1
267 224 1
267 258 1
267 411 1
267 428 1
267 462 1
267 513 1
267 530 1
267 564 1
268 208 1
268 225 1
268 259 1
268 412 1
268 429 1
268 463 1
268 514 1
268 531 1
268 565 1
269 209 1
269 226 1
269 260 1
269 413 1
269 430 1
269 464 1
269 515 1
269 532 1
269 566 1
270 210 1
270 227 1
270 261 1
270 414 1
270 431 1
270 465 1
270 516 1
270 533 1
270 567 1
271 211 1
271 228 1
271 262 1
271 415 1
271 432 1
271 466 1
271 517 1
271 534 1
271 568 1
272 212 1
272 229 1
272 263 1
272 416 1
272 433 1
272 467 1
272 518 1
272 535 1
272 569 1
273 213 1
273 247 1
273 281 1
273 417 1
273 451 1
273 485 1
273 519 1
273 553 1
273 587 1
274 214 1
274 248 1
274 282 1
274 418 1
274 452 1
274 486 1
274 520 1
274 554 1
274 588 1
275 215 1
275 249 1
275 283 1
275 419 1
275 453 1
275 487 1
275 521 1
275 555 1
275 589 1
276 216 1
276 250 1
276 284 1
276 420 1
276 454 1
276 488 1
276 522 1
276 556 1
276 590 1
277 217 1
277 251 1
277 285 1
277 421 1
277 455 1
277 489 1
277 523 1
277 557 1
277 591 1
278 218 1
278 252 1
278 286 1
278 422 1
278 456 1
278 490 1
278 524 1
278 558 1
278 592 1
279 219 1
279 253 1
279 287 1
279 423 1
279 457 1
279 491 1
279 525 1
279 559 1
279 593 1
280 220 1
280 254 1
280 288 1
280 424 1
280 458 1
280 492 1
280 526 1
280 560 1
280 594 1
281 221 1
281 255 1
281 289 1
281 425 1
281 459 1
281 493 1
281 527 1
281 561 1
281 595 1
282 205 1
282 239 1
282 273 1
282 409 1
282 443 1
282 477 1
282 511 1
282 545 1
282 579 1
283 206 1
283 240 1
283 274 1
283 410 1
283 444 1
283 478 1
283 512 1
283 546 1
283 580 1
284 207 1
284 241 1
284 275 1
284 411 1
284 445 1
284 479 1
284 513 1
284 547 1
284 581 1
285 208 1
285 242 1
285 276 1
285 412 1
285 446 1
285 480 1
285 514 1
285 548 1
285 582 1
286 209 1
286 243 1
286 277 1
286 413 1
286 447 1
286 481 1
286 515 1
286 549 1
286 583 1
287 210 1
287 244 1
287 278 1
287 414 1
287 448 1
287 482 1
287 516 1
287 550 1
287 584 1
288 211 1
288 245 1
288 279 1
288 415 1
288 449 1
288 483 1
288 517 1
288 551 1
288 585 1
289 212 1
289 246 1
289 280 1
289 416 1
289 450 1
289 484 1
289 518 1
289 552 1
289 586 1
290 230 1
290 247 1
290 298 1
290 434 1
290 451 1
290 502 1
290 536 1
290 553 1
290 604 1
291 231 1
291 248 1
291 299 1
291 435 1
291 452 1
291 503 1
291 537 1
291 554 1
291 605 1
292 232 1
292 249 1
292 300 1
292 436 1
292 453 1
292 504 1
292 538 1
292 555 1
292 606 1
293 233 1
293 250 1
293 301 1
293 437 1
293 454 1
293 505 1
293 539 1
293 556 1
293 607 1
294 234 1
294 251 1
294 302 1
294 438 1
294 455 1
294 506 1
294 540 1
294 557 1
294 608 1
295 235 1
295 252 1
295 303 1
295 439 1
295 456 1
295 507 1
295 541 1
295 558 1
295 609 1
296 236 1
296 253 1
296 304 1
296 440 1
296 457 1
296 508 1
296 542 1
296 559 1
296 610 1
297 237 1
297 254 1
297 305 1
297 441 1
297 458 1
297 509 1
297 543 1
297 560 1
297 611 1
298 238 1
298 255 1
298 306 1
298 442 1
298 459 1
298 510 1
298 544 1
298 561 1
298 612 1
299 222 1
299 239 1
299 290 1
299 426 1
299 443 1
299 494 1
299 528 1
299 545 1
299 596 1
300 223 1
300 240 1
300 291 1
300 427 1
300 444 1
300 495 1
300 529 1
300 546 1
300 597 1
301 224 1
301 241 1
301 292 1
301 428 1
301 445 1
301 496 1
301 530 1
301 547 1
301 598 1
302 225 1
302 242 1
302 293 1
302 429 1
302 446 1
302 497 1
302 531 1
302 548 1
302 599 1
303 226 1
303 243 1
303 294 1
303 430 1
303 447 1
303 498 1
303 532 1
303 549 1
303 600 1
304 227 1
304 244 1
304 295 1
304 431 1
304 448 1
304 499 1
304 533 1
304 550 1
304 601 1
305 228 1
305 245 1
305 296 1
305 432 1
305 449 1
305 500 1
305 534 1
305 551 1
305 602 1
306 229 1
306 246 1
306 297 1
306 433 1
306 450 1
306 501 1
306 535 1
306 552 1
306 603 1
