%%MatrixMarket matrix coordinate integer general
192 384 3072
1 1 1
1 29 1
1 39 1
1 48 1
1 193 1
1 221 1
1 231 1
1 240 1
1 241 1
1 269 1
1 279 1
1 288 1
1 289 1
1 317 1
1 327 1
1 336 1
2 2 1
2 30 1
2 40 1
2 47 1
2 194 1
2 222 1
2 232 1
2 239 1
2 242 1
2 270 1
2 280 1
2 287 1
2 290 1
2 318 1
2 328 1
2 335 1
3 3 1
3 25 1
3 41 1
3 46 1
3 195 1
3 217 1
3 233 1
3 238 1
3 243 1
3 265 1
3 281 1
3 286 1
3 291 1
3 313 1
3 329 1
3 334 1
4 4 1
4 26 1
4 42 1
4 45 1
4 196 1
4 218 1
4 234 1
4 237 1
4 244 1
4 266 1
4 282 1
4 285 1
4 292 1
4 314 1
4 330 1
4 333 1
5 5 1
5 27 1
5 37 1
5 44 1
5 197 1
5 219 1
5 229 1
5 236 1
5 245 1
5 267 1
5 277 1
5 284 1
5 293 1
5 315 1
5 325 1
5 332 1
6 6 1
6 28 1
6 38 1
6 43 1
6 198 1
6 220 1
6 230 1
6 235 1
6 246 1
6 268 1
6 278 1
6 283 1
6 294 1
6 316 1
6 326 1
6 331 1
7 8 1
7 29 1
7 34 1
7 48 1
7 200 1
7 221 1
7 226 1
7 240 1
7 248 1
7 269 1
7 274 1
7 288 1
7 296 1
7 317 1
7 322 1
7 336 1
8 7 1
8 30 1
8 33 1
8 47 1
8 199 1
8 222 1
8 225 1
8 239 1
8 247 1
8 270 1
8 273 1
8 287 1
8 295 1
8 318 1
8 321 1
8 335 1
9 12 1
9 25 1
9 32 1
9 46 1
9 204 1
9 217 1
9 224 1
9 238 1
9 252 1
9 265 1
9 272 1
9 286 1
9 300 1
9 313 1
9 320 1
9 334 1
10 11 1
10 26 1
10 31 1
10 45 1
10 203 1
10 218 1
10 223 1
10 237 1
10 251 1
10 266 1
10 271 1
10 285 1
10 299 1
10 314 1
10 319 1
10 333 1
11 10 1
11 27 1
11 36 1
11 44 1
11 202 1
11 219 1
11 228 1
11 236 1
11 250 1
11 267 1
11 276 1
11 284 1
11 298 1
11 315 1
11 324 1
11 332 1
12 9 1
12 28 1
12 35 1
12 43 1
12 201 1
12 220 1
12 227 1
12 235 1
12 249 1
12 268 1
12 275 1
12 283 1
12 297 1
12 316 1
12 323 1
12 331 1
13 14 1
13 29 1
13 34 1
13 39 1
13 206 1
13 221 1
13 226 1
13 231 1
13 254 1
13 269 1
13 274 1
13 279 1
13 302 1
13 317 1
13 322 1
13 327 1
14 13 1
14 30 1
14 33 1
14 40 1
14 205 1
14 222 1
14 225 1
14 232 1
14 253 1
14 270 1
14 273 1
14 280 1
14 301 1
14 318 1
14 321 1
14 328 1
15 18 1
15 25 1
15 32 1
15 41 1
15 210 1
15 217 1
15 224 1
15 233 1
15 258 1
15 265 1
15 272 1
15 281 1
15 306 1
15 313 1
15 320 1
15 329 1
16 17 1
16 26 1
16 31 1
16 42 1
16 209 1
16 218 1
16 223 1
16 234 1
16 257 1
16 266 1
16 271 1
16 282 1
16 305 1
16 314 1
16 319 1
16 330 1
17 16 1
17 27 1
17 36 1
17 37 1
17 208 1
17 219 1
17 228 1
17 229 1
17 256 1
17 267 1
17 276 1
17 277 1
17 304 1
17 315 1
17 324 1
17 325 1
18 15 1
18 28 1
18 35 1
18 38 1
18 207 1
18 220 1
18 227 1
18 230 1
18 255 1
18 268 1
18 275 1
18 278 1
18 303 1
18 316 1
18 323 1
18 326 1
19 20 1
19 34 1
19 39 1
19 48 1
19 212 1
19 226 1
19 231 1
19 240 1
19 260 1
19 274 1
19 279 1
19 288 1
19 308 1
19 322 1
19 327 1
19 336 1
20 19 1
20 33 1
20 40 1
20 47 1
20 211 1
20 225 1
20 232 1
20 239 1
20 259 1
20 273 1
20 280 1
20 287 1
20 307 1
20 321 1
20 328 1
20 335 1
21 24 1
21 32 1
21 41 1
21 46 1
21 216 1
21 224 1
21 233 1
21 238 1
21 264 1
21 272 1
21 281 1
21 286 1
21 312 1
21 320 1
21 329 1
21 334 1
22 23 1
22 31 1
22 42 1
22 45 1
22 215 1
22 223 1
22 234 1
22 237 1
22 263 1
22 271 1
22 282 1
22 285 1
22 311 1
22 319 1
22 330 1
22 333 1
23 22 1
23 36 1
23 37 1
23 44 1
23 214 1
23 228 1
23 229 1
23 236 1
23 262 1
23 276 1
23 277 1
23 284 1
23 310 1
23 324 1
23 325 1
23 332 1
24 21 1
24 35 1
24 38 1
24 43 1
24 213 1
24 227 1
24 230 1
24 235 1
24 261 1
24 275 1
24 278 1
24 283 1
24 309 1
24 323 1
24 326 1
24 331 1
25 49 1
25 77 1
25 87 1
25 96 1
25 193 1
25 221 1
25 231 1
25 240 1
25 241 1
25 269 1
25 279 1
25 288 1
25 337 1
25 365 1
25 375 1
25 384 1
26 50 1
26 78 1
26 88 1
26 95 1
26 194 1
26 222 1
26 232 1
26 239 1
26 242 1
26 270 1
26 280 1
26 287 1
26 338 1
26 366 1
26 376 1
26 383 1
27 51 1
27 73 1
27 89 1
27 94 1
27 195 1
27 217 1
27 233 1
27 238 1
27 243 1
27 265 1
27 281 1
27 286 1
27 339 1
27 361 1
27 377 1
27 382 1
28 52 1
28 74 1
28 90 1
28 93 1
28 196 1
28 218 1
28 234 1
28 237 1
28 244 1
28 266 1
28 282 1
28 285 1
28 340 1
28 362 1
28 378 1
28 381 1
29 53 1
29 75 1
29 85 1
29 92 1
29 197 1
29 219 1
29 229 1
29 236 1
29 245 1
29 267 1
29 277 1
29 284 1
29 341 1
29 363 1
29 373 1
29 380 1
30 54 1
30 76 1
30 86 1
30 91 1
30 198 1
30 220 1
30 230 1
30 235 1
30 246 1
30 268 1
30 278 1
30 283 1
30 342 1
30 364 1
30 374 1
30 379 1
31 56 1
31 77 1
31 82 1
31 96 1
31 200 1
31 221 1
31 226 1
31 240 1
31 248 1
31 269 1
31 274 1
31 288 1
31 344 1
31 365 1
31 370 1
31 384 1
32 55 1
32 78 1
32 81 1
32 95 1
32 199 1
32 222 1
32 225 1
32 239 1
32 247 1
32 270 1
32 273 1
32 287 1
32 343 1
32 366 1
32 369 1
32 383 1
33 60 1
33 73 1
33 80 1
33 94 1
33 204 1
33 217 1
33 224 1
33 238 1
33 252 1
33 265 1
33 272 1
33 286 1
33 348 1
33 361 1
33 368 1
33 382 1
34 59 1
34 74 1
34 79 1
34 93 1
34 203 1
34 218 1
34 223 1
34 237 1
34 251 1
34 266 1
34 271 1
34 285 1
34 347 1
34 362 1
34 367 1
34 381 1
35 58 1
35 75 1
35 84 1
35 92 1
35 202 1
35 219 1
35 228 1
35 236 1
35 250 1
35 267 1
35 276 1
35 284 1
35 346 1
35 363 1
35 372 1
35 380 1
36 57 1
36 76 1
36 83 1
36 91 1
36 201 1
36 220 1
36 227 1
36 235 1
36 249 1
36 268 1
36 275 1
36 283 1
36 345 1
36 364 1
36 371 1
36 379 1
37 62 1
37 77 1
37 82 1
37 87 1
37 206 1
37 221 1
37 226 1
37 231 1
37 254 1
37 269 1
37 274 1
37 279 1
37 350 1
37 365 1
37 370 1
37 375 1
38 61 1
38 78 1
38 81 1
38 88 1
38 205 1
38 222 1
38 225 1
38 232 1
38 253 1
38 270 1
38 273 1
38 280 1
38 349 1
38 366 1
38 369 1
38 376 1
39 66 1
39 73 1
39 80 1
39 89 1
39 210 1
39 217 1
39 224 1
39 233 1
39 258 1
39 265 1
39 272 1
39 281 1
39 354 1
39 361 1
39 368 1
39 377 1
40 65 1
40 74 1
40 79 1
40 90 1
40 209 1
40 218 1
40 223 1
40 234 1
40 257 1
40 266 1
40 271 1
40 282 1
40 353 1
40 362 1
40 367 1
40 378 1
41 64 1
41 75 1
41 84 1
41 85 1
41 208 1
41 219 1
41 228 1
41 229 1
41 256 1
41 267 1
41 276 1
41 277 1
41 352 1
41 363 1
41 372 1
41 373 1
42 63 1
42 76 1
42 83 1
42 86 1
42 207 1
42 220 1
42 227 1
42 230 1
42 255 1
42 268 1
42 275 1
42 278 1
42 351 1
42 364 1
42 371 1
42 374 1
43 68 1
43 82 1
43 87 1
43 96 1
43 212 1
43 226 1
43 231 1
43 240 1
43 260 1
43 274 1
43 279 1
43 288 1
43 356 1
43 370 1
43 375 1
43 384 1
44 67 1
44 81 1
44 88 1
44 95 1
44 211 1
44 225 1
44 232 1
44 239 1
44 259 1
44 273 1
44 280 1
44 287 1
44 355 1
44 369 1
44 376 1
44 383 1
45 72 1
45 80 1
45 89 1
45 94 1
45 216 1
45 224 1
45 233 1
45 238 1
45 264 1
45 272 1
45 281 1
45 286 1
45 360 1
45 368 1
45 377 1
45 382 1
46 71 1
46 79 1
46 90 1
46 93 1
46 215 1
46 223 1
46 234 1
46 237 1
46 263 1
46 271 1
46 282 1
46 285 1
46 359 1
46 367 1
46 378 1
46 381 1
47 70 1
47 84 1
47 85 1
47 92 1
47 214 1
47 228 1
47 229 1
47 236 1
47 262 1
47 276 1
47 277 1
47 284 1
47 358 1
47 372 1
47 373 1
47 380 1
48 69 1
48 83 1
48 86 1
48 91 1
48 213 1
48 227 1
48 230 1
48 235 1
48 261 1
48 275 1
48 278 1
48 283 1
48 357 1
48 371 1
48 374 1
48 379 1
49 97 1
49 125 1
49 135 1
49 144 1
49 193 1
49 221 1
49 231 1
49 240 1
49 289 1
49 317 1
49 327 1
49 336 1
49 337 1
49 365 1
49 375 1
49 384 1
50 98 1
50 126 1
50 136 1
50 143 1
50 194 1
50 222 1
50 232 1
50 239 1
50 290 1
50 318 1
50 328 1
50 335 1
50 338 1
50 366 1
50 376 1
50 383 1
51 99 1
51 121 1
51 137 1
51 142 1
51 195 1
51 217 1
51 233 1
51 238 1
51 291 1
51 313 1
51 329 1
51 334 1
51 339 1
51 361 1
51 377 1
51 382 1
52 100 1
52 122 1
52 138 1
52 141 1
52 196 1
52 218 1
52 234 1
52 237 1
52 292 1
52 314 1
52 330 1
52 333 1
52 340 1
52 362 1
52 378 1
52 381 1
53 101 1
53 123 1
53 133 1
53 140 1
53 197 1
53 219 1
53 229 1
53 236 1
53 293 1
53 315 1
53 325 1
53 332 1
53 341 1
53 363 1
53 373 1
53 380 1
54 102 1
54 124 1
54 134 1
54 139 1
54 198 1
54 220 1
54 230 1
54 235 1
54 294 1
54 316 1
54 326 1
54 331 1
54 342 1
54 364 1
54 374 1
54 379 1
55 104 1
55 125 1
55 130 1
55 144 1
55 200 1
55 221 1
55 226 1
55 240 1
55 296 1
55 317 1
55 322 1
55 336 1
55 344 1
55 365 1
55 370 1
55 384 1
56 103 1
56 126 1
56 129 1
56 143 1
56 199 1
56 222 1
56 225 1
56 239 1
56 295 1
56 318 1
56 321 1
56 335 1
56 343 1
56 366 1
56 369 1
56 383 1
57 108 1
57 121 1
57 128 1
57 142 1
57 204 1
57 217 1
57 224 1
57 238 1
57 300 1
57 313 1
57 320 1
57 334 1
57 348 1
57 361 1
57 368 1
57 382 1
58 107 1
58 122 1
58 127 1
58 141 1
58 203 1
58 218 1
58 223 1
58 237 1
58 299 1
58 314 1
58 319 1
58 333 1
58 347 1
58 362 1
58 367 1
58 381 1
59 106 1
59 123 1
59 132 1
59 140 1
59 202 1
59 219 1
59 228 1
59 236 1
59 298 1
59 315 1
59 324 1
59 332 1
59 346 1
59 363 1
59 372 1
59 380 1
60 105 1
60 124 1
60 131 1
60 139 1
60 201 1
60 220 1
60 227 1
60 235 1
60 297 1
60 316 1
60 323 1
60 331 1
60 345 1
60 364 1
60 371 1
60 379 1
61 110 1
61 125 1
61 130 1
61 135 1
61 206 1
61 221 1
61 226 1
61 231 1
61 302 1
61 317 1
61 322 1
61 327 1
61 350 1
61 365 1
61 370 1
61 375 1
62 109 1
62 126 1
62 129 1
62 136 1
62 205 1
62 222 1
62 225 1
62 232 1
62 301 1
62 318 1
62 321 1
62 328 1
62 349 1
62 366 1
62 369 1
62 376 1
63 114 1
63 121 1
63 128 1
63 137 1
63 210 1
63 217 1
63 224 1
63 233 1
63 306 1
63 313 1
63 320 1
63 329 1
63 354 1
63 361 1
63 368 1
63 377 1
64 113 1
64 122 1
64 127 1
64 138 1
64 209 1
64 218 1
64 223 1
64 234 1
64 305 1
64 314 1
64 319 1
64 330 1
64 353 1
64 362 1
64 367 1
64 378 1
65 112 1
65 123 1
65 132 1
65 133 1
65 208 1
65 219 1
65 228 1
65 229 1
65 304 1
65 315 1
65 324 1
65 325 1
65 352 1
65 363 1
65 372 1
65 373 1
66 111 1
66 124 1
66 131 1
66 134 1
66 207 1
66 220 1
66 227 1
66 230 1
66 303 1
66 316 1
66 323 1
66 326 1
66 351 1
66 364 1
66 371 1
66 374 1
67 116 1
67 130 1
67 135 1
67 144 1
67 212 1
67 226 1
67 231 1
67 240 1
67 308 1
67 322 1
67 327 1
67 336 1
67 356 1
67 370 1
67 375 1
67 384 1
68 115 1
68 129 1
68 136 1
68 143 1
68 211 1
68 225 1
68 232 1
68 239 1
68 307 1
68 321 1
68 328 1
68 335 1
68 355 1
68 369 1
68 376 1
68 383 1
69 120 1
69 128 1
69 137 1
69 142 1
69 216 1
69 224 1
69 233 1
69 238 1
69 312 1
69 320 1
69 329 1
69 334 1
69 360 1
69 368 1
69 377 1
69 382 1
70 119 1
70 127 1
70 138 1
70 141 1
70 215 1
70 223 1
70 234 1
70 237 1
70 311 1
70 319 1
70 330 1
70 333 1
70 359 1
70 367 1
70 378 1
70 381 1
71 118 1
71 132 1
71 133 1
71 140 1
71 214 1
71 228 1
71 229 1
71 236 1
71 310 1
71 324 1
71 325 1
71 332 1
71 358 1
71 372 1
71 373 1
71 380 1
72 117 1
72 131 1
72 134 1
72 139 1
72 213 1
72 227 1
72 230 1
72 235 1
72 309 1
72 323 1
72 326 1
72 331 1
72 357 1
72 371 1
72 374 1
72 379 1
73 145 1
73 173 1
73 183 1
73 192 1
73 241 1
73 269 1
73 279 1
73 288 1
73 289 1
73 317 1
73 327 1
73 336 1
73 337 1
73 365 1
73 375 1
73 384 1
74 146 1
74 174 1
74 184 1
74 191 1
74 242 1
74 270 1
74 280 1
74 287 1
74 290 1
74 318 1
74 328 1
74 335 1
74 338 1
74 366 1
74 376 1
74 383 1
75 147 1
75 169 1
75 185 1
75 190 1
75 243 1
75 265 1
75 281 1
75 286 1
75 291 1
75 313 1
75 329 1
75 334 1
75 339 1
75 361 1
75 377 1
75 382 1
76 148 1
76 170 1
76 186 1
76 189 1
76 244 1
76 266 1
76 282 1
76 285 1
76 292 1
76 314 1
76 330 1
76 333 1
76 340 1
76 362 1
76 378 1
76 381 1
77 149 1
77 171 1
77 181 1
77 188 1
77 245 1
77 267 1
77 277 1
77 284 1
77 293 1
77 315 1
77 325 1
77 332 1
77 341 1
77 363 1
77 373 1
77 380 1
78 150 1
78 172 1
78 182 1
78 187 1
78 246 1
78 268 1
78 278 1
78 283 1
78 294 1
78 316 1
78 326 1
78 331 1
78 342 1
78 364 1
78 374 1
78 379 1
79 152 1
79 173 1
79 178 1
79 192 1
79 248 1
79 269 1
79 274 1
79 288 1
79 296 1
79 317 1
79 322 1
79 336 1
79 344 1
79 365 1
79 370 1
79 384 1
80 151 1
80 174 1
80 177 1
80 191 1
80 247 1
80 270 1
80 273 1
80 287 1
80 295 1
80 318 1
80 321 1
80 335 1
80 343 1
80 366 1
80 369 1
80 383 1
81 156 1
81 169 1
81 176 1
81 190 1
81 252 1
81 265 1
81 272 1
81 286 1
81 300 1
81 313 1
81 320 1
81 334 1
81 348 1
81 361 1
81 368 1
81 382 1
82 155 1
82 170 1
82 175 1
82 189 1
82 251 1
82 266 1
82 271 1
82 285 1
82 299 1
82 314 1
82 319 1
82 333 1
82 347 1
82 362 1
82 367 1
82 381 1
83 154 1
83 171 1
83 180 1
83 188 1
83 250 1
83 267 1
83 276 1
83 284 1
83 298 1
83 315 1
83 324 1
83 332 1
83 346 1
83 363 1
83 372 1
83 380 1
84 153 1
84 172 1
84 179 1
84 187 1
84 249 1
84 268 1
84 275 1
84 283 1
84 297 1
84 316 1
84 323 1
84 331 1
84 345 1
84 364 1
84 371 1
84 379 1
85 158 1
85 173 1
85 178 1
85 183 1
85 254 1
85 269 1
85 274 1
85 279 1
85 302 1
85 317 1
85 322 1
85 327 1
85 350 1
85 365 1
85 370 1
85 375 1
86 157 1
86 174 1
86 177 1
86 184 1
86 253 1
86 270 1
86 273 1
86 280 1
86 301 1
86 318 1
86 321 1
86 328 1
86 349 1
86 366 1
86 369 1
86 376 1
87 162 1
87 169 1
87 176 1
87 185 1
87 258 1
87 265 1
87 272 1
87 281 1
87 306 1
87 313 1
87 320 1
87 329 1
87 354 1
87 361 1
87 368 1
87 377 1
88 161 1
88 170 1
88 175 1
88 186 1
88 257 1
88 266 1
88 271 1
88 282 1
88 305 1
88 314 1
88 319 1
88 330 1
88 353 1
88 362 1
88 367 1
88 378 1
89 160 1
89 171 1
89 180 1
89 181 1
89 256 1
89 267 1
89 276 1
89 277 1
89 304 1
89 315 1
89 324 1
89 325 1
89 352 1
89 363 1
89 372 1
89 373 1
90 159 1
90 172 1
90 179 1
90 182 1
90 255 1
90 268 1
90 275 1
90 278 1
90 303 1
90 316 1
90 323 1
90 326 1
90 351 1
90 364 1
90 371 1
90 374 1
91 164 1
91 178 1
91 183 1
91 192 1
91 260 1
91 274 1
91 279 1
91 288 1
91 308 1
91 322 1
91 327 1
91 336 1
91 356 1
91 370 1
91 375 1
91 384 1
92 163 1
92 177 1
92 184 1
92 191 1
92 259 1
92 273 1
92 280 1
92 287 1
92 307 1
92 321 1
92 328 1
92 335 1
92 355 1
92 369 1
92 376 1
92 383 1
93 168 1
93 176 1
93 185 1
93 190 1
93 264 1
93 272 1
93 281 1
93 286 1
93 312 1
93 320 1
93 329 1
93 334 1
93 360 1
93 368 1
93 377 1
93 382 1
94 167 1
94 175 1
94 186 1
94 189 1
94 263 1
94 271 1
94 282 1
94 285 1
94 311 1
94 319 1
94 330 1
94 333 1
94 359 1
94 367 1
94 378 1
94 381 1
95 166 1
95 180 1
95 181 1
95 188 1
95 262 1
95 276 1
95 277 1
95 284 1
95 310 1
95 324 1
95 325 1
95 332 1
95 358 1
95 372 1
95 373 1
95 380 1
96 165 1
96 179 1
96 182 1
96 187 1
96 261 1
96 275 1
96 278 1
96 283 1
96 309 1
96 323 1
96 326 1
96 331 1
96 357 1
96 371 1
96 374 1
96 379 1
97 1 1
97 25 1
97 31 1
97 37 1
97 195 1
97 219 1
97 225 1
97 231 1
97 244 1
97 268 1
97 274 1
97 280 1
97 342 1
97 366 1
97 372 1
97 378 1
98 2 1
98 26 1
98 32 1
98 38 1
98 198 1
98 222 1
98 228 1
98 234 1
98 245 1
98 269 1
98 275 1
98 281 1
98 339 1
98 363 1
98 369 1
98 375 1
99 3 1
99 27 1
99 33 1
99 39 1
99 197 1
99 221 1
99 227 1
99 233 1
99 246 1
99 270 1
99 276 1
99 282 1
99 338 1
99 362 1
99 368 1
99 374 1
100 4 1
100 28 1
100 34 1
100 40 1
100 194 1
100 218 1
100 224 1
100 230 1
100 241 1
100 265 1
100 271 1
100 277 1
100 341 1
100 365 1
100 371 1
100 377 1
101 5 1
101 29 1
101 35 1
101 41 1
101 193 1
101 217 1
101 223 1
101 229 1
101 242 1
101 266 1
101 272 1
101 278 1
101 340 1
101 364 1
101 370 1
101 376 1
102 6 1
102 30 1
102 36 1
102 42 1
102 196 1
102 220 1
102 226 1
102 232 1
102 243 1
102 267 1
102 273 1
102 279 1
102 337 1
102 361 1
102 367 1
102 373 1
103 7 1
103 25 1
103 31 1
103 43 1
103 201 1
103 219 1
103 225 1
103 237 1
103 250 1
103 268 1
103 274 1
103 286 1
103 348 1
103 366 1
103 372 1
103 384 1
104 8 1
104 26 1
104 32 1
104 44 1
104 204 1
104 222 1
104 228 1
104 240 1
104 251 1
104 269 1
104 275 1
104 287 1
104 345 1
104 363 1
104 369 1
104 381 1
105 9 1
105 27 1
105 33 1
105 45 1
105 203 1
105 221 1
105 227 1
105 239 1
105 252 1
105 270 1
105 276 1
105 288 1
105 344 1
105 362 1
105 368 1
105 380 1
106 10 1
106 28 1
106 34 1
106 46 1
106 200 1
106 218 1
106 224 1
106 236 1
106 247 1
106 265 1
106 271 1
106 283 1
106 347 1
106 365 1
106 371 1
106 383 1
107 11 1
107 29 1
107 35 1
107 47 1
107 199 1
107 217 1
107 223 1
107 235 1
107 248 1
107 266 1
107 272 1
107 284 1
107 346 1
107 364 1
107 370 1
107 382 1
108 12 1
108 30 1
108 36 1
108 48 1
108 202 1
108 220 1
108 226 1
108 238 1
108 249 1
108 267 1
108 273 1
108 285 1
108 343 1
108 361 1
108 367 1
108 379 1
109 13 1
109 25 1
109 37 1
109 43 1
109 207 1
109 219 1
109 231 1
109 237 1
109 256 1
109 268 1
109 280 1
109 286 1
109 354 1
109 366 1
109 378 1
109 384 1
110 14 1
110 26 1
110 38 1
110 44 1
110 210 1
110 222 1
110 234 1
110 240 1
110 257 1
110 269 1
110 281 1
110 287 1
110 351 1
110 363 1
110 375 1
110 381 1
111 15 1
111 27 1
111 39 1
111 45 1
111 209 1
111 221 1
111 233 1
111 239 1
111 258 1
111 270 1
111 282 1
111 288 1
111 350 1
111 362 1
111 374 1
111 380 1
112 16 1
112 28 1
112 40 1
112 46 1
112 206 1
112 218 1
112 230 1
112 236 1
112 253 1
112 265 1
112 277 1
112 283 1
112 353 1
112 365 1
112 377 1
112 383 1
113 17 1
113 29 1
113 41 1
113 47 1
113 205 1
113 217 1
113 229 1
113 235 1
113 254 1
113 266 1
113 278 1
113 284 1
113 352 1
113 364 1
113 376 1
113 382 1
114 18 1
114 30 1
114 42 1
114 48 1
114 208 1
114 220 1
114 232 1
114 238 1
114 255 1
114 267 1
114 279 1
114 285 1
114 349 1
114 361 1
114 373 1
114 379 1
115 19 1
115 31 1
115 37 1
115 43 1
115 213 1
115 225 1
115 231 1
115 237 1
115 262 1
115 274 1
115 280 1
115 286 1
115 360 1
115 372 1
115 378 1
115 384 1
116 20 1
116 32 1
116 38 1
116 44 1
116 216 1
116 228 1
116 234 1
116 240 1
116 263 1
116 275 1
116 281 1
116 287 1
116 357 1
116 369 1
116 375 1
116 381 1
117 21 1
117 33 1
117 39 1
117 45 1
117 215 1
117 227 1
117 233 1
117 239 1
117 264 1
117 276 1
117 282 1
117 288 1
117 356 1
117 368 1
117 374 1
117 380 1
118 22 1
118 34 1
118 40 1
118 46 1
118 212 1
118 224 1
118 230 1
118 236 1
118 259 1
118 271 1
118 277 1
118 283 1
118 359 1
118 371 1
118 377 1
118 383 1
119 23 1
119 35 1
119 41 1
119 47 1
119 211 1
119 223 1
119 229 1
119 235 1
119 260 1
119 272 1
119 278 1
119 284 1
119 358 1
119 370 1
119 376 1
119 382 1
120 24 1
120 36 1
120 42 1
120 48 1
120 214 1
120 226 1
120 232 1
120 238 1
120 261 1
120 273 1
120 279 1
120 285 1
120 355 1
120 367 1
120 373 1
120 379 1
121 50 1
121 74 1
121 80 1
121 86 1
121 195 1
121 219 1
121 225 1
121 231 1
121 294 1
121 318 1
121 324 1
121 330 1
121 342 1
121 366 1
121 372 1
121 378 1
122 49 1
122 73 1
122 79 1
122 85 1
122 198 1
122 222 1
122 228 1
122 234 1
122 291 1
122 315 1
122 321 1
122 327 1
122 339 1
122 363 1
122 369 1
122 375 1
123 52 1
123 76 1
123 82 1
123 88 1
123 197 1
123 221 1
123 227 1
123 233 1
123 290 1
123 314 1
123 320 1
123 326 1
123 338 1
123 362 1
123 368 1
123 374 1
124 51 1
124 75 1
124 81 1
124 87 1
124 194 1
124 218 1
124 224 1
124 230 1
124 293 1
124 317 1
124 323 1
124 329 1
124 341 1
124 365 1
124 371 1
124 377 1
125 54 1
125 78 1
125 84 1
125 90 1
125 193 1
125 217 1
125 223 1
125 229 1
125 292 1
125 316 1
125 322 1
125 328 1
125 340 1
125 364 1
125 370 1
125 376 1
126 53 1
126 77 1
126 83 1
126 89 1
126 196 1
126 220 1
126 226 1
126 232 1
126 289 1
126 313 1
126 319 1
126 325 1
126 337 1
126 361 1
126 367 1
126 373 1
127 56 1
127 74 1
127 80 1
127 92 1
127 201 1
127 219 1
127 225 1
127 237 1
127 300 1
127 318 1
127 324 1
127 336 1
127 348 1
127 366 1
127 372 1
127 384 1
128 55 1
128 73 1
128 79 1
128 91 1
128 204 1
128 222 1
128 228 1
128 240 1
128 297 1
128 315 1
128 321 1
128 333 1
128 345 1
128 363 1
128 369 1
128 381 1
129 58 1
129 76 1
129 82 1
129 94 1
129 203 1
129 221 1
129 227 1
129 239 1
129 296 1
129 314 1
129 320 1
129 332 1
129 344 1
129 362 1
129 368 1
129 380 1
130 57 1
130 75 1
130 81 1
130 93 1
130 200 1
130 218 1
130 224 1
130 236 1
130 299 1
130 317 1
130 323 1
130 335 1
130 347 1
130 365 1
130 371 1
130 383 1
131 60 1
131 78 1
131 84 1
131 96 1
131 199 1
131 217 1
131 223 1
131 235 1
131 298 1
131 316 1
131 322 1
131 334 1
131 346 1
131 364 1
131 370 1
131 382 1
132 59 1
132 77 1
132 83 1
132 95 1
132 202 1
132 220 1
132 226 1
132 238 1
132 295 1
132 313 1
132 319 1
132 331 1
132 343 1
132 361 1
132 367 1
132 379 1
133 62 1
133 74 1
133 86 1
133 92 1
133 207 1
133 219 1
133 231 1
133 237 1
133 306 1
133 318 1
133 330 1
133 336 1
133 354 1
133 366 1
133 378 1
133 384 1
134 61 1
134 73 1
134 85 1
134 91 1
134 210 1
134 222 1
134 234 1
134 240 1
134 303 1
134 315 1
134 327 1
134 333 1
134 351 1
134 363 1
134 375 1
134 381 1
135 64 1
135 76 1
135 88 1
135 94 1
135 209 1
135 221 1
135 233 1
135 239 1
135 302 1
135 314 1
135 326 1
135 332 1
135 350 1
135 362 1
135 374 1
135 380 1
136 63 1
136 75 1
136 87 1
136 93 1
136 206 1
136 218 1
136 230 1
136 236 1
136 305 1
136 317 1
136 329 1
136 335 1
136 353 1
136 365 1
136 377 1
136 383 1
137 66 1
137 78 1
137 90 1
137 96 1
137 205 1
137 217 1
137 229 1
137 235 1
137 304 1
137 316 1
137 328 1
137 334 1
137 352 1
137 364 1
137 376 1
137 382 1
138 65 1
138 77 1
138 89 1
138 95 1
138 208 1
138 220 1
138 232 1
138 238 1
138 301 1
138 313 1
138 325 1
138 331 1
138 349 1
138 361 1
138 373 1
138 379 1
139 68 1
139 80 1
139 86 1
139 92 1
139 213 1
139 225 1
139 231 1
139 237 1
139 312 1
139 324 1
139 330 1
139 336 1
139 360 1
139 372 1
139 378 1
139 384 1
140 67 1
140 79 1
140 85 1
140 91 1
140 216 1
140 228 1
140 234 1
140 240 1
140 309 1
140 321 1
140 327 1
140 333 1
140 357 1
140 369 1
140 375 1
140 381 1
141 70 1
141 82 1
141 88 1
141 94 1
141 215 1
141 227 1
141 233 1
141 239 1
141 308 1
141 320 1
141 326 1
141 332 1
141 356 1
141 368 1
141 374 1
141 380 1
142 69 1
142 81 1
142 87 1
142 93 1
142 212 1
142 224 1
142 230 1
142 236 1
142 311 1
142 323 1
142 329 1
142 335 1
142 359 1
142 371 1
142 377 1
142 383 1
143 72 1
143 84 1
143 90 1
143 96 1
143 211 1
143 223 1
143 229 1
143 235 1
143 310 1
143 322 1
143 328 1
143 334 1
143 358 1
143 370 1
143 376 1
143 382 1
144 71 1
144 83 1
144 89 1
144 95 1
144 214 1
144 226 1
144 232 1
144 238 1
144 307 1
144 319 1
144 325 1
144 331 1
144 355 1
144 367 1
144 373 1
144 379 1
145 98 1
145 122 1
145 128 1
145 134 1
145 244 1
145 268 1
145 274 1
145 280 1
145 294 1
145 318 1
145 324 1
145 330 1
145 342 1
145 366 1
145 372 1
145 378 1
146 97 1
146 121 1
146 127 1
146 133 1
146 245 1
146 269 1
146 275 1
146 281 1
146 291 1
146 315 1
146 321 1
146 327 1
146 339 1
146 363 1
146 369 1
146 375 1
147 100 1
147 124 1
147 130 1
147 136 1
147 246 1
147 270 1
147 276 1
147 282 1
147 290 1
147 314 1
147 320 1
147 326 1
147 338 1
147 362 1
147 368 1
147 374 1
148 99 1
148 123 1
148 129 1
148 135 1
148 241 1
148 265 1
148 271 1
148 277 1
148 293 1
148 317 1
148 323 1
148 329 1
148 341 1
148 365 1
148 371 1
148 377 1
149 102 1
149 126 1
149 132 1
149 138 1
149 242 1
149 266 1
149 272 1
149 278 1
149 292 1
149 316 1
149 322 1
149 328 1
149 340 1
149 364 1
149 370 1
149 376 1
150 101 1
150 125 1
150 131 1
150 137 1
150 243 1
150 267 1
150 273 1
150 279 1
150 289 1
150 313 1
150 319 1
150 325 1
150 337 1
150 361 1
150 367 1
150 373 1
151 104 1
151 122 1
151 128 1
151 140 1
151 250 1
151 268 1
151 274 1
151 286 1
151 300 1
151 318 1
151 324 1
151 336 1
151 348 1
151 366 1
151 372 1
151 384 1
152 103 1
152 121 1
152 127 1
152 139 1
152 251 1
152 269 1
152 275 1
152 287 1
152 297 1
152 315 1
152 321 1
152 333 1
152 345 1
152 363 1
152 369 1
152 381 1
153 106 1
153 124 1
153 130 1
153 142 1
153 252 1
153 270 1
153 276 1
153 288 1
153 296 1
153 314 1
153 320 1
153 332 1
153 344 1
153 362 1
153 368 1
153 380 1
154 105 1
154 123 1
154 129 1
154 141 1
154 247 1
154 265 1
154 271 1
154 283 1
154 299 1
154 317 1
154 323 1
154 335 1
154 347 1
154 365 1
154 371 1
154 383 1
155 108 1
155 126 1
155 132 1
155 144 1
155 248 1
155 266 1
155 272 1
155 284 1
155 298 1
155 316 1
155 322 1
155 334 1
155 346 1
155 364 1
155 370 1
155 382 1
156 107 1
156 125 1
156 131 1
156 143 1
156 249 1
156 267 1
156 273 1
156 285 1
156 295 1
156 313 1
156 319 1
156 331 1
156 343 1
156 361 1
156 367 1
156 379 1
157 110 1
157 122 1
157 134 1
157 140 1
157 256 1
157 268 1
157 280 1
157 286 1
157 306 1
157 318 1
157 330 1
157 336 1
157 354 1
157 366 1
157 378 1
157 384 1
158 109 1
158 121 1
158 133 1
158 139 1
158 257 1
158 269 1
158 281 1
158 287 1
158 303 1
158 315 1
158 327 1
158 333 1
158 351 1
158 363 1
158 375 1
158 381 1
159 112 1
159 124 1
159 136 1
159 142 1
159 258 1
159 270 1
159 282 1
159 288 1
159 302 1
159 314 1
159 326 1
159 332 1
159 350 1
159 362 1
159 374 1
159 380 1
160 111 1
160 123 1
160 135 1
160 141 1
160 253 1
160 265 1
160 277 1
160 283 1
160 305 1
160 317 1
160 329 1
160 335 1
160 353 1
160 365 1
160 377 1
160 383 1
161 114 1
161 126 1
161 138 1
161 144 1
161 254 1
161 266 1
161 278 1
161 284 1
161 304 1
161 316 1
161 328 1
161 334 1
161 352 1
161 364 1
161 376 1
161 382 1
162 113 1
162 125 1
162 137 1
162 143 1
162 255 1
162 267 1
162 279 1
162 285 1
162 301 1
162 313 1
162 325 1
162 331 1
162 349 1
162 361 1
162 373 1
162 379 1
163 116 1
163 128 1
163 134 1
163 140 1
163 262 1
163 274 1
163 280 1
163 286 1
163 312 1
163 324 1
163 330 1
163 336 1
163 360 1
163 372 1
163 378 1
163 384 1
164 115 1
164 127 1
164 133 1
164 139 1
164 263 1
164 275 1
164 281 1
164 287 1
164 309 1
164 321 1
164 327 1
164 333 1
164 357 1
164 369 1
164 375 1
164 381 1
165 118 1
165 130 1
165 136 1
165 142 1
165 264 1
165 276 1
165 282 1
165 288 1
165 308 1
165 320 1
165 326 1
165 332 1
165 356 1
165 368 1
165 374 1
165 380 1
166 117 1
166 129 1
166 135 1
166 141 1
166 259 1
166 271 1
166 277 1
166 283 1
166 311 1
166 323 1
166 329 1
166 335 1
166 359 1
166 371 1
166 377 1
166 383 1
167 120 1
167 132 1
167 138 1
167 144 1
167 260 1
167 272 1
167 278 1
167 284 1
167 310 1
167 322 1
167 328 1
167 334 1
167 358 1
167 370 1
167 376 1
167 382 1
168 119 1
168 131 1
168 137 1
168 143 1
168 261 1
168 273 1
168 279 1
168 285 1
168 307 1
168 319 1
168 325 1
168 331 1
168 355 1
168 367 1
168 373 1
168 379 1
169 147 1
169 171 1
169 177 1
169 183 1
169 195 1
169 219 1
169 225 1
169 231 1
169 244 1
169 268 1
169 274 1
169 280 1
169 294 1
169 318 1
169 324 1
169 330 1
170 150 1
170 174 1
170 180 1
170 186 1
170 198 1
170 222 1
170 228 1
170 234 1
170 245 1
170 269 1
170 275 1
170 281 1
170 291 1
170 315 1
170 321 1
170 327 1
171 149 1
171 173 1
171 179 1
171 185 1
171 197 1
171 221 1
171 227 1
171 233 1
171 246 1
171 270 1
171 276 1
171 282 1
171 290 1
171 314 1
171 320 1
171 326 1
172 146 1
172 170 1
172 176 1
172 182 1
172 194 1
172 218 1
172 224 1
172 230 1
172 241 1
172 265 1
172 271 1
172 277 1
172 293 1
172 317 1
172 323 1
172 329 1
173 145 1
173 169 1
173 175 1
173 181 1
173 193 1
173 217 1
173 223 1
173 229 1
173 242 1
173 266 1
173 272 1
173 278 1
173 292 1
173 316 1
173 322 1
173 328 1
174 148 1
174 172 1
174 178 1
174 184 1
174 196 1
174 220 1
174 226 1
174 232 1
174 243 1
174 267 1
174 273 1
174 279 1
174 289 1
174 313 1
174 319 1
174 325 1
175 153 1
175 171 1
175 177 1
175 189 1
175 201 1
175 219 1
175 225 1
175 237 1
175 250 1
175 268 1
175 274 1
175 286 1
175 300 1
175 318 1
175 324 1
175 336 1
176 156 1
176 174 1
176 180 1
176 192 1
176 204 1
176 222 1
176 228 1
176 240 1
176 251 1
176 269 1
176 275 1
176 287 1
176 297 1
176 315 1
176 321 1
176 333 1
177 155 1
177 173 1
177 179 1
177 191 1
177 203 1
177 221 1
177 227 1
177 239 1
177 252 1
177 270 1
177 276 1
177 288 1
177 296 1
177 314 1
177 320 1
177 332 1
178 152 1
178 170 1
178 176 1
178 188 1
178 200 1
178 218 1
178 224 1
178 236 1
178 247 1
178 265 1
178 271 1
178 283 1
178 299 1
178 317 1
178 323 1
178 335 1
179 151 1
179 169 1
179 175 1
179 187 1
179 199 1
179 217 1
179 223 1
179 235 1
179 248 1
179 266 1
179 272 1
179 284 1
179 298 1
179 316 1
179 322 1
179 334 1
180 154 1
180 172 1
180 178 1
180 190 1
180 202 1
180 220 1
180 226 1
180 238 1
180 249 1
180 267 1
180 273 1
180 285 1
180 295 1
180 313 1
180 319 1
180 331 1
181 159 1
181 171 1
181 183 1
181 189 1
181 207 1
181 219 1
181 231 1
181 237 1
181 256 1
181 268 1
181 280 1
181 286 1
181 306 1
181 318 1
181 330 1
181 336 1
182 162 1
182 174 1
182 186 1
182 192 1
182 210 1
182 222 1
182 234 1
182 240 1
182 257 1
182 269 1
182 281 1
182 287 1
182 303 1
182 315 1
182 327 1
182 333 1
183 161 1
183 173 1
183 185 1
183 191 1
183 209 1
183 221 1
183 233 1
183 239 1
183 258 1
183 270 1
183 282 1
183 288 1
183 302 1
183 314 1
183 326 1
183 332 1
184 158 1
184 170 1
184 182 1
184 188 1
184 206 1
184 218 1
184 230 1
184 236 1
184 253 1
184 265 1
184 277 1
184 283 1
184 305 1
184 317 1
184 329 1
184 335 1
185 157 1
185 169 1
185 181 1
185 187 1
185 205 1
185 217 1
185 229 1
185 235 1
185 254 1
185 266 1
185 278 1
185 284 1
185 304 1
185 316 1
185 328 1
185 334 1
186 160 1
186 172 1
186 184 1
186 190 1
186 208 1
186 220 1
186 232 1
186 238 1
186 255 1
186 267 1
186 279 1
186 285 1
186 301 1
186 313 1
186 325 1
186 331 1
187 165 1
187 177 1
187 183 1
187 189 1
187 213 1
187 225 1
187 231 1
187 237 1
187 262 1
187 274 1
187 280 1
187 286 1
187 312 1
187 324 1
187 330 1
187 336 1
188 168 1
188 180 1
188 186 1
188 192 1
188 216 1
188 228 1
188 234 1
188 240 1
188 263 1
188 275 1
188 281 1
188 287 1
188 309 1
188 321 1
188 327 1
188 333 1
189 167 1
189 179 1
189 185 1
189 191 1
189 215 1
189 227 1
189 233 1
189 239 1
189 264 1
189 276 1
189 282 1
189 288 1
189 308 1
189 320 1
189 326 1
189 332 1
190 164 1
190 176 1
190 182 1
190 188 1
190 212 1
190 224 1
190 230 1
190 236 1
190 259 1
190 271 1
190 277 1
190 283 1
190 311 1
190 323 1
190 329 1
190 335 1
191 163 1
191 175 1
191 181 1
191 187 1
191 211 1
191 223 1
191 229 1
191 235 1
191 260 1
191 272 1
191 278 1
191 284 1
191 310 1
191 322 1
191 328 1
191 334 1
192 166 1
192 178 1
192 184 1
192 190 1
192 214 1
192 226 1
192 232 1
192 238 1
192 261 1
192 273 1
192 279 1
192 285 1
192 307 1
192 319 1
192 325 1
192 331 1
