%%MatrixMarket matrix coordinate integer general
192 384 3072
1 1 1
1 25 1
1 31 1
1 37 1
1 193 1
1 217 1
1 223 1
1 229 1
1 241 1
1 265 1
1 271 1
1 277 1
1 289 1
1 313 1
1 319 1
1 325 1
2 2 1
2 26 1
2 32 1
2 38 1
2 194 1
2 218 1
2 224 1
2 230 1
2 242 1
2 266 1
2 272 1
2 278 1
2 290 1
2 314 1
2 320 1
2 326 1
3 3 1
3 27 1
3 33 1
3 39 1
3 195 1
3 219 1
3 225 1
3 231 1
3 243 1
3 267 1
3 273 1
3 279 1
3 291 1
3 315 1
3 321 1
3 327 1
4 4 1
4 28 1
4 34 1
4 40 1
4 196 1
4 220 1
4 226 1
4 232 1
4 244 1
4 268 1
4 274 1
4 280 1
4 292 1
4 316 1
4 322 1
4 328 1
5 5 1
5 29 1
5 35 1
5 41 1
5 197 1
5 221 1
5 227 1
5 233 1
5 245 1
5 269 1
5 275 1
5 281 1
5 293 1
5 317 1
5 323 1
5 329 1
6 6 1
6 30 1
6 36 1
6 42 1
6 198 1
6 222 1
6 228 1
6 234 1
6 246 1
6 270 1
6 276 1
6 282 1
6 294 1
6 318 1
6 324 1
6 330 1
7 7 1
7 25 1
7 31 1
7 43 1
7 199 1
7 217 1
7 223 1
7 235 1
7 247 1
7 265 1
7 271 1
7 283 1
7 295 1
7 313 1
7 319 1
7 331 1
8 8 1
8 26 1
8 32 1
8 44 1
8 200 1
8 218 1
8 224 1
8 236 1
8 248 1
8 266 1
8 272 1
8 284 1
8 296 1
8 314 1
8 320 1
8 332 1
9 9 1
9 27 1
9 33 1
9 45 1
9 201 1
9 219 1
9 225 1
9 237 1
9 249 1
9 267 1
9 273 1
9 285 1
9 297 1
9 315 1
9 321 1
9 333 1
10 10 1
10 28 1
10 34 1
10 46 1
10 202 1
10 220 1
10 226 1
10 238 1
10 250 1
10 268 1
10 274 1
10 286 1
10 298 1
10 316 1
10 322 1
10 334 1
11 11 1
11 29 1
11 35 1
11 47 1
11 203 1
11 221 1
11 227 1
11 239 1
11 251 1
11 269 1
11 275 1
11 287 1
11 299 1
11 317 1
11 323 1
11 335 1
12 12 1
12 30 1
12 36 1
12 48 1
12 204 1
12 222 1
12 228 1
12 240 1
12 252 1
12 270 1
12 276 1
12 288 1
12 300 1
12 318 1
12 324 1
12 336 1
13 13 1
13 25 1
13 37 1
13 43 1
13 205 1
13 217 1
13 229 1
13 235 1
13 253 1
13 265 1
13 277 1
13 283 1
13 301 1
13 313 1
13 325 1
13 331 1
14 14 1
14 26 1
14 38 1
14 44 1
14 206 1
14 218 1
14 230 1
14 236 1
14 254 1
14 266 1
14 278 1
14 284 1
14 302 1
14 314 1
14 326 1
14 332 1
15 15 1
15 27 1
15 39 1
15 45 1
15 207 1
15 219 1
15 231 1
15 237 1
15 255 1
15 267 1
15 279 1
15 285 1
15 303 1
15 315 1
15 327 1
15 333 1
16 16 1
16 28 1
16 40 1
16 46 1
16 208 1
16 220 1
16 232 1
16 238 1
16 256 1
16 268 1
16 280 1
16 286 1
16 304 1
16 316 1
16 328 1
16 334 1
17 17 1
17 29 1
17 41 1
17 47 1
17 209 1
17 221 1
17 233 1
17 239 1
17 257 1
17 269 1
17 281 1
17 287 1
17 305 1
17 317 1
17 329 1
17 335 1
18 18 1
18 30 1
18 42 1
18 48 1
18 210 1
18 222 1
18 234 1
18 240 1
18 258 1
18 270 1
18 282 1
18 288 1
18 306 1
18 318 1
18 330 1
18 336 1
19 19 1
19 31 1
19 37 1
19 43 1
19 211 1
19 223 1
19 229 1
19 235 1
19 259 1
19 271 1
19 277 1
19 283 1
19 307 1
19 319 1
19 325 1
19 331 1
20 20 1
20 32 1
20 38 1
20 44 1
20 212 1
20 224 1
20 230 1
20 236 1
20 260 1
20 272 1
20 278 1
20 284 1
20 308 1
20 320 1
20 326 1
20 332 1
21 21 1
21 33 1
21 39 1
21 45 1
21 213 1
21 225 1
21 231 1
21 237 1
21 261 1
21 273 1
21 279 1
21 285 1
21 309 1
21 321 1
21 327 1
21 333 1
22 22 1
22 34 1
22 40 1
22 46 1
22 214 1
22 226 1
22 232 1
22 238 1
22 262 1
22 274 1
22 280 1
22 286 1
22 310 1
22 322 1
22 328 1
22 334 1
23 23 1
23 35 1
23 41 1
23 47 1
23 215 1
23 227 1
23 233 1
23 239 1
23 263 1
23 275 1
23 281 1
23 287 1
23 311 1
23 323 1
23 329 1
23 335 1
24 24 1
24 36 1
24 42 1
24 48 1
24 216 1
24 228 1
24 234 1
24 240 1
24 264 1
24 276 1
24 282 1
24 288 1
24 312 1
24 324 1
24 330 1
24 336 1
25 49 1
25 73 1
25 79 1
25 85 1
25 193 1
25 217 1
25 223 1
25 229 1
25 241 1
25 265 1
25 271 1
25 277 1
25 337 1
25 361 1
25 367 1
25 373 1
26 50 1
26 74 1
26 80 1
26 86 1
26 194 1
26 218 1
26 224 1
26 230 1
26 242 1
26 266 1
26 272 1
26 278 1
26 338 1
26 362 1
26 368 1
26 374 1
27 51 1
27 75 1
27 81 1
27 87 1
27 195 1
27 219 1
27 225 1
27 231 1
27 243 1
27 267 1
27 273 1
27 279 1
27 339 1
27 363 1
27 369 1
27 375 1
28 52 1
28 76 1
28 82 1
28 88 1
28 196 1
28 220 1
28 226 1
28 232 1
28 244 1
28 268 1
28 274 1
28 280 1
28 340 1
28 364 1
28 370 1
28 376 1
29 53 1
29 77 1
29 83 1
29 89 1
29 197 1
29 221 1
29 227 1
29 233 1
29 245 1
29 269 1
29 275 1
29 281 1
29 341 1
29 365 1
29 371 1
29 377 1
30 54 1
30 78 1
30 84 1
30 90 1
30 198 1
30 222 1
30 228 1
30 234 1
30 246 1
30 270 1
30 276 1
30 282 1
30 342 1
30 366 1
30 372 1
30 378 1
31 55 1
31 73 1
31 79 1
31 91 1
31 199 1
31 217 1
31 223 1
31 235 1
31 247 1
31 265 1
31 271 1
31 283 1
31 343 1
31 361 1
31 367 1
31 379 1
32 56 1
32 74 1
32 80 1
32 92 1
32 200 1
32 218 1
32 224 1
32 236 1
32 248 1
32 266 1
32 272 1
32 284 1
32 344 1
32 362 1
32 368 1
32 380 1
33 57 1
33 75 1
33 81 1
33 93 1
33 201 1
33 219 1
33 225 1
33 237 1
33 249 1
33 267 1
33 273 1
33 285 1
33 345 1
33 363 1
33 369 1
33 381 1
34 58 1
34 76 1
34 82 1
34 94 1
34 202 1
34 220 1
34 226 1
34 238 1
34 250 1
34 268 1
34 274 1
34 286 1
34 346 1
34 364 1
34 370 1
34 382 1
35 59 1
35 77 1
35 83 1
35 95 1
35 203 1
35 221 1
35 227 1
35 239 1
35 251 1
35 269 1
35 275 1
35 287 1
35 347 1
35 365 1
35 371 1
35 383 1
36 60 1
36 78 1
36 84 1
36 96 1
36 204 1
36 222 1
36 228 1
36 240 1
36 252 1
36 270 1
36 276 1
36 288 1
36 348 1
36 366 1
36 372 1
36 384 1
37 61 1
37 73 1
37 85 1
37 91 1
37 205 1
37 217 1
37 229 1
37 235 1
37 253 1
37 265 1
37 277 1
37 283 1
37 349 1
37 361 1
37 373 1
37 379 1
38 62 1
38 74 1
38 86 1
38 92 1
38 206 1
38 218 1
38 230 1
38 236 1
38 254 1
38 266 1
38 278 1
38 284 1
38 350 1
38 362 1
38 374 1
38 380 1
39 63 1
39 75 1
39 87 1
39 93 1
39 207 1
39 219 1
39 231 1
39 237 1
39 255 1
39 267 1
39 279 1
39 285 1
39 351 1
39 363 1
39 375 1
39 381 1
40 64 1
40 76 1
40 88 1
40 94 1
40 208 1
40 220 1
40 232 1
40 238 1
40 256 1
40 268 1
40 280 1
40 286 1
40 352 1
40 364 1
40 376 1
40 382 1
41 65 1
41 77 1
41 89 1
41 95 1
41 209 1
41 221 1
41 233 1
41 239 1
41 257 1
41 269 1
41 281 1
41 287 1
41 353 1
41 365 1
41 377 1
41 383 1
42 66 1
42 78 1
42 90 1
42 96 1
42 210 1
42 222 1
42 234 1
42 240 1
42 258 1
42 270 1
42 282 1
42 288 1
42 354 1
42 366 1
42 378 1
42 384 1
43 67 1
43 79 1
43 85 1
43 91 1
43 211 1
43 223 1
43 229 1
43 235 1
43 259 1
43 271 1
43 277 1
43 283 1
43 355 1
43 367 1
43 373 1
43 379 1
44 68 1
44 80 1
44 86 1
44 92 1
44 212 1
44 224 1
44 230 1
44 236 1
44 260 1
44 272 1
44 278 1
44 284 1
44 356 1
44 368 1
44 374 1
44 380 1
45 69 1
45 81 1
45 87 1
45 93 1
45 213 1
45 225 1
45 231 1
45 237 1
45 261 1
45 273 1
45 279 1
45 285 1
45 357 1
45 369 1
45 375 1
45 381 1
46 70 1
46 82 1
46 88 1
46 94 1
46 214 1
46 226 1
46 232 1
46 238 1
46 262 1
46 274 1
46 280 1
46 286 1
46 358 1
46 370 1
46 376 1
46 382 1
47 71 1
47 83 1
47 89 1
47 95 1
47 215 1
47 227 1
47 233 1
47 239 1
47 263 1
47 275 1
47 281 1
47 287 1
47 359 1
47 371 1
47 377 1
47 383 1
48 72 1
48 84 1
48 90 1
48 96 1
48 216 1
48 228 1
48 234 1
48 240 1
48 264 1
48 276 1
48 282 1
48 288 1
48 360 1
48 372 1
48 378 1
48 384 1
49 97 1
49 121 1
49 127 1
49 133 1
49 193 1
49 217 1
49 223 1
49 229 1
49 289 1
49 313 1
49 319 1
49 325 1
49 337 1
49 361 1
49 367 1
49 373 1
50 98 1
50 122 1
50 128 1
50 134 1
50 194 1
50 218 1
50 224 1
50 230 1
50 290 1
50 314 1
50 320 1
50 326 1
50 338 1
50 362 1
50 368 1
50 374 1
51 99 1
51 123 1
51 129 1
51 135 1
51 195 1
51 219 1
51 225 1
51 231 1
51 291 1
51 315 1
51 321 1
51 327 1
51 339 1
51 363 1
51 369 1
51 375 1
52 100 1
52 124 1
52 130 1
52 136 1
52 196 1
52 220 1
52 226 1
52 232 1
52 292 1
52 316 1
52 322 1
52 328 1
52 340 1
52 364 1
52 370 1
52 376 1
53 101 1
53 125 1
53 131 1
53 137 1
53 197 1
53 221 1
53 227 1
53 233 1
53 293 1
53 317 1
53 323 1
53 329 1
53 341 1
53 365 1
53 371 1
53 377 1
54 102 1
54 126 1
54 132 1
54 138 1
54 198 1
54 222 1
54 228 1
54 234 1
54 294 1
54 318 1
54 324 1
54 330 1
54 342 1
54 366 1
54 372 1
54 378 1
55 103 1
55 121 1
55 127 1
55 139 1
55 199 1
55 217 1
55 223 1
55 235 1
55 295 1
55 313 1
55 319 1
55 331 1
55 343 1
55 361 1
55 367 1
55 379 1
56 104 1
56 122 1
56 128 1
56 140 1
56 200 1
56 218 1
56 224 1
56 236 1
56 296 1
56 314 1
56 320 1
56 332 1
56 344 1
56 362 1
56 368 1
56 380 1
57 105 1
57 123 1
57 129 1
57 141 1
57 201 1
57 219 1
57 225 1
57 237 1
57 297 1
57 315 1
57 321 1
57 333 1
57 345 1
57 363 1
57 369 1
57 381 1
58 106 1
58 124 1
58 130 1
58 142 1
58 202 1
58 220 1
58 226 1
58 238 1
58 298 1
58 316 1
58 322 1
58 334 1
58 346 1
58 364 1
58 370 1
58 382 1
59 107 1
59 125 1
59 131 1
59 143 1
59 203 1
59 221 1
59 227 1
59 239 1
59 299 1
59 317 1
59 323 1
59 335 1
59 347 1
59 365 1
59 371 1
59 383 1
60 108 1
60 126 1
60 132 1
60 144 1
60 204 1
60 222 1
60 228 1
60 240 1
60 300 1
60 318 1
60 324 1
60 336 1
60 348 1
60 366 1
60 372 1
60 384 1
61 109 1
61 121 1
61 133 1
61 139 1
61 205 1
61 217 1
61 229 1
61 235 1
61 301 1
61 313 1
61 325 1
61 331 1
61 349 1
61 361 1
61 373 1
61 379 1
62 110 1
62 122 1
62 134 1
62 140 1
62 206 1
62 218 1
62 230 1
62 236 1
62 302 1
62 314 1
62 326 1
62 332 1
62 350 1
62 362 1
62 374 1
62 380 1
63 111 1
63 123 1
63 135 1
63 141 1
63 207 1
63 219 1
63 231 1
63 237 1
63 303 1
63 315 1
63 327 1
63 333 1
63 351 1
63 363 1
63 375 1
63 381 1
64 112 1
64 124 1
64 136 1
64 142 1
64 208 1
64 220 1
64 232 1
64 238 1
64 304 1
64 316 1
64 328 1
64 334 1
64 352 1
64 364 1
64 376 1
64 382 1
65 113 1
65 125 1
65 137 1
65 143 1
65 209 1
65 221 1
65 233 1
65 239 1
65 305 1
65 317 1
65 329 1
65 335 1
65 353 1
65 365 1
65 377 1
65 383 1
66 114 1
66 126 1
66 138 1
66 144 1
66 210 1
66 222 1
66 234 1
66 240 1
66 306 1
66 318 1
66 330 1
66 336 1
66 354 1
66 366 1
66 378 1
66 384 1
67 115 1
67 127 1
67 133 1
67 139 1
67 211 1
67 223 1
67 229 1
67 235 1
67 307 1
67 319 1
67 325 1
67 331 1
67 355 1
67 367 1
67 373 1
67 379 1
68 116 1
68 128 1
68 134 1
68 140 1
68 212 1
68 224 1
68 230 1
68 236 1
68 308 1
68 320 1
68 326 1
68 332 1
68 356 1
68 368 1
68 374 1
68 380 1
69 117 1
69 129 1
69 135 1
69 141 1
69 213 1
69 225 1
69 231 1
69 237 1
69 309 1
69 321 1
69 327 1
69 333 1
69 357 1
69 369 1
69 375 1
69 381 1
70 118 1
70 130 1
70 136 1
70 142 1
70 214 1
70 226 1
70 232 1
70 238 1
70 310 1
70 322 1
70 328 1
70 334 1
70 358 1
70 370 1
70 376 1
70 382 1
71 119 1
71 131 1
71 137 1
71 143 1
71 215 1
71 227 1
71 233 1
71 239 1
71 311 1
71 323 1
71 329 1
71 335 1
71 359 1
71 371 1
71 377 1
71 383 1
72 120 1
72 132 1
72 138 1
72 144 1
72 216 1
72 228 1
72 234 1
72 240 1
72 312 1
72 324 1
72 330 1
72 336 1
72 360 1
72 372 1
72 378 1
72 384 1
73 145 1
73 169 1
73 175 1
73 181 1
73 241 1
73 265 1
73 271 1
73 277 1
73 289 1
73 313 1
73 319 1
73 325 1
73 337 1
73 361 1
73 367 1
73 373 1
74 146 1
74 170 1
74 176 1
74 182 1
74 242 1
74 266 1
74 272 1
74 278 1
74 290 1
74 314 1
74 320 1
74 326 1
74 338 1
74 362 1
74 368 1
74 374 1
75 147 1
75 171 1
75 177 1
75 183 1
75 243 1
75 267 1
75 273 1
75 279 1
75 291 1
75 315 1
75 321 1
75 327 1
75 339 1
75 363 1
75 369 1
75 375 1
76 148 1
76 172 1
76 178 1
76 184 1
76 244 1
76 268 1
76 274 1
76 280 1
76 292 1
76 316 1
76 322 1
76 328 1
76 340 1
76 364 1
76 370 1
76 376 1
77 149 1
77 173 1
77 179 1
77 185 1
77 245 1
77 269 1
77 275 1
77 281 1
77 293 1
77 317 1
77 323 1
77 329 1
77 341 1
77 365 1
77 371 1
77 377 1
78 150 1
78 174 1
78 180 1
78 186 1
78 246 1
78 270 1
78 276 1
78 282 1
78 294 1
78 318 1
78 324 1
78 330 1
78 342 1
78 366 1
78 372 1
78 378 1
79 151 1
79 169 1
79 175 1
79 187 1
79 247 1
79 265 1
79 271 1
79 283 1
79 295 1
79 313 1
79 319 1
79 331 1
79 343 1
79 361 1
79 367 1
79 379 1
80 152 1
80 170 1
80 176 1
80 188 1
80 248 1
80 266 1
80 272 1
80 284 1
80 296 1
80 314 1
80 320 1
80 332 1
80 344 1
80 362 1
80 368 1
80 380 1
81 153 1
81 171 1
81 177 1
81 189 1
81 249 1
81 267 1
81 273 1
81 285 1
81 297 1
81 315 1
81 321 1
81 333 1
81 345 1
81 363 1
81 369 1
81 381 1
82 154 1
82 172 1
82 178 1
82 190 1
82 250 1
82 268 1
82 274 1
82 286 1
82 298 1
82 316 1
82 322 1
82 334 1
82 346 1
82 364 1
82 370 1
82 382 1
83 155 1
83 173 1
83 179 1
83 191 1
83 251 1
83 269 1
83 275 1
83 287 1
83 299 1
83 317 1
83 323 1
83 335 1
83 347 1
83 365 1
83 371 1
83 383 1
84 156 1
84 174 1
84 180 1
84 192 1
84 252 1
84 270 1
84 276 1
84 288 1
84 300 1
84 318 1
84 324 1
84 336 1
84 348 1
84 366 1
84 372 1
84 384 1
85 157 1
85 169 1
85 181 1
85 187 1
85 253 1
85 265 1
85 277 1
85 283 1
85 301 1
85 313 1
85 325 1
85 331 1
85 349 1
85 361 1
85 373 1
85 379 1
86 158 1
86 170 1
86 182 1
86 188 1
86 254 1
86 266 1
86 278 1
86 284 1
86 302 1
86 314 1
86 326 1
86 332 1
86 350 1
86 362 1
86 374 1
86 380 1
87 159 1
87 171 1
87 183 1
87 189 1
87 255 1
87 267 1
87 279 1
87 285 1
87 303 1
87 315 1
87 327 1
87 333 1
87 351 1
87 363 1
87 375 1
87 381 1
88 160 1
88 172 1
88 184 1
88 190 1
88 256 1
88 268 1
88 280 1
88 286 1
88 304 1
88 316 1
88 328 1
88 334 1
88 352 1
88 364 1
88 376 1
88 382 1
89 161 1
89 173 1
89 185 1
89 191 1
89 257 1
89 269 1
89 281 1
89 287 1
89 305 1
89 317 1
89 329 1
89 335 1
89 353 1
89 365 1
89 377 1
89 383 1
90 162 1
90 174 1
90 186 1
90 192 1
90 258 1
90 270 1
90 282 1
90 288 1
90 306 1
90 318 1
90 330 1
90 336 1
90 354 1
90 366 1
90 378 1
90 384 1
91 163 1
91 175 1
91 181 1
91 187 1
91 259 1
91 271 1
91 277 1
91 283 1
91 307 1
91 319 1
91 325 1
91 331 1
91 355 1
91 367 1
91 373 1
91 379 1
92 164 1
92 176 1
92 182 1
92 188 1
92 260 1
92 272 1
92 278 1
92 284 1
92 308 1
92 320 1
92 326 1
92 332 1
92 356 1
92 368 1
92 374 1
92 380 1
93 165 1
93 177 1
93 183 1
93 189 1
93 261 1
93 273 1
93 279 1
93 285 1
93 309 1
93 321 1
93 327 1
93 333 1
93 357 1
93 369 1
93 375 1
93 381 1
94 166 1
94 178 1
94 184 1
94 190 1
94 262 1
94 274 1
94 280 1
94 286 1
94 310 1
94 322 1
94 328 1
94 334 1
94 358 1
94 370 1
94 376 1
94 382 1
95 167 1
95 179 1
95 185 1
95 191 1
95 263 1
95 275 1
95 281 1
95 287 1
95 311 1
95 323 1
95 329 1
95 335 1
95 359 1
95 371 1
95 377 1
95 383 1
96 168 1
96 180 1
96 186 1
96 192 1
96 264 1
96 276 1
96 282 1
96 288 1
96 312 1
96 324 1
96 330 1
96 336 1
96 360 1
96 372 1
96 378 1
96 384 1
97 1 1
97 23 1
97 40 1
97 46 1
97 195 1
97 211 1
97 234 1
97 240 1
97 291 1
97 307 1
97 330 1
97 336 1
97 340 1
97 356 1
97 377 1
97 383 1
98 2 1
98 24 1
98 39 1
98 45 1
98 196 1
98 212 1
98 233 1
98 239 1
98 292 1
98 308 1
98 329 1
98 335 1
98 339 1
98 355 1
98 378 1
98 384 1
99 3 1
99 19 1
99 42 1
99 48 1
99 197 1
99 213 1
99 230 1
99 236 1
99 293 1
99 309 1
99 326 1
99 332 1
99 342 1
99 358 1
99 373 1
99 379 1
100 4 1
100 20 1
100 41 1
100 47 1
100 198 1
100 214 1
100 229 1
100 235 1
100 294 1
100 310 1
100 325 1
100 331 1
100 341 1
100 357 1
100 374 1
100 380 1
101 5 1
101 21 1
101 38 1
101 44 1
101 193 1
101 215 1
101 232 1
101 238 1
101 289 1
101 311 1
101 328 1
101 334 1
101 338 1
101 360 1
101 375 1
101 381 1
102 6 1
102 22 1
102 37 1
102 43 1
102 194 1
102 216 1
102 231 1
102 237 1
102 290 1
102 312 1
102 327 1
102 333 1
102 337 1
102 359 1
102 376 1
102 382 1
103 7 1
103 23 1
103 36 1
103 40 1
103 201 1
103 211 1
103 224 1
103 234 1
103 297 1
103 307 1
103 320 1
103 330 1
103 346 1
103 356 1
103 367 1
103 377 1
104 8 1
104 24 1
104 35 1
104 39 1
104 202 1
104 212 1
104 223 1
104 233 1
104 298 1
104 308 1
104 319 1
104 329 1
104 345 1
104 355 1
104 368 1
104 378 1
105 9 1
105 19 1
105 32 1
105 42 1
105 203 1
105 213 1
105 226 1
105 230 1
105 299 1
105 309 1
105 322 1
105 326 1
105 348 1
105 358 1
105 369 1
105 373 1
106 10 1
106 20 1
106 31 1
106 41 1
106 204 1
106 214 1
106 225 1
106 229 1
106 300 1
106 310 1
106 321 1
106 325 1
106 347 1
106 357 1
106 370 1
106 374 1
107 11 1
107 21 1
107 34 1
107 38 1
107 199 1
107 215 1
107 228 1
107 232 1
107 295 1
107 311 1
107 324 1
107 328 1
107 344 1
107 360 1
107 371 1
107 375 1
108 12 1
108 22 1
108 33 1
108 37 1
108 200 1
108 216 1
108 227 1
108 231 1
108 296 1
108 312 1
108 323 1
108 327 1
108 343 1
108 359 1
108 372 1
108 376 1
109 14 1
109 23 1
109 36 1
109 46 1
109 208 1
109 211 1
109 224 1
109 240 1
109 304 1
109 307 1
109 320 1
109 336 1
109 351 1
109 356 1
109 367 1
109 383 1
110 13 1
110 24 1
110 35 1
110 45 1
110 207 1
110 212 1
110 223 1
110 239 1
110 303 1
110 308 1
110 319 1
110 335 1
110 352 1
110 355 1
110 368 1
110 384 1
111 16 1
111 19 1
111 32 1
111 48 1
111 210 1
111 213 1
111 226 1
111 236 1
111 306 1
111 309 1
111 322 1
111 332 1
111 353 1
111 358 1
111 369 1
111 379 1
112 15 1
112 20 1
112 31 1
112 47 1
112 209 1
112 214 1
112 225 1
112 235 1
112 305 1
112 310 1
112 321 1
112 331 1
112 354 1
112 357 1
112 370 1
112 380 1
113 18 1
113 21 1
113 34 1
113 44 1
113 206 1
113 215 1
113 228 1
113 238 1
113 302 1
113 311 1
113 324 1
113 334 1
113 349 1
113 360 1
113 371 1
113 381 1
114 17 1
114 22 1
114 33 1
114 43 1
114 205 1
114 216 1
114 227 1
114 237 1
114 301 1
114 312 1
114 323 1
114 333 1
114 350 1
114 359 1
114 372 1
114 382 1
115 29 1
115 36 1
115 40 1
115 46 1
115 217 1
115 224 1
115 234 1
115 240 1
115 313 1
115 320 1
115 330 1
115 336 1
115 362 1
115 367 1
115 377 1
115 383 1
116 30 1
116 35 1
116 39 1
116 45 1
116 218 1
116 223 1
116 233 1
116 239 1
116 314 1
116 319 1
116 329 1
116 335 1
116 361 1
116 368 1
116 378 1
116 384 1
117 25 1
117 32 1
117 42 1
117 48 1
117 219 1
117 226 1
117 230 1
117 236 1
117 315 1
117 322 1
117 326 1
117 332 1
117 364 1
117 369 1
117 373 1
117 379 1
118 26 1
118 31 1
118 41 1
118 47 1
118 220 1
118 225 1
118 229 1
118 235 1
118 316 1
118 321 1
118 325 1
118 331 1
118 363 1
118 370 1
118 374 1
118 380 1
119 27 1
119 34 1
119 38 1
119 44 1
119 221 1
119 228 1
119 232 1
119 238 1
119 317 1
119 324 1
119 328 1
119 334 1
119 366 1
119 371 1
119 375 1
119 381 1
120 28 1
120 33 1
120 37 1
120 43 1
120 222 1
120 227 1
120 231 1
120 237 1
120 318 1
120 323 1
120 327 1
120 333 1
120 365 1
120 372 1
120 376 1
120 382 1
121 49 1
121 71 1
121 88 1
121 94 1
121 195 1
121 211 1
121 234 1
121 240 1
121 243 1
121 259 1
121 282 1
121 288 1
121 291 1
121 307 1
121 330 1
121 336 1
122 50 1
122 72 1
122 87 1
122 93 1
122 196 1
122 212 1
122 233 1
122 239 1
122 244 1
122 260 1
122 281 1
122 287 1
122 292 1
122 308 1
122 329 1
122 335 1
123 51 1
123 67 1
123 90 1
123 96 1
123 197 1
123 213 1
123 230 1
123 236 1
123 245 1
123 261 1
123 278 1
123 284 1
123 293 1
123 309 1
123 326 1
123 332 1
124 52 1
124 68 1
124 89 1
124 95 1
124 198 1
124 214 1
124 229 1
124 235 1
124 246 1
124 262 1
124 277 1
124 283 1
124 294 1
124 310 1
124 325 1
124 331 1
125 53 1
125 69 1
125 86 1
125 92 1
125 193 1
125 215 1
125 232 1
125 238 1
125 241 1
125 263 1
125 280 1
125 286 1
125 289 1
125 311 1
125 328 1
125 334 1
126 54 1
126 70 1
126 85 1
126 91 1
126 194 1
126 216 1
126 231 1
126 237 1
126 242 1
126 264 1
126 279 1
126 285 1
126 290 1
126 312 1
126 327 1
126 333 1
127 55 1
127 71 1
127 84 1
127 88 1
127 201 1
127 211 1
127 224 1
127 234 1
127 249 1
127 259 1
127 272 1
127 282 1
127 297 1
127 307 1
127 320 1
127 330 1
128 56 1
128 72 1
128 83 1
128 87 1
128 202 1
128 212 1
128 223 1
128 233 1
128 250 1
128 260 1
128 271 1
128 281 1
128 298 1
128 308 1
128 319 1
128 329 1
129 57 1
129 67 1
129 80 1
129 90 1
129 203 1
129 213 1
129 226 1
129 230 1
129 251 1
129 261 1
129 274 1
129 278 1
129 299 1
129 309 1
129 322 1
129 326 1
130 58 1
130 68 1
130 79 1
130 89 1
130 204 1
130 214 1
130 225 1
130 229 1
130 252 1
130 262 1
130 273 1
130 277 1
130 300 1
130 310 1
130 321 1
130 325 1
131 59 1
131 69 1
131 82 1
131 86 1
131 199 1
131 215 1
131 228 1
131 232 1
131 247 1
131 263 1
131 276 1
131 280 1
131 295 1
131 311 1
131 324 1
131 328 1
132 60 1
132 70 1
132 81 1
132 85 1
132 200 1
132 216 1
132 227 1
132 231 1
132 248 1
132 264 1
132 275 1
132 279 1
132 296 1
132 312 1
132 323 1
132 327 1
133 62 1
133 71 1
133 84 1
133 94 1
133 208 1
133 211 1
133 224 1
133 240 1
133 256 1
133 259 1
133 272 1
133 288 1
133 304 1
133 307 1
133 320 1
133 336 1
134 61 1
134 72 1
134 83 1
134 93 1
134 207 1
134 212 1
134 223 1
134 239 1
134 255 1
134 260 1
134 271 1
134 287 1
134 303 1
134 308 1
134 319 1
134 335 1
135 64 1
135 67 1
135 80 1
135 96 1
135 210 1
135 213 1
135 226 1
135 236 1
135 258 1
135 261 1
135 274 1
135 284 1
135 306 1
135 309 1
135 322 1
135 332 1
136 63 1
136 68 1
136 79 1
136 95 1
136 209 1
136 214 1
136 225 1
136 235 1
136 257 1
136 262 1
136 273 1
136 283 1
136 305 1
136 310 1
136 321 1
136 331 1
137 66 1
137 69 1
137 82 1
137 92 1
137 206 1
137 215 1
137 228 1
137 238 1
137 254 1
137 263 1
137 276 1
137 286 1
137 302 1
137 311 1
137 324 1
137 334 1
138 65 1
138 70 1
138 81 1
138 91 1
138 205 1
138 216 1
138 227 1
138 237 1
138 253 1
138 264 1
138 275 1
138 285 1
138 301 1
138 312 1
138 323 1
138 333 1
139 77 1
139 84 1
139 88 1
139 94 1
139 217 1
139 224 1
139 234 1
139 240 1
139 265 1
139 272 1
139 282 1
139 288 1
139 313 1
139 320 1
139 330 1
139 336 1
140 78 1
140 83 1
140 87 1
140 93 1
140 218 1
140 223 1
140 233 1
140 239 1
140 266 1
140 271 1
140 281 1
140 287 1
140 314 1
140 319 1
140 329 1
140 335 1
141 73 1
141 80 1
141 90 1
141 96 1
141 219 1
141 226 1
141 230 1
141 236 1
141 267 1
141 274 1
141 278 1
141 284 1
141 315 1
141 322 1
141 326 1
141 332 1
142 74 1
142 79 1
142 89 1
142 95 1
142 220 1
142 225 1
142 229 1
142 235 1
142 268 1
142 273 1
142 277 1
142 283 1
142 316 1
142 321 1
142 325 1
142 331 1
143 75 1
143 82 1
143 86 1
143 92 1
143 221 1
143 228 1
143 232 1
143 238 1
143 269 1
143 276 1
143 280 1
143 286 1
143 317 1
143 324 1
143 328 1
143 334 1
144 76 1
144 81 1
144 85 1
144 91 1
144 222 1
144 227 1
144 231 1
144 237 1
144 270 1
144 275 1
144 279 1
144 285 1
144 318 1
144 323 1
144 327 1
144 333 1
145 98 1
145 120 1
145 135 1
145 141 1
145 195 1
145 211 1
145 234 1
145 240 1
145 243 1
145 259 1
145 282 1
145 288 1
145 340 1
145 356 1
145 377 1
145 383 1
146 97 1
146 119 1
146 136 1
146 142 1
146 196 1
146 212 1
146 233 1
146 239 1
146 244 1
146 260 1
146 281 1
146 287 1
146 339 1
146 355 1
146 378 1
146 384 1
147 100 1
147 116 1
147 137 1
147 143 1
147 197 1
147 213 1
147 230 1
147 236 1
147 245 1
147 261 1
147 278 1
147 284 1
147 342 1
147 358 1
147 373 1
147 379 1
148 99 1
148 115 1
148 138 1
148 144 1
148 198 1
148 214 1
148 229 1
148 235 1
148 246 1
148 262 1
148 277 1
148 283 1
148 341 1
148 357 1
148 374 1
148 380 1
149 102 1
149 118 1
149 133 1
149 139 1
149 193 1
149 215 1
149 232 1
149 238 1
149 241 1
149 263 1
149 280 1
149 286 1
149 338 1
149 360 1
149 375 1
149 381 1
150 101 1
150 117 1
150 134 1
150 140 1
150 194 1
150 216 1
150 231 1
150 237 1
150 242 1
150 264 1
150 279 1
150 285 1
150 337 1
150 359 1
150 376 1
150 382 1
151 104 1
151 120 1
151 131 1
151 135 1
151 201 1
151 211 1
151 224 1
151 234 1
151 249 1
151 259 1
151 272 1
151 282 1
151 346 1
151 356 1
151 367 1
151 377 1
152 103 1
152 119 1
152 132 1
152 136 1
152 202 1
152 212 1
152 223 1
152 233 1
152 250 1
152 260 1
152 271 1
152 281 1
152 345 1
152 355 1
152 368 1
152 378 1
153 106 1
153 116 1
153 127 1
153 137 1
153 203 1
153 213 1
153 226 1
153 230 1
153 251 1
153 261 1
153 274 1
153 278 1
153 348 1
153 358 1
153 369 1
153 373 1
154 105 1
154 115 1
154 128 1
154 138 1
154 204 1
154 214 1
154 225 1
154 229 1
154 252 1
154 262 1
154 273 1
154 277 1
154 347 1
154 357 1
154 370 1
154 374 1
155 108 1
155 118 1
155 129 1
155 133 1
155 199 1
155 215 1
155 228 1
155 232 1
155 247 1
155 263 1
155 276 1
155 280 1
155 344 1
155 360 1
155 371 1
155 375 1
156 107 1
156 117 1
156 130 1
156 134 1
156 200 1
156 216 1
156 227 1
156 231 1
156 248 1
156 264 1
156 275 1
156 279 1
156 343 1
156 359 1
156 372 1
156 376 1
157 109 1
157 120 1
157 131 1
157 141 1
157 208 1
157 211 1
157 224 1
157 240 1
157 256 1
157 259 1
157 272 1
157 288 1
157 351 1
157 356 1
157 367 1
157 383 1
158 110 1
158 119 1
158 132 1
158 142 1
158 207 1
158 212 1
158 223 1
158 239 1
158 255 1
158 260 1
158 271 1
158 287 1
158 352 1
158 355 1
158 368 1
158 384 1
159 111 1
159 116 1
159 127 1
159 143 1
159 210 1
159 213 1
159 226 1
159 236 1
159 258 1
159 261 1
159 274 1
159 284 1
159 353 1
159 358 1
159 369 1
159 379 1
160 112 1
160 115 1
160 128 1
160 144 1
160 209 1
160 214 1
160 225 1
160 235 1
160 257 1
160 262 1
160 273 1
160 283 1
160 354 1
160 357 1
160 370 1
160 380 1
161 113 1
161 118 1
161 129 1
161 139 1
161 206 1
161 215 1
161 228 1
161 238 1
161 254 1
161 263 1
161 276 1
161 286 1
161 349 1
161 360 1
161 371 1
161 381 1
162 114 1
162 117 1
162 130 1
162 140 1
162 205 1
162 216 1
162 227 1
162 237 1
162 253 1
162 264 1
162 275 1
162 285 1
162 350 1
162 359 1
162 372 1
162 382 1
163 126 1
163 131 1
163 135 1
163 141 1
163 217 1
163 224 1
163 234 1
163 240 1
163 265 1
163 272 1
163 282 1
163 288 1
163 362 1
163 367 1
163 377 1
163 383 1
164 125 1
164 132 1
164 136 1
164 142 1
164 218 1
164 223 1
164 233 1
164 239 1
164 266 1
164 271 1
164 281 1
164 287 1
164 361 1
164 368 1
164 378 1
164 384 1
165 122 1
165 127 1
165 137 1
165 143 1
165 219 1
165 226 1
165 230 1
165 236 1
165 267 1
165 274 1
165 278 1
165 284 1
165 364 1
165 369 1
165 373 1
165 379 1
166 121 1
166 128 1
166 138 1
166 144 1
166 220 1
166 225 1
166 229 1
166 235 1
166 268 1
166 273 1
166 277 1
166 283 1
166 363 1
166 370 1
166 374 1
166 380 1
167 124 1
167 129 1
167 133 1
167 139 1
167 221 1
167 228 1
167 232 1
167 238 1
167 269 1
167 276 1
167 280 1
167 286 1
167 366 1
167 371 1
167 375 1
167 381 1
168 123 1
168 130 1
168 134 1
168 140 1
168 222 1
168 227 1
168 231 1
168 237 1
168 270 1
168 275 1
168 279 1
168 285 1
168 365 1
168 372 1
168 376 1
168 382 1
169 146 1
169 168 1
169 183 1
169 189 1
169 243 1
169 259 1
169 282 1
169 288 1
169 291 1
169 307 1
169 330 1
169 336 1
169 340 1
169 356 1
169 377 1
169 383 1
170 145 1
170 167 1
170 184 1
170 190 1
170 244 1
170 260 1
170 281 1
170 287 1
170 292 1
170 308 1
170 329 1
170 335 1
170 339 1
170 355 1
170 378 1
170 384 1
171 148 1
171 164 1
171 185 1
171 191 1
171 245 1
171 261 1
171 278 1
171 284 1
171 293 1
171 309 1
171 326 1
171 332 1
171 342 1
171 358 1
171 373 1
171 379 1
172 147 1
172 163 1
172 186 1
172 192 1
172 246 1
172 262 1
172 277 1
172 283 1
172 294 1
172 310 1
172 325 1
172 331 1
172 341 1
172 357 1
172 374 1
172 380 1
173 150 1
173 166 1
173 181 1
173 187 1
173 241 1
173 263 1
173 280 1
173 286 1
173 289 1
173 311 1
173 328 1
173 334 1
173 338 1
173 360 1
173 375 1
173 381 1
174 149 1
174 165 1
174 182 1
174 188 1
174 242 1
174 264 1
174 279 1
174 285 1
174 290 1
174 312 1
174 327 1
174 333 1
174 337 1
174 359 1
174 376 1
174 382 1
175 152 1
175 168 1
175 179 1
175 183 1
175 249 1
175 259 1
175 272 1
175 282 1
175 297 1
175 307 1
175 320 1
175 330 1
175 346 1
175 356 1
175 367 1
175 377 1
176 151 1
176 167 1
176 180 1
176 184 1
176 250 1
176 260 1
176 271 1
176 281 1
176 298 1
176 308 1
176 319 1
176 329 1
176 345 1
176 355 1
176 368 1
176 378 1
177 154 1
177 164 1
177 175 1
177 185 1
177 251 1
177 261 1
177 274 1
177 278 1
177 299 1
177 309 1
177 322 1
177 326 1
177 348 1
177 358 1
177 369 1
177 373 1
178 153 1
178 163 1
178 176 1
178 186 1
178 252 1
178 262 1
178 273 1
178 277 1
178 300 1
178 310 1
178 321 1
178 325 1
178 347 1
178 357 1
178 370 1
178 374 1
179 156 1
179 166 1
179 177 1
179 181 1
179 247 1
179 263 1
179 276 1
179 280 1
179 295 1
179 311 1
179 324 1
179 328 1
179 344 1
179 360 1
179 371 1
179 375 1
180 155 1
180 165 1
180 178 1
180 182 1
180 248 1
180 264 1
180 275 1
180 279 1
180 296 1
180 312 1
180 323 1
180 327 1
180 343 1
180 359 1
180 372 1
180 376 1
181 157 1
181 168 1
181 179 1
181 189 1
181 256 1
181 259 1
181 272 1
181 288 1
181 304 1
181 307 1
181 320 1
181 336 1
181 351 1
181 356 1
181 367 1
181 383 1
182 158 1
182 167 1
182 180 1
182 190 1
182 255 1
182 260 1
182 271 1
182 287 1
182 303 1
182 308 1
182 319 1
182 335 1
182 352 1
182 355 1
182 368 1
182 384 1
183 159 1
183 164 1
183 175 1
183 191 1
183 258 1
183 261 1
183 274 1
183 284 1
183 306 1
183 309 1
183 322 1
183 332 1
183 353 1
183 358 1
183 369 1
183 379 1
184 160 1
184 163 1
184 176 1
184 192 1
184 257 1
184 262 1
184 273 1
184 283 1
184 305 1
184 310 1
184 321 1
184 331 1
184 354 1
184 357 1
184 370 1
184 380 1
185 161 1
185 166 1
185 177 1
185 187 1
185 254 1
185 263 1
185 276 1
185 286 1
185 302 1
185 311 1
185 324 1
185 334 1
185 349 1
185 360 1
185 371 1
185 381 1
186 162 1
186 165 1
186 178 1
186 188 1
186 253 1
186 264 1
186 275 1
186 285 1
186 301 1
186 312 1
186 323 1
186 333 1
186 350 1
186 359 1
186 372 1
186 382 1
187 174 1
187 179 1
187 183 1
187 189 1
187 265 1
187 272 1
187 282 1
187 288 1
187 313 1
187 320 1
187 330 1
187 336 1
187 362 1
187 367 1
187 377 1
187 383 1
188 173 1
188 180 1
188 184 1
188 190 1
188 266 1
188 271 1
188 281 1
188 287 1
188 314 1
188 319 1
188 329 1
188 335 1
188 361 1
188 368 1
188 378 1
188 384 1
189 170 1
189 175 1
189 185 1
189 191 1
189 267 1
189 274 1
189 278 1
189 284 1
189 315 1
189 322 1
189 326 1
189 332 1
189 364 1
189 369 1
189 373 1
189 379 1
190 169 1
190 176 1
190 186 1
190 192 1
190 268 1
190 273 1
190 277 1
190 283 1
190 316 1
190 321 1
190 325 1
190 331 1
190 363 1
190 370 1
190 374 1
190 380 1
191 172 1
191 177 1
191 181 1
191 187 1
191 269 1
191 276 1
191 280 1
191 286 1
191 317 1
191 324 1
191 328 1
191 334 1
191 366 1
191 371 1
191 375 1
191 381 1
192 171 1
192 178 1
192 182 1
192 188 1
192 270 1
192 275 1
192 279 1
192 285 1
192 318 1
192 323 1
192 327 1
192 333 1
192 365 1
192 372 1
192 376 1
192 382 1
