%%MatrixMarket matrix coordinate integer general
256 512 4096
1 1 1
1 33 1
1 41 1
1 64 1
1 257 1
1 289 1
1 297 1
1 320 1
1 321 1
1 353 1
1 361 1
1 384 1
1 385 1
1 417 1
1 425 1
1 448 1
2 2 1
2 34 1
2 42 1
2 57 1
2 258 1
2 290 1
2 298 1
2 313 1
2 322 1
2 354 1
2 362 1
2 377 1
2 386 1
2 418 1
2 426 1
2 441 1
3 3 1
3 35 1
3 43 1
3 58 1
3 259 1
3 291 1
3 299 1
3 314 1
3 323 1
3 355 1
3 363 1
3 378 1
3 387 1
3 419 1
3 427 1
3 442 1
4 4 1
4 36 1
4 44 1
4 61 1
4 260 1
4 292 1
4 300 1
4 317 1
4 324 1
4 356 1
4 364 1
4 381 1
4 388 1
4 420 1
4 428 1
4 445 1
5 5 1
5 37 1
5 45 1
5 59 1
5 261 1
5 293 1
5 301 1
5 315 1
5 325 1
5 357 1
5 365 1
5 379 1
5 389 1
5 421 1
5 429 1
5 443 1
6 6 1
6 38 1
6 46 1
6 60 1
6 262 1
6 294 1
6 302 1
6 316 1
6 326 1
6 358 1
6 366 1
6 380 1
6 390 1
6 422 1
6 430 1
6 444 1
7 7 1
7 39 1
7 47 1
7 62 1
7 263 1
7 295 1
7 303 1
7 318 1
7 327 1
7 359 1
7 367 1
7 382 1
7 391 1
7 423 1
7 431 1
7 446 1
8 8 1
8 40 1
8 48 1
8 63 1
8 264 1
8 296 1
8 304 1
8 319 1
8 328 1
8 360 1
8 368 1
8 383 1
8 392 1
8 424 1
8 432 1
8 447 1
9 9 1
9 33 1
9 49 1
9 64 1
9 265 1
9 289 1
9 305 1
9 320 1
9 329 1
9 353 1
9 369 1
9 384 1
9 393 1
9 417 1
9 433 1
9 448 1
10 10 1
10 34 1
10 50 1
10 57 1
10 266 1
10 290 1
10 306 1
10 313 1
10 330 1
10 354 1
10 370 1
10 377 1
10 394 1
10 418 1
10 434 1
10 441 1
11 11 1
11 35 1
11 51 1
11 58 1
11 267 1
11 291 1
11 307 1
11 314 1
11 331 1
11 355 1
11 371 1
11 378 1
11 395 1
11 419 1
11 435 1
11 442 1
12 12 1
12 36 1
12 52 1
12 61 1
12 268 1
12 292 1
12 308 1
12 317 1
12 332 1
12 356 1
12 372 1
12 381 1
12 396 1
12 420 1
12 436 1
12 445 1
13 13 1
13 37 1
13 53 1
13 59 1
13 269 1
13 293 1
13 309 1
13 315 1
13 333 1
13 357 1
13 373 1
13 379 1
13 397 1
13 421 1
13 437 1
13 443 1
14 14 1
14 38 1
14 54 1
14 60 1
14 270 1
14 294 1
14 310 1
14 316 1
14 334 1
14 358 1
14 374 1
14 380 1
14 398 1
14 422 1
14 438 1
14 444 1
15 15 1
15 39 1
15 55 1
15 62 1
15 271 1
15 295 1
15 311 1
15 318 1
15 335 1
15 359 1
15 375 1
15 382 1
15 399 1
15 423 1
15 439 1
15 446 1
16 16 1
16 40 1
16 56 1
16 63 1
16 272 1
16 296 1
16 312 1
16 319 1
16 336 1
16 360 1
16 376 1
16 383 1
16 400 1
16 424 1
16 440 1
16 447 1
17 17 1
17 41 1
17 49 1
17 64 1
17 273 1
17 297 1
17 305 1
17 320 1
17 337 1
17 361 1
17 369 1
17 384 1
17 401 1
17 425 1
17 433 1
17 448 1
18 18 1
18 42 1
18 50 1
18 57 1
18 274 1
18 298 1
18 306 1
18 313 1
18 338 1
18 362 1
18 370 1
18 377 1
18 402 1
18 426 1
18 434 1
18 441 1
19 19 1
19 43 1
19 51 1
19 58 1
19 275 1
19 299 1
19 307 1
19 314 1
19 339 1
19 363 1
19 371 1
19 378 1
19 403 1
19 427 1
19 435 1
19 442 1
20 20 1
20 44 1
20 52 1
20 61 1
20 276 1
20 300 1
20 308 1
20 317 1
20 340 1
20 364 1
20 372 1
20 381 1
20 404 1
20 428 1
20 436 1
20 445 1
21 21 1
21 45 1
21 53 1
21 59 1
21 277 1
21 301 1
21 309 1
21 315 1
21 341 1
21 365 1
21 373 1
21 379 1
21 405 1
21 429 1
21 437 1
21 443 1
22 22 1
22 46 1
22 54 1
22 60 1
22 278 1
22 302 1
22 310 1
22 316 1
22 342 1
22 366 1
22 374 1
22 380 1
22 406 1
22 430 1
22 438 1
22 444 1
23 23 1
23 47 1
23 55 1
23 62 1
23 279 1
23 303 1
23 311 1
23 318 1
23 343 1
23 367 1
23 375 1
23 382 1
23 407 1
23 431 1
23 439 1
23 446 1
24 24 1
24 48 1
24 56 1
24 63 1
24 280 1
24 304 1
24 312 1
24 319 1
24 344 1
24 368 1
24 376 1
24 383 1
24 408 1
24 432 1
24 440 1
24 447 1
25 25 1
25 33 1
25 41 1
25 49 1
25 281 1
25 289 1
25 297 1
25 305 1
25 345 1
25 353 1
25 361 1
25 369 1
25 409 1
25 417 1
25 425 1
25 433 1
26 26 1
26 34 1
26 42 1
26 50 1
26 282 1
26 290 1
26 298 1
26 306 1
26 346 1
26 354 1
26 362 1
26 370 1
26 410 1
26 418 1
26 426 1
26 434 1
27 27 1
27 35 1
27 43 1
27 51 1
27 283 1
27 291 1
27 299 1
27 307 1
27 347 1
27 355 1
27 363 1
27 371 1
27 411 1
27 419 1
27 427 1
27 435 1
28 28 1
28 36 1
28 44 1
28 52 1
28 284 1
28 292 1
28 300 1
28 308 1
28 348 1
28 356 1
28 364 1
28 372 1
28 412 1
28 420 1
28 428 1
28 436 1
29 29 1
29 37 1
29 45 1
29 53 1
29 285 1
29 293 1
29 301 1
29 309 1
29 349 1
29 357 1
29 365 1
29 373 1
29 413 1
29 421 1
29 429 1
29 437 1
30 30 1
30 38 1
30 46 1
30 54 1
30 286 1
30 294 1
30 302 1
30 310 1
30 350 1
30 358 1
30 366 1
30 374 1
30 414 1
30 422 1
30 430 1
30 438 1
31 31 1
31 39 1
31 47 1
31 55 1
31 287 1
31 295 1
31 303 1
31 311 1
31 351 1
31 359 1
31 367 1
31 375 1
31 415 1
31 423 1
31 431 1
31 439 1
32 32 1
32 40 1
32 48 1
32 56 1
32 288 1
32 296 1
32 304 1
32 312 1
32 352 1
32 360 1
32 368 1
32 376 1
32 416 1
32 424 1
32 432 1
32 440 1
33 65 1
33 97 1
33 105 1
33 128 1
33 257 1
33 289 1
33 297 1
33 320 1
33 321 1
33 353 1
33 361 1
33 384 1
33 449 1
33 481 1
33 489 1
33 512 1
34 66 1
34 98 1
34 106 1
34 121 1
34 258 1
34 290 1
34 298 1
34 313 1
34 322 1
34 354 1
34 362 1
34 377 1
34 450 1
34 482 1
34 490 1
34 505 1
35 67 1
35 99 1
35 107 1
35 122 1
35 259 1
35 291 1
35 299 1
35 314 1
35 323 1
35 355 1
35 363 1
35 378 1
35 451 1
35 483 1
35 491 1
35 506 1
36 68 1
36 100 1
36 108 1
36 125 1
36 260 1
36 292 1
36 300 1
36 317 1
36 324 1
36 356 1
36 364 1
36 381 1
36 452 1
36 484 1
36 492 1
36 509 1
37 69 1
37 101 1
37 109 1
37 123 1
37 261 1
37 293 1
37 301 1
37 315 1
37 325 1
37 357 1
37 365 1
37 379 1
37 453 1
37 485 1
37 493 1
37 507 1
38 70 1
38 102 1
38 110 1
38 124 1
38 262 1
38 294 1
38 302 1
38 316 1
38 326 1
38 358 1
38 366 1
38 380 1
38 454 1
38 486 1
38 494 1
38 508 1
39 71 1
39 103 1
39 111 1
39 126 1
39 263 1
39 295 1
39 303 1
39 318 1
39 327 1
39 359 1
39 367 1
39 382 1
39 455 1
39 487 1
39 495 1
39 510 1
40 72 1
40 104 1
40 112 1
40 127 1
40 264 1
40 296 1
40 304 1
40 319 1
40 328 1
40 360 1
40 368 1
40 383 1
40 456 1
40 488 1
40 496 1
40 511 1
41 73 1
41 97 1
41 113 1
41 128 1
41 265 1
41 289 1
41 305 1
41 320 1
41 329 1
41 353 1
41 369 1
41 384 1
41 457 1
41 481 1
41 497 1
41 512 1
42 74 1
42 98 1
42 114 1
42 121 1
42 266 1
42 290 1
42 306 1
42 313 1
42 330 1
42 354 1
42 370 1
42 377 1
42 458 1
42 482 1
42 498 1
42 505 1
43 75 1
43 99 1
43 115 1
43 122 1
43 267 1
43 291 1
43 307 1
43 314 1
43 331 1
43 355 1
43 371 1
43 378 1
43 459 1
43 483 1
43 499 1
43 506 1
44 76 1
44 100 1
44 116 1
44 125 1
44 268 1
44 292 1
44 308 1
44 317 1
44 332 1
44 356 1
44 372 1
44 381 1
44 460 1
44 484 1
44 500 1
44 509 1
45 77 1
45 101 1
45 117 1
45 123 1
45 269 1
45 293 1
45 309 1
45 315 1
45 333 1
45 357 1
45 373 1
45 379 1
45 461 1
45 485 1
45 501 1
45 507 1
46 78 1
46 102 1
46 118 1
46 124 1
46 270 1
46 294 1
46 310 1
46 316 1
46 334 1
46 358 1
46 374 1
46 380 1
46 462 1
46 486 1
46 502 1
46 508 1
47 79 1
47 103 1
47 119 1
47 126 1
47 271 1
47 295 1
47 311 1
47 318 1
47 335 1
47 359 1
47 375 1
47 382 1
47 463 1
47 487 1
47 503 1
47 510 1
48 80 1
48 104 1
48 120 1
48 127 1
48 272 1
48 296 1
48 312 1
48 319 1
48 336 1
48 360 1
48 376 1
48 383 1
48 464 1
48 488 1
48 504 1
48 511 1
49 81 1
49 105 1
49 113 1
49 128 1
49 273 1
49 297 1
49 305 1
49 320 1
49 337 1
49 361 1
49 369 1
49 384 1
49 465 1
49 489 1
49 497 1
49 512 1
50 82 1
50 106 1
50 114 1
50 121 1
50 274 1
50 298 1
50 306 1
50 313 1
50 338 1
50 362 1
50 370 1
50 377 1
50 466 1
50 490 1
50 498 1
50 505 1
51 83 1
51 107 1
51 115 1
51 122 1
51 275 1
51 299 1
51 307 1
51 314 1
51 339 1
51 363 1
51 371 1
51 378 1
51 467 1
51 491 1
51 499 1
51 506 1
52 84 1
52 108 1
52 116 1
52 125 1
52 276 1
52 300 1
52 308 1
52 317 1
52 340 1
52 364 1
52 372 1
52 381 1
52 468 1
52 492 1
52 500 1
52 509 1
53 85 1
53 109 1
53 117 1
53 123 1
53 277 1
53 301 1
53 309 1
53 315 1
53 341 1
53 365 1
53 373 1
53 379 1
53 469 1
53 493 1
53 501 1
53 507 1
54 86 1
54 110 1
54 118 1
54 124 1
54 278 1
54 302 1
54 310 1
54 316 1
54 342 1
54 366 1
54 374 1
54 380 1
54 470 1
54 494 1
54 502 1
54 508 1
55 87 1
55 111 1
55 119 1
55 126 1
55 279 1
55 303 1
55 311 1
55 318 1
55 343 1
55 367 1
55 375 1
55 382 1
55 471 1
55 495 1
55 503 1
55 510 1
56 88 1
56 112 1
56 120 1
56 127 1
56 280 1
56 304 1
56 312 1
56 319 1
56 344 1
56 368 1
56 376 1
56 383 1
56 472 1
56 496 1
56 504 1
56 511 1
57 89 1
57 97 1
57 105 1
57 113 1
57 281 1
57 289 1
57 297 1
57 305 1
57 345 1
57 353 1
57 361 1
57 369 1
57 473 1
57 481 1
57 489 1
57 497 1
58 90 1
58 98 1
58 106 1
58 114 1
58 282 1
58 290 1
58 298 1
58 306 1
58 346 1
58 354 1
58 362 1
58 370 1
58 474 1
58 482 1
58 490 1
58 498 1
59 91 1
59 99 1
59 107 1
59 115 1
59 283 1
59 291 1
59 299 1
59 307 1
59 347 1
59 355 1
59 363 1
59 371 1
59 475 1
59 483 1
59 491 1
59 499 1
60 92 1
60 100 1
60 108 1
60 116 1
60 284 1
60 292 1
60 300 1
60 308 1
60 348 1
60 356 1
60 364 1
60 372 1
60 476 1
60 484 1
60 492 1
60 500 1
61 93 1
61 101 1
61 109 1
61 117 1
61 285 1
61 293 1
61 301 1
61 309 1
61 349 1
61 357 1
61 365 1
61 373 1
61 477 1
61 485 1
61 493 1
61 501 1
62 94 1
62 102 1
62 110 1
62 118 1
62 286 1
62 294 1
62 302 1
62 310 1
62 350 1
62 358 1
62 366 1
62 374 1
62 478 1
62 486 1
62 494 1
62 502 1
63 95 1
63 103 1
63 111 1
63 119 1
63 287 1
63 295 1
63 303 1
63 311 1
63 351 1
63 359 1
63 367 1
63 375 1
63 479 1
63 487 1
63 495 1
63 503 1
64 96 1
64 104 1
64 112 1
64 120 1
64 288 1
64 296 1
64 304 1
64 312 1
64 352 1
64 360 1
64 368 1
64 376 1
64 480 1
64 488 1
64 496 1
64 504 1
65 129 1
65 161 1
65 169 1
65 192 1
65 257 1
65 289 1
65 297 1
65 320 1
65 385 1
65 417 1
65 425 1
65 448 1
65 449 1
65 481 1
65 489 1
65 512 1
66 130 1
66 162 1
66 170 1
66 185 1
66 258 1
66 290 1
66 298 1
66 313 1
66 386 1
66 418 1
66 426 1
66 441 1
66 450 1
66 482 1
66 490 1
66 505 1
67 131 1
67 163 1
67 171 1
67 186 1
67 259 1
67 291 1
67 299 1
67 314 1
67 387 1
67 419 1
67 427 1
67 442 1
67 451 1
67 483 1
67 491 1
67 506 1
68 132 1
68 164 1
68 172 1
68 189 1
68 260 1
68 292 1
68 300 1
68 317 1
68 388 1
68 420 1
68 428 1
68 445 1
68 452 1
68 484 1
68 492 1
68 509 1
69 133 1
69 165 1
69 173 1
69 187 1
69 261 1
69 293 1
69 301 1
69 315 1
69 389 1
69 421 1
69 429 1
69 443 1
69 453 1
69 485 1
69 493 1
69 507 1
70 134 1
70 166 1
70 174 1
70 188 1
70 262 1
70 294 1
70 302 1
70 316 1
70 390 1
70 422 1
70 430 1
70 444 1
70 454 1
70 486 1
70 494 1
70 508 1
71 135 1
71 167 1
71 175 1
71 190 1
71 263 1
71 295 1
71 303 1
71 318 1
71 391 1
71 423 1
71 431 1
71 446 1
71 455 1
71 487 1
71 495 1
71 510 1
72 136 1
72 168 1
72 176 1
72 191 1
72 264 1
72 296 1
72 304 1
72 319 1
72 392 1
72 424 1
72 432 1
72 447 1
72 456 1
72 488 1
72 496 1
72 511 1
73 137 1
73 161 1
73 177 1
73 192 1
73 265 1
73 289 1
73 305 1
73 320 1
73 393 1
73 417 1
73 433 1
73 448 1
73 457 1
73 481 1
73 497 1
73 512 1
74 138 1
74 162 1
74 178 1
74 185 1
74 266 1
74 290 1
74 306 1
74 313 1
74 394 1
74 418 1
74 434 1
74 441 1
74 458 1
74 482 1
74 498 1
74 505 1
75 139 1
75 163 1
75 179 1
75 186 1
75 267 1
75 291 1
75 307 1
75 314 1
75 395 1
75 419 1
75 435 1
75 442 1
75 459 1
75 483 1
75 499 1
75 506 1
76 140 1
76 164 1
76 180 1
76 189 1
76 268 1
76 292 1
76 308 1
76 317 1
76 396 1
76 420 1
76 436 1
76 445 1
76 460 1
76 484 1
76 500 1
76 509 1
77 141 1
77 165 1
77 181 1
77 187 1
77 269 1
77 293 1
77 309 1
77 315 1
77 397 1
77 421 1
77 437 1
77 443 1
77 461 1
77 485 1
77 501 1
77 507 1
78 142 1
78 166 1
78 182 1
78 188 1
78 270 1
78 294 1
78 310 1
78 316 1
78 398 1
78 422 1
78 438 1
78 444 1
78 462 1
78 486 1
78 502 1
78 508 1
79 143 1
79 167 1
79 183 1
79 190 1
79 271 1
79 295 1
79 311 1
79 318 1
79 399 1
79 423 1
79 439 1
79 446 1
79 463 1
79 487 1
79 503 1
79 510 1
80 144 1
80 168 1
80 184 1
80 191 1
80 272 1
80 296 1
80 312 1
80 319 1
80 400 1
80 424 1
80 440 1
80 447 1
80 464 1
80 488 1
80 504 1
80 511 1
81 145 1
81 169 1
81 177 1
81 192 1
81 273 1
81 297 1
81 305 1
81 320 1
81 401 1
81 425 1
81 433 1
81 448 1
81 465 1
81 489 1
81 497 1
81 512 1
82 146 1
82 170 1
82 178 1
82 185 1
82 274 1
82 298 1
82 306 1
82 313 1
82 402 1
82 426 1
82 434 1
82 441 1
82 466 1
82 490 1
82 498 1
82 505 1
83 147 1
83 171 1
83 179 1
83 186 1
83 275 1
83 299 1
83 307 1
83 314 1
83 403 1
83 427 1
83 435 1
83 442 1
83 467 1
83 491 1
83 499 1
83 506 1
84 148 1
84 172 1
84 180 1
84 189 1
84 276 1
84 300 1
84 308 1
84 317 1
84 404 1
84 428 1
84 436 1
84 445 1
84 468 1
84 492 1
84 500 1
84 509 1
85 149 1
85 173 1
85 181 1
85 187 1
85 277 1
85 301 1
85 309 1
85 315 1
85 405 1
85 429 1
85 437 1
85 443 1
85 469 1
85 493 1
85 501 1
85 507 1
86 150 1
86 174 1
86 182 1
86 188 1
86 278 1
86 302 1
86 310 1
86 316 1
86 406 1
86 430 1
86 438 1
86 444 1
86 470 1
86 494 1
86 502 1
86 508 1
87 151 1
87 175 1
87 183 1
87 190 1
87 279 1
87 303 1
87 311 1
87 318 1
87 407 1
87 431 1
87 439 1
87 446 1
87 471 1
87 495 1
87 503 1
87 510 1
88 152 1
88 176 1
88 184 1
88 191 1
88 280 1
88 304 1
88 312 1
88 319 1
88 408 1
88 432 1
88 440 1
88 447 1
88 472 1
88 496 1
88 504 1
88 511 1
89 153 1
89 161 1
89 169 1
89 177 1
89 281 1
89 289 1
89 297 1
89 305 1
89 409 1
89 417 1
89 425 1
89 433 1
89 473 1
89 481 1
89 489 1
89 497 1
90 154 1
90 162 1
90 170 1
90 178 1
90 282 1
90 290 1
90 298 1
90 306 1
90 410 1
90 418 1
90 426 1
90 434 1
90 474 1
90 482 1
90 490 1
90 498 1
91 155 1
91 163 1
91 171 1
91 179 1
91 283 1
91 291 1
91 299 1
91 307 1
91 411 1
91 419 1
91 427 1
91 435 1
91 475 1
91 483 1
91 491 1
91 499 1
92 156 1
92 164 1
92 172 1
92 180 1
92 284 1
92 292 1
92 300 1
92 308 1
92 412 1
92 420 1
92 428 1
92 436 1
92 476 1
92 484 1
92 492 1
92 500 1
93 157 1
93 165 1
93 173 1
93 181 1
93 285 1
93 293 1
93 301 1
93 309 1
93 413 1
93 421 1
93 429 1
93 437 1
93 477 1
93 485 1
93 493 1
93 501 1
94 158 1
94 166 1
94 174 1
94 182 1
94 286 1
94 294 1
94 302 1
94 310 1
94 414 1
94 422 1
94 430 1
94 438 1
94 478 1
94 486 1
94 494 1
94 502 1
95 159 1
95 167 1
95 175 1
95 183 1
95 287 1
95 295 1
95 303 1
95 311 1
95 415 1
95 423 1
95 431 1
95 439 1
95 479 1
95 487 1
95 495 1
95 503 1
96 160 1
96 168 1
96 176 1
96 184 1
96 288 1
96 296 1
96 304 1
96 312 1
96 416 1
96 424 1
96 432 1
96 440 1
96 480 1
96 488 1
96 496 1
96 504 1
97 193 1
97 225 1
97 233 1
97 256 1
97 321 1
97 353 1
97 361 1
97 384 1
97 385 1
97 417 1
97 425 1
97 448 1
97 449 1
97 481 1
97 489 1
97 512 1
98 194 1
98 226 1
98 234 1
98 249 1
98 322 1
98 354 1
98 362 1
98 377 1
98 386 1
98 418 1
98 426 1
98 441 1
98 450 1
98 482 1
98 490 1
98 505 1
99 195 1
99 227 1
99 235 1
99 250 1
99 323 1
99 355 1
99 363 1
99 378 1
99 387 1
99 419 1
99 427 1
99 442 1
99 451 1
99 483 1
99 491 1
99 506 1
100 196 1
100 228 1
100 236 1
100 253 1
100 324 1
100 356 1
100 364 1
100 381 1
100 388 1
100 420 1
100 428 1
100 445 1
100 452 1
100 484 1
100 492 1
100 509 1
101 197 1
101 229 1
101 237 1
101 251 1
101 325 1
101 357 1
101 365 1
101 379 1
101 389 1
101 421 1
101 429 1
101 443 1
101 453 1
101 485 1
101 493 1
101 507 1
102 198 1
102 230 1
102 238 1
102 252 1
102 326 1
102 358 1
102 366 1
102 380 1
102 390 1
102 422 1
102 430 1
102 444 1
102 454 1
102 486 1
102 494 1
102 508 1
103 199 1
103 231 1
103 239 1
103 254 1
103 327 1
103 359 1
103 367 1
103 382 1
103 391 1
103 423 1
103 431 1
103 446 1
103 455 1
103 487 1
103 495 1
103 510 1
104 200 1
104 232 1
104 240 1
104 255 1
104 328 1
104 360 1
104 368 1
104 383 1
104 392 1
104 424 1
104 432 1
104 447 1
104 456 1
104 488 1
104 496 1
104 511 1
105 201 1
105 225 1
105 241 1
105 256 1
105 329 1
105 353 1
105 369 1
105 384 1
105 393 1
105 417 1
105 433 1
105 448 1
105 457 1
105 481 1
105 497 1
105 512 1
106 202 1
106 226 1
106 242 1
106 249 1
106 330 1
106 354 1
106 370 1
106 377 1
106 394 1
106 418 1
106 434 1
106 441 1
106 458 1
106 482 1
106 498 1
106 505 1
107 203 1
107 227 1
107 243 1
107 250 1
107 331 1
107 355 1
107 371 1
107 378 1
107 395 1
107 419 1
107 435 1
107 442 1
107 459 1
107 483 1
107 499 1
107 506 1
108 204 1
108 228 1
108 244 1
108 253 1
108 332 1
108 356 1
108 372 1
108 381 1
108 396 1
108 420 1
108 436 1
108 445 1
108 460 1
108 484 1
108 500 1
108 509 1
109 205 1
109 229 1
109 245 1
109 251 1
109 333 1
109 357 1
109 373 1
109 379 1
109 397 1
109 421 1
109 437 1
109 443 1
109 461 1
109 485 1
109 501 1
109 507 1
110 206 1
110 230 1
110 246 1
110 252 1
110 334 1
110 358 1
110 374 1
110 380 1
110 398 1
110 422 1
110 438 1
110 444 1
110 462 1
110 486 1
110 502 1
110 508 1
111 207 1
111 231 1
111 247 1
111 254 1
111 335 1
111 359 1
111 375 1
111 382 1
111 399 1
111 423 1
111 439 1
111 446 1
111 463 1
111 487 1
111 503 1
111 510 1
112 208 1
112 232 1
112 248 1
112 255 1
112 336 1
112 360 1
112 376 1
112 383 1
112 400 1
112 424 1
112 440 1
112 447 1
112 464 1
112 488 1
112 504 1
112 511 1
113 209 1
113 233 1
113 241 1
113 256 1
113 337 1
113 361 1
113 369 1
113 384 1
113 401 1
113 425 1
113 433 1
113 448 1
113 465 1
113 489 1
113 497 1
113 512 1
114 210 1
114 234 1
114 242 1
114 249 1
114 338 1
114 362 1
114 370 1
114 377 1
114 402 1
114 426 1
114 434 1
114 441 1
114 466 1
114 490 1
114 498 1
114 505 1
115 211 1
115 235 1
115 243 1
115 250 1
115 339 1
115 363 1
115 371 1
115 378 1
115 403 1
115 427 1
115 435 1
115 442 1
115 467 1
115 491 1
115 499 1
115 506 1
116 212 1
116 236 1
116 244 1
116 253 1
116 340 1
116 364 1
116 372 1
116 381 1
116 404 1
116 428 1
116 436 1
116 445 1
116 468 1
116 492 1
116 500 1
116 509 1
117 213 1
117 237 1
117 245 1
117 251 1
117 341 1
117 365 1
117 373 1
117 379 1
117 405 1
117 429 1
117 437 1
117 443 1
117 469 1
117 493 1
117 501 1
117 507 1
118 214 1
118 238 1
118 246 1
118 252 1
118 342 1
118 366 1
118 374 1
118 380 1
118 406 1
118 430 1
118 438 1
118 444 1
118 470 1
118 494 1
118 502 1
118 508 1
119 215 1
119 239 1
119 247 1
119 254 1
119 343 1
119 367 1
119 375 1
119 382 1
119 407 1
119 431 1
119 439 1
119 446 1
119 471 1
119 495 1
119 503 1
119 510 1
120 216 1
120 240 1
120 248 1
120 255 1
120 344 1
120 368 1
120 376 1
120 383 1
120 408 1
120 432 1
120 440 1
120 447 1
120 472 1
120 496 1
120 504 1
120 511 1
121 217 1
121 225 1
121 233 1
121 241 1
121 345 1
121 353 1
121 361 1
121 369 1
121 409 1
121 417 1
121 425 1
121 433 1
121 473 1
121 481 1
121 489 1
121 497 1
122 218 1
122 226 1
122 234 1
122 242 1
122 346 1
122 354 1
122 362 1
122 370 1
122 410 1
122 418 1
122 426 1
122 434 1
122 474 1
122 482 1
122 490 1
122 498 1
123 219 1
123 227 1
123 235 1
123 243 1
123 347 1
123 355 1
123 363 1
123 371 1
123 411 1
123 419 1
123 427 1
123 435 1
123 475 1
123 483 1
123 491 1
123 499 1
124 220 1
124 228 1
124 236 1
124 244 1
124 348 1
124 356 1
124 364 1
124 372 1
124 412 1
124 420 1
124 428 1
124 436 1
124 476 1
124 484 1
124 492 1
124 500 1
125 221 1
125 229 1
125 237 1
125 245 1
125 349 1
125 357 1
125 365 1
125 373 1
125 413 1
125 421 1
125 429 1
125 437 1
125 477 1
125 485 1
125 493 1
125 501 1
126 222 1
126 230 1
126 238 1
126 246 1
126 350 1
126 358 1
126 366 1
126 374 1
126 414 1
126 422 1
126 430 1
126 438 1
126 478 1
126 486 1
126 494 1
126 502 1
127 223 1
127 231 1
127 239 1
127 247 1
127 351 1
127 359 1
127 367 1
127 375 1
127 415 1
127 423 1
127 431 1
127 439 1
127 479 1
127 487 1
127 495 1
127 503 1
128 224 1
128 232 1
128 240 1
128 248 1
128 352 1
128 360 1
128 368 1
128 376 1
128 416 1
128 424 1
128 432 1
128 440 1
128 480 1
128 488 1
128 496 1
128 504 1
129 1 1
129 33 1
129 41 1
129 49 1
129 257 1
129 289 1
129 297 1
129 305 1
129 321 1
129 353 1
129 361 1
129 369 1
129 450 1
129 482 1
129 490 1
129 498 1
130 2 1
130 34 1
130 42 1
130 50 1
130 258 1
130 290 1
130 298 1
130 306 1
130 322 1
130 354 1
130 362 1
130 370 1
130 451 1
130 483 1
130 491 1
130 499 1
131 3 1
131 35 1
131 43 1
131 51 1
131 259 1
131 291 1
131 299 1
131 307 1
131 323 1
131 355 1
131 363 1
131 371 1
131 453 1
131 485 1
131 493 1
131 501 1
132 4 1
132 36 1
132 44 1
132 52 1
132 260 1
132 292 1
132 300 1
132 308 1
132 324 1
132 356 1
132 364 1
132 372 1
132 454 1
132 486 1
132 494 1
132 502 1
133 5 1
133 37 1
133 45 1
133 53 1
133 261 1
133 293 1
133 301 1
133 309 1
133 325 1
133 357 1
133 365 1
133 373 1
133 452 1
133 484 1
133 492 1
133 500 1
134 6 1
134 38 1
134 46 1
134 54 1
134 262 1
134 294 1
134 302 1
134 310 1
134 326 1
134 358 1
134 366 1
134 374 1
134 455 1
134 487 1
134 495 1
134 503 1
135 7 1
135 39 1
135 47 1
135 55 1
135 263 1
135 295 1
135 303 1
135 311 1
135 327 1
135 359 1
135 367 1
135 375 1
135 456 1
135 488 1
135 496 1
135 504 1
136 8 1
136 40 1
136 48 1
136 56 1
136 264 1
136 296 1
136 304 1
136 312 1
136 328 1
136 360 1
136 368 1
136 376 1
136 449 1
136 481 1
136 489 1
136 497 1
137 9 1
137 33 1
137 41 1
137 57 1
137 265 1
137 289 1
137 297 1
137 313 1
137 329 1
137 353 1
137 361 1
137 377 1
137 458 1
137 482 1
137 490 1
137 506 1
138 10 1
138 34 1
138 42 1
138 58 1
138 266 1
138 290 1
138 298 1
138 314 1
138 330 1
138 354 1
138 362 1
138 378 1
138 459 1
138 483 1
138 491 1
138 507 1
139 11 1
139 35 1
139 43 1
139 59 1
139 267 1
139 291 1
139 299 1
139 315 1
139 331 1
139 355 1
139 363 1
139 379 1
139 461 1
139 485 1
139 493 1
139 509 1
140 12 1
140 36 1
140 44 1
140 60 1
140 268 1
140 292 1
140 300 1
140 316 1
140 332 1
140 356 1
140 364 1
140 380 1
140 462 1
140 486 1
140 494 1
140 510 1
141 13 1
141 37 1
141 45 1
141 61 1
141 269 1
141 293 1
141 301 1
141 317 1
141 333 1
141 357 1
141 365 1
141 381 1
141 460 1
141 484 1
141 492 1
141 508 1
142 14 1
142 38 1
142 46 1
142 62 1
142 270 1
142 294 1
142 302 1
142 318 1
142 334 1
142 358 1
142 366 1
142 382 1
142 463 1
142 487 1
142 495 1
142 511 1
143 15 1
143 39 1
143 47 1
143 63 1
143 271 1
143 295 1
143 303 1
143 319 1
143 335 1
143 359 1
143 367 1
143 383 1
143 464 1
143 488 1
143 496 1
143 512 1
144 16 1
144 40 1
144 48 1
144 64 1
144 272 1
144 296 1
144 304 1
144 320 1
144 336 1
144 360 1
144 368 1
144 384 1
144 457 1
144 481 1
144 489 1
144 505 1
145 17 1
145 33 1
145 49 1
145 57 1
145 273 1
145 289 1
145 305 1
145 313 1
145 337 1
145 353 1
145 369 1
145 377 1
145 466 1
145 482 1
145 498 1
145 506 1
146 18 1
146 34 1
146 50 1
146 58 1
146 274 1
146 290 1
146 306 1
146 314 1
146 338 1
146 354 1
146 370 1
146 378 1
146 467 1
146 483 1
146 499 1
146 507 1
147 19 1
147 35 1
147 51 1
147 59 1
147 275 1
147 291 1
147 307 1
147 315 1
147 339 1
147 355 1
147 371 1
147 379 1
147 469 1
147 485 1
147 501 1
147 509 1
148 20 1
148 36 1
148 52 1
148 60 1
148 276 1
148 292 1
148 308 1
148 316 1
148 340 1
148 356 1
148 372 1
148 380 1
148 470 1
148 486 1
148 502 1
148 510 1
149 21 1
149 37 1
149 53 1
149 61 1
149 277 1
149 293 1
149 309 1
149 317 1
149 341 1
149 357 1
149 373 1
149 381 1
149 468 1
149 484 1
149 500 1
149 508 1
150 22 1
150 38 1
150 54 1
150 62 1
150 278 1
150 294 1
150 310 1
150 318 1
150 342 1
150 358 1
150 374 1
150 382 1
150 471 1
150 487 1
150 503 1
150 511 1
151 23 1
151 39 1
151 55 1
151 63 1
151 279 1
151 295 1
151 311 1
151 319 1
151 343 1
151 359 1
151 375 1
151 383 1
151 472 1
151 488 1
151 504 1
151 512 1
152 24 1
152 40 1
152 56 1
152 64 1
152 280 1
152 296 1
152 312 1
152 320 1
152 344 1
152 360 1
152 376 1
152 384 1
152 465 1
152 481 1
152 497 1
152 505 1
153 25 1
153 41 1
153 49 1
153 57 1
153 281 1
153 297 1
153 305 1
153 313 1
153 345 1
153 361 1
153 369 1
153 377 1
153 474 1
153 490 1
153 498 1
153 506 1
154 26 1
154 42 1
154 50 1
154 58 1
154 282 1
154 298 1
154 306 1
154 314 1
154 346 1
154 362 1
154 370 1
154 378 1
154 475 1
154 491 1
154 499 1
154 507 1
155 27 1
155 43 1
155 51 1
155 59 1
155 283 1
155 299 1
155 307 1
155 315 1
155 347 1
155 363 1
155 371 1
155 379 1
155 477 1
155 493 1
155 501 1
155 509 1
156 28 1
156 44 1
156 52 1
156 60 1
156 284 1
156 300 1
156 308 1
156 316 1
156 348 1
156 364 1
156 372 1
156 380 1
156 478 1
156 494 1
156 502 1
156 510 1
157 29 1
157 45 1
157 53 1
157 61 1
157 285 1
157 301 1
157 309 1
157 317 1
157 349 1
157 365 1
157 373 1
157 381 1
157 476 1
157 492 1
157 500 1
157 508 1
158 30 1
158 46 1
158 54 1
158 62 1
158 286 1
158 302 1
158 310 1
158 318 1
158 350 1
158 366 1
158 374 1
158 382 1
158 479 1
158 495 1
158 503 1
158 511 1
159 31 1
159 47 1
159 55 1
159 63 1
159 287 1
159 303 1
159 311 1
159 319 1
159 351 1
159 367 1
159 375 1
159 383 1
159 480 1
159 496 1
159 504 1
159 512 1
160 32 1
160 48 1
160 56 1
160 64 1
160 288 1
160 304 1
160 312 1
160 320 1
160 352 1
160 368 1
160 376 1
160 384 1
160 473 1
160 489 1
160 497 1
160 505 1
161 65 1
161 97 1
161 105 1
161 113 1
161 257 1
161 289 1
161 297 1
161 305 1
161 385 1
161 417 1
161 425 1
161 433 1
161 450 1
161 482 1
161 490 1
161 498 1
162 66 1
162 98 1
162 106 1
162 114 1
162 258 1
162 290 1
162 298 1
162 306 1
162 386 1
162 418 1
162 426 1
162 434 1
162 451 1
162 483 1
162 491 1
162 499 1
163 67 1
163 99 1
163 107 1
163 115 1
163 259 1
163 291 1
163 299 1
163 307 1
163 387 1
163 419 1
163 427 1
163 435 1
163 453 1
163 485 1
163 493 1
163 501 1
164 68 1
164 100 1
164 108 1
164 116 1
164 260 1
164 292 1
164 300 1
164 308 1
164 388 1
164 420 1
164 428 1
164 436 1
164 454 1
164 486 1
164 494 1
164 502 1
165 69 1
165 101 1
165 109 1
165 117 1
165 261 1
165 293 1
165 301 1
165 309 1
165 389 1
165 421 1
165 429 1
165 437 1
165 452 1
165 484 1
165 492 1
165 500 1
166 70 1
166 102 1
166 110 1
166 118 1
166 262 1
166 294 1
166 302 1
166 310 1
166 390 1
166 422 1
166 430 1
166 438 1
166 455 1
166 487 1
166 495 1
166 503 1
167 71 1
167 103 1
167 111 1
167 119 1
167 263 1
167 295 1
167 303 1
167 311 1
167 391 1
167 423 1
167 431 1
167 439 1
167 456 1
167 488 1
167 496 1
167 504 1
168 72 1
168 104 1
168 112 1
168 120 1
168 264 1
168 296 1
168 304 1
168 312 1
168 392 1
168 424 1
168 432 1
168 440 1
168 449 1
168 481 1
168 489 1
168 497 1
169 73 1
169 97 1
169 105 1
169 121 1
169 265 1
169 289 1
169 297 1
169 313 1
169 393 1
169 417 1
169 425 1
169 441 1
169 458 1
169 482 1
169 490 1
169 506 1
170 74 1
170 98 1
170 106 1
170 122 1
170 266 1
170 290 1
170 298 1
170 314 1
170 394 1
170 418 1
170 426 1
170 442 1
170 459 1
170 483 1
170 491 1
170 507 1
171 75 1
171 99 1
171 107 1
171 123 1
171 267 1
171 291 1
171 299 1
171 315 1
171 395 1
171 419 1
171 427 1
171 443 1
171 461 1
171 485 1
171 493 1
171 509 1
172 76 1
172 100 1
172 108 1
172 124 1
172 268 1
172 292 1
172 300 1
172 316 1
172 396 1
172 420 1
172 428 1
172 444 1
172 462 1
172 486 1
172 494 1
172 510 1
173 77 1
173 101 1
173 109 1
173 125 1
173 269 1
173 293 1
173 301 1
173 317 1
173 397 1
173 421 1
173 429 1
173 445 1
173 460 1
173 484 1
173 492 1
173 508 1
174 78 1
174 102 1
174 110 1
174 126 1
174 270 1
174 294 1
174 302 1
174 318 1
174 398 1
174 422 1
174 430 1
174 446 1
174 463 1
174 487 1
174 495 1
174 511 1
175 79 1
175 103 1
175 111 1
175 127 1
175 271 1
175 295 1
175 303 1
175 319 1
175 399 1
175 423 1
175 431 1
175 447 1
175 464 1
175 488 1
175 496 1
175 512 1
176 80 1
176 104 1
176 112 1
176 128 1
176 272 1
176 296 1
176 304 1
176 320 1
176 400 1
176 424 1
176 432 1
176 448 1
176 457 1
176 481 1
176 489 1
176 505 1
177 81 1
177 97 1
177 113 1
177 121 1
177 273 1
177 289 1
177 305 1
177 313 1
177 401 1
177 417 1
177 433 1
177 441 1
177 466 1
177 482 1
177 498 1
177 506 1
178 82 1
178 98 1
178 114 1
178 122 1
178 274 1
178 290 1
178 306 1
178 314 1
178 402 1
178 418 1
178 434 1
178 442 1
178 467 1
178 483 1
178 499 1
178 507 1
179 83 1
179 99 1
179 115 1
179 123 1
179 275 1
179 291 1
179 307 1
179 315 1
179 403 1
179 419 1
179 435 1
179 443 1
179 469 1
179 485 1
179 501 1
179 509 1
180 84 1
180 100 1
180 116 1
180 124 1
180 276 1
180 292 1
180 308 1
180 316 1
180 404 1
180 420 1
180 436 1
180 444 1
180 470 1
180 486 1
180 502 1
180 510 1
181 85 1
181 101 1
181 117 1
181 125 1
181 277 1
181 293 1
181 309 1
181 317 1
181 405 1
181 421 1
181 437 1
181 445 1
181 468 1
181 484 1
181 500 1
181 508 1
182 86 1
182 102 1
182 118 1
182 126 1
182 278 1
182 294 1
182 310 1
182 318 1
182 406 1
182 422 1
182 438 1
182 446 1
182 471 1
182 487 1
182 503 1
182 511 1
183 87 1
183 103 1
183 119 1
183 127 1
183 279 1
183 295 1
183 311 1
183 319 1
183 407 1
183 423 1
183 439 1
183 447 1
183 472 1
183 488 1
183 504 1
183 512 1
184 88 1
184 104 1
184 120 1
184 128 1
184 280 1
184 296 1
184 312 1
184 320 1
184 408 1
184 424 1
184 440 1
184 448 1
184 465 1
184 481 1
184 497 1
184 505 1
185 89 1
185 105 1
185 113 1
185 121 1
185 281 1
185 297 1
185 305 1
185 313 1
185 409 1
185 425 1
185 433 1
185 441 1
185 474 1
185 490 1
185 498 1
185 506 1
186 90 1
186 106 1
186 114 1
186 122 1
186 282 1
186 298 1
186 306 1
186 314 1
186 410 1
186 426 1
186 434 1
186 442 1
186 475 1
186 491 1
186 499 1
186 507 1
187 91 1
187 107 1
187 115 1
187 123 1
187 283 1
187 299 1
187 307 1
187 315 1
187 411 1
187 427 1
187 435 1
187 443 1
187 477 1
187 493 1
187 501 1
187 509 1
188 92 1
188 108 1
188 116 1
188 124 1
188 284 1
188 300 1
188 308 1
188 316 1
188 412 1
188 428 1
188 436 1
188 444 1
188 478 1
188 494 1
188 502 1
188 510 1
189 93 1
189 109 1
189 117 1
189 125 1
189 285 1
189 301 1
189 309 1
189 317 1
189 413 1
189 429 1
189 437 1
189 445 1
189 476 1
189 492 1
189 500 1
189 508 1
190 94 1
190 110 1
190 118 1
190 126 1
190 286 1
190 302 1
190 310 1
190 318 1
190 414 1
190 430 1
190 438 1
190 446 1
190 479 1
190 495 1
190 503 1
190 511 1
191 95 1
191 111 1
191 119 1
191 127 1
191 287 1
191 303 1
191 311 1
191 319 1
191 415 1
191 431 1
191 439 1
191 447 1
191 480 1
191 496 1
191 504 1
191 512 1
192 96 1
192 112 1
192 120 1
192 128 1
192 288 1
192 304 1
192 312 1
192 320 1
192 416 1
192 432 1
192 440 1
192 448 1
192 473 1
192 489 1
192 497 1
192 505 1
193 129 1
193 161 1
193 169 1
193 177 1
193 321 1
193 353 1
193 361 1
193 369 1
193 385 1
193 417 1
193 425 1
193 433 1
193 450 1
193 482 1
193 490 1
193 498 1
194 130 1
194 162 1
194 170 1
194 178 1
194 322 1
194 354 1
194 362 1
194 370 1
194 386 1
194 418 1
194 426 1
194 434 1
194 451 1
194 483 1
194 491 1
194 499 1
195 131 1
195 163 1
195 171 1
195 179 1
195 323 1
195 355 1
195 363 1
195 371 1
195 387 1
195 419 1
195 427 1
195 435 1
195 453 1
195 485 1
195 493 1
195 501 1
196 132 1
196 164 1
196 172 1
196 180 1
196 324 1
196 356 1
196 364 1
196 372 1
196 388 1
196 420 1
196 428 1
196 436 1
196 454 1
196 486 1
196 494 1
196 502 1
197 133 1
197 165 1
197 173 1
197 181 1
197 325 1
197 357 1
197 365 1
197 373 1
197 389 1
197 421 1
197 429 1
197 437 1
197 452 1
197 484 1
197 492 1
197 500 1
198 134 1
198 166 1
198 174 1
198 182 1
198 326 1
198 358 1
198 366 1
198 374 1
198 390 1
198 422 1
198 430 1
198 438 1
198 455 1
198 487 1
198 495 1
198 503 1
199 135 1
199 167 1
199 175 1
199 183 1
199 327 1
199 359 1
199 367 1
199 375 1
199 391 1
199 423 1
199 431 1
199 439 1
199 456 1
199 488 1
199 496 1
199 504 1
200 136 1
200 168 1
200 176 1
200 184 1
200 328 1
200 360 1
200 368 1
200 376 1
200 392 1
200 424 1
200 432 1
200 440 1
200 449 1
200 481 1
200 489 1
200 497 1
201 137 1
201 161 1
201 169 1
201 185 1
201 329 1
201 353 1
201 361 1
201 377 1
201 393 1
201 417 1
201 425 1
201 441 1
201 458 1
201 482 1
201 490 1
201 506 1
202 138 1
202 162 1
202 170 1
202 186 1
202 330 1
202 354 1
202 362 1
202 378 1
202 394 1
202 418 1
202 426 1
202 442 1
202 459 1
202 483 1
202 491 1
202 507 1
203 139 1
203 163 1
203 171 1
203 187 1
203 331 1
203 355 1
203 363 1
203 379 1
203 395 1
203 419 1
203 427 1
203 443 1
203 461 1
203 485 1
203 493 1
203 509 1
204 140 1
204 164 1
204 172 1
204 188 1
204 332 1
204 356 1
204 364 1
204 380 1
204 396 1
204 420 1
204 428 1
204 444 1
204 462 1
204 486 1
204 494 1
204 510 1
205 141 1
205 165 1
205 173 1
205 189 1
205 333 1
205 357 1
205 365 1
205 381 1
205 397 1
205 421 1
205 429 1
205 445 1
205 460 1
205 484 1
205 492 1
205 508 1
206 142 1
206 166 1
206 174 1
206 190 1
206 334 1
206 358 1
206 366 1
206 382 1
206 398 1
206 422 1
206 430 1
206 446 1
206 463 1
206 487 1
206 495 1
206 511 1
207 143 1
207 167 1
207 175 1
207 191 1
207 335 1
207 359 1
207 367 1
207 383 1
207 399 1
207 423 1
207 431 1
207 447 1
207 464 1
207 488 1
207 496 1
207 512 1
208 144 1
208 168 1
208 176 1
208 192 1
208 336 1
208 360 1
208 368 1
208 384 1
208 400 1
208 424 1
208 432 1
208 448 1
208 457 1
208 481 1
208 489 1
208 505 1
209 145 1
209 161 1
209 177 1
209 185 1
209 337 1
209 353 1
209 369 1
209 377 1
209 401 1
209 417 1
209 433 1
209 441 1
209 466 1
209 482 1
209 498 1
209 506 1
210 146 1
210 162 1
210 178 1
210 186 1
210 338 1
210 354 1
210 370 1
210 378 1
210 402 1
210 418 1
210 434 1
210 442 1
210 467 1
210 483 1
210 499 1
210 507 1
211 147 1
211 163 1
211 179 1
211 187 1
211 339 1
211 355 1
211 371 1
211 379 1
211 403 1
211 419 1
211 435 1
211 443 1
211 469 1
211 485 1
211 501 1
211 509 1
212 148 1
212 164 1
212 180 1
212 188 1
212 340 1
212 356 1
212 372 1
212 380 1
212 404 1
212 420 1
212 436 1
212 444 1
212 470 1
212 486 1
212 502 1
212 510 1
213 149 1
213 165 1
213 181 1
213 189 1
213 341 1
213 357 1
213 373 1
213 381 1
213 405 1
213 421 1
213 437 1
213 445 1
213 468 1
213 484 1
213 500 1
213 508 1
214 150 1
214 166 1
214 182 1
214 190 1
214 342 1
214 358 1
214 374 1
214 382 1
214 406 1
214 422 1
214 438 1
214 446 1
214 471 1
214 487 1
214 503 1
214 511 1
215 151 1
215 167 1
215 183 1
215 191 1
215 343 1
215 359 1
215 375 1
215 383 1
215 407 1
215 423 1
215 439 1
215 447 1
215 472 1
215 488 1
215 504 1
215 512 1
216 152 1
216 168 1
216 184 1
216 192 1
216 344 1
216 360 1
216 376 1
216 384 1
216 408 1
216 424 1
216 440 1
216 448 1
216 465 1
216 481 1
216 497 1
216 505 1
217 153 1
217 169 1
217 177 1
217 185 1
217 345 1
217 361 1
217 369 1
217 377 1
217 409 1
217 425 1
217 433 1
217 441 1
217 474 1
217 490 1
217 498 1
217 506 1
218 154 1
218 170 1
218 178 1
218 186 1
218 346 1
218 362 1
218 370 1
218 378 1
218 410 1
218 426 1
218 434 1
218 442 1
218 475 1
218 491 1
218 499 1
218 507 1
219 155 1
219 171 1
219 179 1
219 187 1
219 347 1
219 363 1
219 371 1
219 379 1
219 411 1
219 427 1
219 435 1
219 443 1
219 477 1
219 493 1
219 501 1
219 509 1
220 156 1
220 172 1
220 180 1
220 188 1
220 348 1
220 364 1
220 372 1
220 380 1
220 412 1
220 428 1
220 436 1
220 444 1
220 478 1
220 494 1
220 502 1
220 510 1
221 157 1
221 173 1
221 181 1
221 189 1
221 349 1
221 365 1
221 373 1
221 381 1
221 413 1
221 429 1
221 437 1
221 445 1
221 476 1
221 492 1
221 500 1
221 508 1
222 158 1
222 174 1
222 182 1
222 190 1
222 350 1
222 366 1
222 374 1
222 382 1
222 414 1
222 430 1
222 438 1
222 446 1
222 479 1
222 495 1
222 503 1
222 511 1
223 159 1
223 175 1
223 183 1
223 191 1
223 351 1
223 367 1
223 375 1
223 383 1
223 415 1
223 431 1
223 439 1
223 447 1
223 480 1
223 496 1
223 504 1
223 512 1
224 160 1
224 176 1
224 184 1
224 192 1
224 352 1
224 368 1
224 376 1
224 384 1
224 416 1
224 432 1
224 440 1
224 448 1
224 473 1
224 489 1
224 497 1
224 505 1
225 193 1
225 225 1
225 233 1
225 241 1
225 257 1
225 289 1
225 297 1
225 305 1
225 321 1
225 353 1
225 361 1
225 369 1
225 385 1
225 417 1
225 425 1
225 433 1
226 194 1
226 226 1
226 234 1
226 242 1
226 258 1
226 290 1
226 298 1
226 306 1
226 322 1
226 354 1
226 362 1
226 370 1
226 386 1
226 418 1
226 426 1
226 434 1
227 195 1
227 227 1
227 235 1
227 243 1
227 259 1
227 291 1
227 299 1
227 307 1
227 323 1
227 355 1
227 363 1
227 371 1
227 387 1
227 419 1
227 427 1
227 435 1
228 196 1
228 228 1
228 236 1
228 244 1
228 260 1
228 292 1
228 300 1
228 308 1
228 324 1
228 356 1
228 364 1
228 372 1
228 388 1
228 420 1
228 428 1
228 436 1
229 197 1
229 229 1
229 237 1
229 245 1
229 261 1
229 293 1
229 301 1
229 309 1
229 325 1
229 357 1
229 365 1
229 373 1
229 389 1
229 421 1
229 429 1
229 437 1
230 198 1
230 230 1
230 238 1
230 246 1
230 262 1
230 294 1
230 302 1
230 310 1
230 326 1
230 358 1
230 366 1
230 374 1
230 390 1
230 422 1
230 430 1
230 438 1
231 199 1
231 231 1
231 239 1
231 247 1
231 263 1
231 295 1
231 303 1
231 311 1
231 327 1
231 359 1
231 367 1
231 375 1
231 391 1
231 423 1
231 431 1
231 439 1
232 200 1
232 232 1
232 240 1
232 248 1
232 264 1
232 296 1
232 304 1
232 312 1
232 328 1
232 360 1
232 368 1
232 376 1
232 392 1
232 424 1
232 432 1
232 440 1
233 201 1
233 225 1
233 233 1
233 249 1
233 265 1
233 289 1
233 297 1
233 313 1
233 329 1
233 353 1
233 361 1
233 377 1
233 393 1
233 417 1
233 425 1
233 441 1
234 202 1
234 226 1
234 234 1
234 250 1
234 266 1
234 290 1
234 298 1
234 314 1
234 330 1
234 354 1
234 362 1
234 378 1
234 394 1
234 418 1
234 426 1
234 442 1
235 203 1
235 227 1
235 235 1
235 251 1
235 267 1
235 291 1
235 299 1
235 315 1
235 331 1
235 355 1
235 363 1
235 379 1
235 395 1
235 419 1
235 427 1
235 443 1
236 204 1
236 228 1
236 236 1
236 252 1
236 268 1
236 292 1
236 300 1
236 316 1
236 332 1
236 356 1
236 364 1
236 380 1
236 396 1
236 420 1
236 428 1
236 444 1
237 205 1
237 229 1
237 237 1
237 253 1
237 269 1
237 293 1
237 301 1
237 317 1
237 333 1
237 357 1
237 365 1
237 381 1
237 397 1
237 421 1
237 429 1
237 445 1
238 206 1
238 230 1
238 238 1
238 254 1
238 270 1
238 294 1
238 302 1
238 318 1
238 334 1
238 358 1
238 366 1
238 382 1
238 398 1
238 422 1
238 430 1
238 446 1
239 207 1
239 231 1
239 239 1
239 255 1
239 271 1
239 295 1
239 303 1
239 319 1
239 335 1
239 359 1
239 367 1
239 383 1
239 399 1
239 423 1
239 431 1
239 447 1
240 208 1
240 232 1
240 240 1
240 256 1
240 272 1
240 296 1
240 304 1
240 320 1
240 336 1
240 360 1
240 368 1
240 384 1
240 400 1
240 424 1
240 432 1
240 448 1
241 209 1
241 225 1
241 241 1
241 249 1
241 273 1
241 289 1
241 305 1
241 313 1
241 337 1
241 353 1
241 369 1
241 377 1
241 401 1
241 417 1
241 433 1
241 441 1
242 210 1
242 226 1
242 242 1
242 250 1
242 274 1
242 290 1
242 306 1
242 314 1
242 338 1
242 354 1
242 370 1
242 378 1
242 402 1
242 418 1
242 434 1
242 442 1
243 211 1
243 227 1
243 243 1
243 251 1
243 275 1
243 291 1
243 307 1
243 315 1
243 339 1
243 355 1
243 371 1
243 379 1
243 403 1
243 419 1
243 435 1
243 443 1
244 212 1
244 228 1
244 244 1
244 252 1
244 276 1
244 292 1
244 308 1
244 316 1
244 340 1
244 356 1
244 372 1
244 380 1
244 404 1
244 420 1
244 436 1
244 444 1
245 213 1
245 229 1
245 245 1
245 253 1
245 277 1
245 293 1
245 309 1
245 317 1
245 341 1
245 357 1
245 373 1
245 381 1
245 405 1
245 421 1
245 437 1
245 445 1
246 214 1
246 230 1
246 246 1
246 254 1
246 278 1
246 294 1
246 310 1
246 318 1
246 342 1
246 358 1
246 374 1
246 382 1
246 406 1
246 422 1
246 438 1
246 446 1
247 215 1
247 231 1
247 247 1
247 255 1
247 279 1
247 295 1
247 311 1
247 319 1
247 343 1
247 359 1
247 375 1
247 383 1
247 407 1
247 423 1
247 439 1
247 447 1
248 216 1
248 232 1
248 248 1
248 256 1
248 280 1
248 296 1
248 312 1
248 320 1
248 344 1
248 360 1
248 376 1
248 384 1
248 408 1
248 424 1
248 440 1
248 448 1
249 217 1
249 233 1
249 241 1
249 249 1
249 281 1
249 297 1
249 305 1
249 313 1
249 345 1
249 361 1
249 369 1
249 377 1
249 409 1
249 425 1
249 433 1
249 441 1
250 218 1
250 234 1
250 242 1
250 250 1
250 282 1
250 298 1
250 306 1
250 314 1
250 346 1
250 362 1
250 370 1
250 378 1
250 410 1
250 426 1
250 434 1
250 442 1
251 219 1
251 235 1
251 243 1
251 251 1
251 283 1
251 299 1
251 307 1
251 315 1
251 347 1
251 363 1
251 371 1
251 379 1
251 411 1
251 427 1
251 435 1
251 443 1
252 220 1
252 236 1
252 244 1
252 252 1
252 284 1
252 300 1
252 308 1
252 316 1
252 348 1
252 364 1
252 372 1
252 380 1
252 412 1
252 428 1
252 436 1
252 444 1
253 221 1
253 237 1
253 245 1
253 253 1
253 285 1
253 301 1
253 309 1
253 317 1
253 349 1
253 365 1
253 373 1
253 381 1
253 413 1
253 429 1
253 437 1
253 445 1
254 222 1
254 238 1
254 246 1
254 254 1
254 286 1
254 302 1
254 310 1
254 318 1
254 350 1
254 366 1
254 374 1
254 382 1
254 414 1
254 430 1
254 438 1
254 446 1
255 223 1
255 239 1
255 247 1
255 255 1
255 287 1
255 303 1
255 311 1
255 319 1
255 351 1
255 367 1
255 375 1
255 383 1
255 415 1
255 431 1
255 439 1
255 447 1
256 224 1
256 240 1
256 248 1
256 256 1
256 288 1
256 304 1
256 312 1
256 320 1
256 352 1
256 368 1
256 376 1
256 384 1
256 416 1
256 432 1
256 440 1
256 448 1
