%%MatrixMarket matrix coordinate integer general
342 684 3078
1 1 1
1 38 1
1 73 1
1 343 1
1 380 1
1 415 1
1 457 1
1 494 1
1 529 1
2 2 1
2 20 1
2 74 1
2 344 1
2 362 1
2 416 1
2 458 1
2 476 1
2 530 1
3 3 1
3 21 1
3 75 1
3 345 1
3 363 1
3 417 1
3 459 1
3 477 1
3 531 1
4 4 1
4 22 1
4 76 1
4 346 1
4 364 1
4 418 1
4 460 1
4 478 1
4 532 1
5 5 1
5 23 1
5 58 1
5 347 1
5 365 1
5 400 1
5 461 1
5 479 1
5 514 1
6 6 1
6 24 1
6 59 1
6 348 1
6 366 1
6 401 1
6 462 1
6 480 1
6 515 1
7 7 1
7 25 1
7 60 1
7 349 1
7 367 1
7 402 1
7 463 1
7 481 1
7 516 1
8 8 1
8 26 1
8 61 1
8 350 1
8 368 1
8 403 1
8 464 1
8 482 1
8 517 1
9 9 1
9 27 1
9 62 1
9 351 1
9 369 1
9 404 1
9 465 1
9 483 1
9 518 1
10 10 1
10 28 1
10 63 1
10 352 1
10 370 1
10 405 1
10 466 1
10 484 1
10 519 1
11 11 1
11 29 1
11 64 1
11 353 1
11 371 1
11 406 1
11 467 1
11 485 1
11 520 1
12 12 1
12 30 1
12 65 1
12 354 1
12 372 1
12 407 1
12 468 1
12 486 1
12 521 1
13 13 1
13 31 1
13 66 1
13 355 1
13 373 1
13 408 1
13 469 1
13 487 1
13 522 1
14 14 1
14 32 1
14 67 1
14 356 1
14 374 1
14 409 1
14 470 1
14 488 1
14 523 1
15 15 1
15 33 1
15 68 1
15 357 1
15 375 1
15 410 1
15 471 1
15 489 1
15 524 1
16 16 1
16 34 1
16 69 1
16 358 1
16 376 1
16 411 1
16 472 1
16 490 1
16 525 1
17 17 1
17 35 1
17 70 1
17 359 1
17 377 1
17 412 1
17 473 1
17 491 1
17 526 1
18 18 1
18 36 1
18 71 1
18 360 1
18 378 1
18 413 1
18 474 1
18 492 1
18 527 1
19 19 1
19 37 1
19 72 1
19 361 1
19 379 1
19 414 1
19 475 1
19 493 1
19 528 1
20 1 1
20 54 1
20 107 1
20 343 1
20 396 1
20 449 1
20 457 1
20 510 1
20 563 1
21 2 1
21 55 1
21 108 1
21 344 1
21 397 1
21 450 1
21 458 1
21 511 1
21 564 1
22 3 1
22 56 1
22 109 1
22 345 1
22 398 1
22 451 1
22 459 1
22 512 1
22 565 1
23 4 1
23 57 1
23 110 1
23 346 1
23 399 1
23 452 1
23 460 1
23 513 1
23 566 1
24 5 1
24 39 1
24 111 1
24 347 1
24 381 1
24 453 1
24 461 1
24 495 1
24 567 1
25 6 1
25 40 1
25 112 1
25 348 1
25 382 1
25 454 1
25 462 1
25 496 1
25 568 1
26 7 1
26 41 1
26 113 1
26 349 1
26 383 1
26 455 1
26 463 1
26 497 1
26 569 1
27 8 1
27 42 1
27 114 1
27 350 1
27 384 1
27 456 1
27 464 1
27 498 1
27 570 1
28 9 1
28 43 1
28 96 1
28 351 1
28 385 1
28 438 1
28 465 1
28 499 1
28 552 1
29 10 1
29 44 1
29 97 1
29 352 1
29 386 1
29 439 1
29 466 1
29 500 1
29 553 1
30 11 1
30 45 1
30 98 1
30 353 1
30 387 1
30 440 1
30 467 1
30 501 1
30 554 1
31 12 1
31 46 1
31 99 1
31 354 1
31 388 1
31 441 1
31 468 1
31 502 1
31 555 1
32 13 1
32 47 1
32 100 1
32 355 1
32 389 1
32 442 1
32 469 1
32 503 1
32 556 1
33 14 1
33 48 1
33 101 1
33 356 1
33 390 1
33 443 1
33 470 1
33 504 1
33 557 1
34 15 1
34 49 1
34 102 1
34 357 1
34 391 1
34 444 1
34 471 1
34 505 1
34 558 1
35 16 1
35 50 1
35 103 1
35 358 1
35 392 1
35 445 1
35 472 1
35 506 1
35 559 1
36 17 1
36 51 1
36 104 1
36 359 1
36 393 1
36 446 1
36 473 1
36 507 1
36 560 1
37 18 1
37 52 1
37 105 1
37 360 1
37 394 1
37 447 1
37 474 1
37 508 1
37 561 1
38 19 1
38 53 1
38 106 1
38 361 1
38 395 1
38 448 1
38 475 1
38 509 1
38 562 1
39 38 1
39 89 1
39 107 1
39 380 1
39 431 1
39 449 1
39 494 1
39 545 1
39 563 1
40 20 1
40 90 1
40 108 1
40 362 1
40 432 1
40 450 1
40 476 1
40 546 1
40 564 1
41 21 1
41 91 1
41 109 1
41 363 1
41 433 1
41 451 1
41 477 1
41 547 1
41 565 1
42 22 1
42 92 1
42 110 1
42 364 1
42 434 1
42 452 1
42 478 1
42 548 1
42 566 1
43 23 1
43 93 1
43 111 1
43 365 1
43 435 1
43 453 1
43 479 1
43 549 1
43 567 1
44 24 1
44 94 1
44 112 1
44 366 1
44 436 1
44 454 1
44 480 1
44 550 1
44 568 1
45 25 1
45 95 1
45 113 1
45 367 1
45 437 1
45 455 1
45 481 1
45 551 1
45 569 1
46 26 1
46 77 1
46 114 1
46 368 1
46 419 1
46 456 1
46 482 1
46 533 1
46 570 1
47 27 1
47 78 1
47 96 1
47 369 1
47 420 1
47 438 1
47 483 1
47 534 1
47 552 1
48 28 1
48 79 1
48 97 1
48 370 1
48 421 1
48 439 1
48 484 1
48 535 1
48 553 1
49 29 1
49 80 1
49 98 1
49 371 1
49 422 1
49 440 1
49 485 1
49 536 1
49 554 1
50 30 1
50 81 1
50 99 1
50 372 1
50 423 1
50 441 1
50 486 1
50 537 1
50 555 1
51 31 1
51 82 1
51 100 1
51 373 1
51 424 1
51 442 1
51 487 1
51 538 1
51 556 1
52 32 1
52 83 1
52 101 1
52 374 1
52 425 1
52 443 1
52 488 1
52 539 1
52 557 1
53 33 1
53 84 1
53 102 1
53 375 1
53 426 1
53 444 1
53 489 1
53 540 1
53 558 1
54 34 1
54 85 1
54 103 1
54 376 1
54 427 1
54 445 1
54 490 1
54 541 1
54 559 1
55 35 1
55 86 1
55 104 1
55 377 1
55 428 1
55 446 1
55 491 1
55 542 1
55 560 1
56 36 1
56 87 1
56 105 1
56 378 1
56 429 1
56 447 1
56 492 1
56 543 1
56 561 1
57 37 1
57 88 1
57 106 1
57 379 1
57 430 1
57 448 1
57 493 1
57 544 1
57 562 1
58 115 1
58 152 1
58 187 1
58 343 1
58 380 1
58 415 1
58 571 1
58 608 1
58 643 1
59 116 1
59 134 1
59 188 1
59 344 1
59 362 1
59 416 1
59 572 1
59 590 1
59 644 1
60 117 1
60 135 1
60 189 1
60 345 1
60 363 1
60 417 1
60 573 1
60 591 1
60 645 1
61 118 1
61 136 1
61 190 1
61 346 1
61 364 1
61 418 1
61 574 1
61 592 1
61 646 1
62 119 1
62 137 1
62 172 1
62 347 1
62 365 1
62 400 1
62 575 1
62 593 1
62 628 1
63 120 1
63 138 1
63 173 1
63 348 1
63 366 1
63 401 1
63 576 1
63 594 1
63 629 1
64 121 1
64 139 1
64 174 1
64 349 1
64 367 1
64 402 1
64 577 1
64 595 1
64 630 1
65 122 1
65 140 1
65 175 1
65 350 1
65 368 1
65 403 1
65 578 1
65 596 1
65 631 1
66 123 1
66 141 1
66 176 1
66 351 1
66 369 1
66 404 1
66 579 1
66 597 1
66 632 1
67 124 1
67 142 1
67 177 1
67 352 1
67 370 1
67 405 1
67 580 1
67 598 1
67 633 1
68 125 1
68 143 1
68 178 1
68 353 1
68 371 1
68 406 1
68 581 1
68 599 1
68 634 1
69 126 1
69 144 1
69 179 1
69 354 1
69 372 1
69 407 1
69 582 1
69 600 1
69 635 1
70 127 1
70 145 1
70 180 1
70 355 1
70 373 1
70 408 1
70 583 1
70 601 1
70 636 1
71 128 1
71 146 1
71 181 1
71 356 1
71 374 1
71 409 1
71 584 1
71 602 1
71 637 1
72 129 1
72 147 1
72 182 1
72 357 1
72 375 1
72 410 1
72 585 1
72 603 1
72 638 1
73 130 1
73 148 1
73 183 1
73 358 1
73 376 1
73 411 1
73 586 1
73 604 1
73 639 1
74 131 1
74 149 1
74 184 1
74 359 1
74 377 1
74 412 1
74 587 1
74 605 1
74 640 1
75 132 1
75 150 1
75 185 1
75 360 1
75 378 1
75 413 1
75 588 1
75 606 1
75 641 1
76 133 1
76 151 1
76 186 1
76 361 1
76 379 1
76 414 1
76 589 1
76 607 1
76 642 1
77 115 1
77 168 1
77 221 1
77 343 1
77 396 1
77 449 1
77 571 1
77 624 1
77 677 1
78 116 1
78 169 1
78 222 1
78 344 1
78 397 1
78 450 1
78 572 1
78 625 1
78 678 1
79 117 1
79 170 1
79 223 1
79 345 1
79 398 1
79 451 1
79 573 1
79 626 1
79 679 1
80 118 1
80 171 1
80 224 1
80 346 1
80 399 1
80 452 1
80 574 1
80 627 1
80 680 1
81 119 1
81 153 1
81 225 1
81 347 1
81 381 1
81 453 1
81 575 1
81 609 1
81 681 1
82 120 1
82 154 1
82 226 1
82 348 1
82 382 1
82 454 1
82 576 1
82 610 1
82 682 1
83 121 1
83 155 1
83 227 1
83 349 1
83 383 1
83 455 1
83 577 1
83 611 1
83 683 1
84 122 1
84 156 1
84 228 1
84 350 1
84 384 1
84 456 1
84 578 1
84 612 1
84 684 1
85 123 1
85 157 1
85 210 1
85 351 1
85 385 1
85 438 1
85 579 1
85 613 1
85 666 1
86 124 1
86 158 1
86 211 1
86 352 1
86 386 1
86 439 1
86 580 1
86 614 1
86 667 1
87 125 1
87 159 1
87 212 1
87 353 1
87 387 1
87 440 1
87 581 1
87 615 1
87 668 1
88 126 1
88 160 1
88 213 1
88 354 1
88 388 1
88 441 1
88 582 1
88 616 1
88 669 1
89 127 1
89 161 1
89 214 1
89 355 1
89 389 1
89 442 1
89 583 1
89 617 1
89 670 1
90 128 1
90 162 1
90 215 1
90 356 1
90 390 1
90 443 1
90 584 1
90 618 1
90 671 1
91 129 1
91 163 1
91 216 1
91 357 1
91 391 1
91 444 1
91 585 1
91 619 1
91 672 1
92 130 1
92 164 1
92 217 1
92 358 1
92 392 1
92 445 1
92 586 1
92 620 1
92 673 1
93 131 1
93 165 1
93 218 1
93 359 1
93 393 1
93 446 1
93 587 1
93 621 1
93 674 1
94 132 1
94 166 1
94 219 1
94 360 1
94 394 1
94 447 1
94 588 1
94 622 1
94 675 1
95 133 1
95 167 1
95 220 1
95 361 1
95 395 1
95 448 1
95 589 1
95 623 1
95 676 1
96 152 1
96 203 1
96 221 1
96 380 1
96 431 1
96 449 1
96 608 1
96 659 1
96 677 1
97 134 1
97 204 1
97 222 1
97 362 1
97 432 1
97 450 1
97 590 1
97 660 1
97 678 1
98 135 1
98 205 1
98 223 1
98 363 1
98 433 1
98 451 1
98 591 1
98 661 1
98 679 1
99 136 1
99 206 1
99 224 1
99 364 1
99 434 1
99 452 1
99 592 1
99 662 1
99 680 1
100 137 1
100 207 1
100 225 1
100 365 1
100 435 1
100 453 1
100 593 1
100 663 1
100 681 1
101 138 1
101 208 1
101 226 1
101 366 1
101 436 1
101 454 1
101 594 1
101 664 1
101 682 1
102 139 1
102 209 1
102 227 1
102 367 1
102 437 1
102 455 1
102 595 1
102 665 1
102 683 1
103 140 1
103 191 1
103 228 1
103 368 1
103 419 1
103 456 1
103 596 1
103 647 1
103 684 1
104 141 1
104 192 1
104 210 1
104 369 1
104 420 1
104 438 1
104 597 1
104 648 1
104 666 1
105 142 1
105 193 1
105 211 1
105 370 1
105 421 1
105 439 1
105 598 1
105 649 1
105 667 1
106 143 1
106 194 1
106 212 1
106 371 1
106 422 1
106 440 1
106 599 1
106 650 1
106 668 1
107 144 1
107 195 1
107 213 1
107 372 1
107 423 1
107 441 1
107 600 1
107 651 1
107 669 1
108 145 1
108 196 1
108 214 1
108 373 1
108 424 1
108 442 1
108 601 1
108 652 1
108 670 1
109 146 1
109 197 1
109 215 1
109 374 1
109 425 1
109 443 1
109 602 1
109 653 1
109 671 1
110 147 1
110 198 1
110 216 1
110 375 1
110 426 1
110 444 1
110 603 1
110 654 1
110 672 1
111 148 1
111 199 1
111 217 1
111 376 1
111 427 1
111 445 1
111 604 1
111 655 1
111 673 1
112 149 1
112 200 1
112 218 1
112 377 1
112 428 1
112 446 1
112 605 1
112 656 1
112 674 1
113 150 1
113 201 1
113 219 1
113 378 1
113 429 1
113 447 1
113 606 1
113 657 1
113 675 1
114 151 1
114 202 1
114 220 1
114 379 1
114 430 1
114 448 1
114 607 1
114 658 1
114 676 1
115 229 1
115 266 1
115 301 1
115 457 1
115 494 1
115 529 1
115 571 1
115 608 1
115 643 1
116 230 1
116 248 1
116 302 1
116 458 1
116 476 1
116 530 1
116 572 1
116 590 1
116 644 1
117 231 1
117 249 1
117 303 1
117 459 1
117 477 1
117 531 1
117 573 1
117 591 1
117 645 1
118 232 1
118 250 1
118 304 1
118 460 1
118 478 1
118 532 1
118 574 1
118 592 1
118 646 1
119 233 1
119 251 1
119 286 1
119 461 1
119 479 1
119 514 1
119 575 1
119 593 1
119 628 1
120 234 1
120 252 1
120 287 1
120 462 1
120 480 1
120 515 1
120 576 1
120 594 1
120 629 1
121 235 1
121 253 1
121 288 1
121 463 1
121 481 1
121 516 1
121 577 1
121 595 1
121 630 1
122 236 1
122 254 1
122 289 1
122 464 1
122 482 1
122 517 1
122 578 1
122 596 1
122 631 1
123 237 1
123 255 1
123 290 1
123 465 1
123 483 1
123 518 1
123 579 1
123 597 1
123 632 1
124 238 1
124 256 1
124 291 1
124 466 1
124 484 1
124 519 1
124 580 1
124 598 1
124 633 1
125 239 1
125 257 1
125 292 1
125 467 1
125 485 1
125 520 1
125 581 1
125 599 1
125 634 1
126 240 1
126 258 1
126 293 1
126 468 1
126 486 1
126 521 1
126 582 1
126 600 1
126 635 1
127 241 1
127 259 1
127 294 1
127 469 1
127 487 1
127 522 1
127 583 1
127 601 1
127 636 1
128 242 1
128 260 1
128 295 1
128 470 1
128 488 1
128 523 1
128 584 1
128 602 1
128 637 1
129 243 1
129 261 1
129 296 1
129 471 1
129 489 1
129 524 1
129 585 1
129 603 1
129 638 1
130 244 1
130 262 1
130 297 1
130 472 1
130 490 1
130 525 1
130 586 1
130 604 1
130 639 1
131 245 1
131 263 1
131 298 1
131 473 1
131 491 1
131 526 1
131 587 1
131 605 1
131 640 1
132 246 1
132 264 1
132 299 1
132 474 1
132 492 1
132 527 1
132 588 1
132 606 1
132 641 1
133 247 1
133 265 1
133 300 1
133 475 1
133 493 1
133 528 1
133 589 1
133 607 1
133 642 1
134 229 1
134 282 1
134 335 1
134 457 1
134 510 1
134 563 1
134 571 1
134 624 1
134 677 1
135 230 1
135 283 1
135 336 1
135 458 1
135 511 1
135 564 1
135 572 1
135 625 1
135 678 1
136 231 1
136 284 1
136 337 1
136 459 1
136 512 1
136 565 1
136 573 1
136 626 1
136 679 1
137 232 1
137 285 1
137 338 1
137 460 1
137 513 1
137 566 1
137 574 1
137 627 1
137 680 1
138 233 1
138 267 1
138 339 1
138 461 1
138 495 1
138 567 1
138 575 1
138 609 1
138 681 1
139 234 1
139 268 1
139 340 1
139 462 1
139 496 1
139 568 1
139 576 1
139 610 1
139 682 1
140 235 1
140 269 1
140 341 1
140 463 1
140 497 1
140 569 1
140 577 1
140 611 1
140 683 1
141 236 1
141 270 1
141 342 1
141 464 1
141 498 1
141 570 1
141 578 1
141 612 1
141 684 1
142 237 1
142 271 1
142 324 1
142 465 1
142 499 1
142 552 1
142 579 1
142 613 1
142 666 1
143 238 1
143 272 1
143 325 1
143 466 1
143 500 1
143 553 1
143 580 1
143 614 1
143 667 1
144 239 1
144 273 1
144 326 1
144 467 1
144 501 1
144 554 1
144 581 1
144 615 1
144 668 1
145 240 1
145 274 1
145 327 1
145 468 1
145 502 1
145 555 1
145 582 1
145 616 1
145 669 1
146 241 1
146 275 1
146 328 1
146 469 1
146 503 1
146 556 1
146 583 1
146 617 1
146 670 1
147 242 1
147 276 1
147 329 1
147 470 1
147 504 1
147 557 1
147 584 1
147 618 1
147 671 1
148 243 1
148 277 1
148 330 1
148 471 1
148 505 1
148 558 1
148 585 1
148 619 1
148 672 1
149 244 1
149 278 1
149 331 1
149 472 1
149 506 1
149 559 1
149 586 1
149 620 1
149 673 1
150 245 1
150 279 1
150 332 1
150 473 1
150 507 1
150 560 1
150 587 1
150 621 1
150 674 1
151 246 1
151 280 1
151 333 1
151 474 1
151 508 1
151 561 1
151 588 1
151 622 1
151 675 1
152 247 1
152 281 1
152 334 1
152 475 1
152 509 1
152 562 1
152 589 1
152 623 1
152 676 1
153 266 1
153 317 1
153 335 1
153 494 1
153 545 1
153 563 1
153 608 1
153 659 1
153 677 1
154 248 1
154 318 1
154 336 1
154 476 1
154 546 1
154 564 1
154 590 1
154 660 1
154 678 1
155 249 1
155 319 1
155 337 1
155 477 1
155 547 1
155 565 1
155 591 1
155 661 1
155 679 1
156 250 1
156 320 1
156 338 1
156 478 1
156 548 1
156 566 1
156 592 1
156 662 1
156 680 1
157 251 1
157 321 1
157 339 1
157 479 1
157 549 1
157 567 1
157 593 1
157 663 1
157 681 1
158 252 1
158 322 1
158 340 1
158 480 1
158 550 1
158 568 1
158 594 1
158 664 1
158 682 1
159 253 1
159 323 1
159 341 1
159 481 1
159 551 1
159 569 1
159 595 1
159 665 1
159 683 1
160 254 1
160 305 1
160 342 1
160 482 1
160 533 1
160 570 1
160 596 1
160 647 1
160 684 1
161 255 1
161 306 1
161 324 1
161 483 1
161 534 1
161 552 1
161 597 1
161 648 1
161 666 1
162 256 1
162 307 1
162 325 1
162 484 1
162 535 1
162 553 1
162 598 1
162 649 1
162 667 1
163 257 1
163 308 1
163 326 1
163 485 1
163 536 1
163 554 1
163 599 1
163 650 1
163 668 1
164 258 1
164 309 1
164 327 1
164 486 1
164 537 1
164 555 1
164 600 1
164 651 1
164 669 1
165 259 1
165 310 1
165 328 1
165 487 1
165 538 1
165 556 1
165 601 1
165 652 1
165 670 1
166 260 1
166 311 1
166 329 1
166 488 1
166 539 1
166 557 1
166 602 1
166 653 1
166 671 1
167 261 1
167 312 1
167 330 1
167 489 1
167 540 1
167 558 1
167 603 1
167 654 1
167 672 1
168 262 1
168 313 1
168 331 1
168 490 1
168 541 1
168 559 1
168 604 1
168 655 1
168 673 1
169 263 1
169 314 1
169 332 1
169 491 1
169 542 1
169 560 1
169 605 1
169 656 1
169 674 1
170 264 1
170 315 1
170 333 1
170 492 1
170 543 1
170 561 1
170 606 1
170 657 1
170 675 1
171 265 1
171 316 1
171 334 1
171 493 1
171 544 1
171 562 1
171 607 1
171 658 1
171 676 1
172 1 1
172 20 1
172 58 1
172 229 1
172 248 1
172 286 1
172 467 1
172 486 1
172 524 1
173 2 1
173 21 1
173 59 1
173 230 1
173 249 1
173 287 1
173 468 1
173 487 1
173 525 1
174 3 1
174 22 1
174 60 1
174 231 1
174 250 1
174 288 1
174 469 1
174 488 1
174 526 1
175 4 1
175 23 1
175 61 1
175 232 1
175 251 1
175 289 1
175 470 1
175 489 1
175 527 1
176 5 1
176 24 1
176 62 1
176 233 1
176 252 1
176 290 1
176 471 1
176 490 1
176 528 1
177 6 1
177 25 1
177 63 1
177 234 1
177 253 1
177 291 1
177 472 1
177 491 1
177 529 1
178 7 1
178 26 1
178 64 1
178 235 1
178 254 1
178 292 1
178 473 1
178 492 1
178 530 1
179 8 1
179 27 1
179 65 1
179 236 1
179 255 1
179 293 1
179 474 1
179 493 1
179 531 1
180 9 1
180 28 1
180 66 1
180 237 1
180 256 1
180 294 1
180 475 1
180 494 1
180 532 1
181 10 1
181 29 1
181 67 1
181 238 1
181 257 1
181 295 1
181 457 1
181 476 1
181 514 1
182 11 1
182 30 1
182 68 1
182 239 1
182 258 1
182 296 1
182 458 1
182 477 1
182 515 1
183 12 1
183 31 1
183 69 1
183 240 1
183 259 1
183 297 1
183 459 1
183 478 1
183 516 1
184 13 1
184 32 1
184 70 1
184 241 1
184 260 1
184 298 1
184 460 1
184 479 1
184 517 1
185 14 1
185 33 1
185 71 1
185 242 1
185 261 1
185 299 1
185 461 1
185 480 1
185 518 1
186 15 1
186 34 1
186 72 1
186 243 1
186 262 1
186 300 1
186 462 1
186 481 1
186 519 1
187 16 1
187 35 1
187 73 1
187 244 1
187 263 1
187 301 1
187 463 1
187 482 1
187 520 1
188 17 1
188 36 1
188 74 1
188 245 1
188 264 1
188 302 1
188 464 1
188 483 1
188 521 1
189 18 1
189 37 1
189 75 1
189 246 1
189 265 1
189 303 1
189 465 1
189 484 1
189 522 1
190 19 1
190 38 1
190 76 1
190 247 1
190 266 1
190 304 1
190 466 1
190 485 1
190 523 1
191 1 1
191 39 1
191 77 1
191 229 1
191 267 1
191 305 1
191 467 1
191 505 1
191 543 1
192 2 1
192 40 1
192 78 1
192 230 1
192 268 1
192 306 1
192 468 1
192 506 1
192 544 1
193 3 1
193 41 1
193 79 1
193 231 1
193 269 1
193 307 1
193 469 1
193 507 1
193 545 1
194 4 1
194 42 1
194 80 1
194 232 1
194 270 1
194 308 1
194 470 1
194 508 1
194 546 1
195 5 1
195 43 1
195 81 1
195 233 1
195 271 1
195 309 1
195 471 1
195 509 1
195 547 1
196 6 1
196 44 1
196 82 1
196 234 1
196 272 1
196 310 1
196 472 1
196 510 1
196 548 1
197 7 1
197 45 1
197 83 1
197 235 1
197 273 1
197 311 1
197 473 1
197 511 1
197 549 1
198 8 1
198 46 1
198 84 1
198 236 1
198 274 1
198 312 1
198 474 1
198 512 1
198 550 1
199 9 1
199 47 1
199 85 1
199 237 1
199 275 1
199 313 1
199 475 1
199 513 1
199 551 1
200 10 1
200 48 1
200 86 1
200 238 1
200 276 1
200 314 1
200 457 1
200 495 1
200 533 1
201 11 1
201 49 1
201 87 1
201 239 1
201 277 1
201 315 1
201 458 1
201 496 1
201 534 1
202 12 1
202 50 1
202 88 1
202 240 1
202 278 1
202 316 1
202 459 1
202 497 1
202 535 1
203 13 1
203 51 1
203 89 1
203 241 1
203 279 1
203 317 1
203 460 1
203 498 1
203 536 1
204 14 1
204 52 1
204 90 1
204 242 1
204 280 1
204 318 1
204 461 1
204 499 1
204 537 1
205 15 1
205 53 1
205 91 1
205 243 1
205 281 1
205 319 1
205 462 1
205 500 1
205 538 1
206 16 1
206 54 1
206 92 1
206 244 1
206 282 1
206 320 1
206 463 1
206 501 1
206 539 1
207 17 1
207 55 1
207 93 1
207 245 1
207 283 1
207 321 1
207 464 1
207 502 1
207 540 1
208 18 1
208 56 1
208 94 1
208 246 1
208 284 1
208 322 1
208 465 1
208 503 1
208 541 1
209 19 1
209 57 1
209 95 1
209 247 1
209 285 1
209 323 1
209 466 1
209 504 1
209 542 1
210 20 1
210 39 1
210 96 1
210 248 1
210 267 1
210 324 1
210 486 1
210 505 1
210 562 1
211 21 1
211 40 1
211 97 1
211 249 1
211 268 1
211 325 1
211 487 1
211 506 1
211 563 1
212 22 1
212 41 1
212 98 1
212 250 1
212 269 1
212 326 1
212 488 1
212 507 1
212 564 1
213 23 1
213 42 1
213 99 1
213 251 1
213 270 1
213 327 1
213 489 1
213 508 1
213 565 1
214 24 1
214 43 1
214 100 1
214 252 1
214 271 1
214 328 1
214 490 1
214 509 1
214 566 1
215 25 1
215 44 1
215 101 1
215 253 1
215 272 1
215 329 1
215 491 1
215 510 1
215 567 1
216 26 1
216 45 1
216 102 1
216 254 1
216 273 1
216 330 1
216 492 1
216 511 1
216 568 1
217 27 1
217 46 1
217 103 1
217 255 1
217 274 1
217 331 1
217 493 1
217 512 1
217 569 1
218 28 1
218 47 1
218 104 1
218 256 1
218 275 1
218 332 1
218 494 1
218 513 1
218 570 1
219 29 1
219 48 1
219 105 1
219 257 1
219 276 1
219 333 1
219 476 1
219 495 1
219 552 1
220 30 1
220 49 1
220 106 1
220 258 1
220 277 1
220 334 1
220 477 1
220 496 1
220 553 1
221 31 1
221 50 1
221 107 1
221 259 1
221 278 1
221 335 1
221 478 1
221 497 1
221 554 1
222 32 1
222 51 1
222 108 1
222 260 1
222 279 1
222 336 1
222 479 1
222 498 1
222 555 1
223 33 1
223 52 1
223 109 1
223 261 1
223 280 1
223 337 1
223 480 1
223 499 1
223 556 1
224 34 1
224 53 1
224 110 1
224 262 1
224 281 1
224 338 1
224 481 1
224 500 1
224 557 1
225 35 1
225 54 1
225 111 1
225 263 1
225 282 1
225 339 1
225 482 1
225 501 1
225 558 1
226 36 1
226 55 1
226 112 1
226 264 1
226 283 1
226 340 1
226 483 1
226 502 1
226 559 1
227 37 1
227 56 1
227 113 1
227 265 1
227 284 1
227 341 1
227 484 1
227 503 1
227 560 1
228 38 1
228 57 1
228 114 1
228 266 1
228 285 1
228 342 1
228 485 1
228 504 1
228 561 1
229 115 1
229 134 1
229 172 1
229 229 1
229 248 1
229 286 1
229 581 1
229 600 1
229 638 1
230 116 1
230 135 1
230 173 1
230 230 1
230 249 1
230 287 1
230 582 1
230 601 1
230 639 1
231 117 1
231 136 1
231 174 1
231 231 1
231 250 1
231 288 1
231 583 1
231 602 1
231 640 1
232 118 1
232 137 1
232 175 1
232 232 1
232 251 1
232 289 1
232 584 1
232 603 1
232 641 1
233 119 1
233 138 1
233 176 1
233 233 1
233 252 1
233 290 1
233 585 1
233 604 1
233 642 1
234 120 1
234 139 1
234 177 1
234 234 1
234 253 1
234 291 1
234 586 1
234 605 1
234 643 1
235 121 1
235 140 1
235 178 1
235 235 1
235 254 1
235 292 1
235 587 1
235 606 1
235 644 1
236 122 1
236 141 1
236 179 1
236 236 1
236 255 1
236 293 1
236 588 1
236 607 1
236 645 1
237 123 1
237 142 1
237 180 1
237 237 1
237 256 1
237 294 1
237 589 1
237 608 1
237 646 1
238 124 1
238 143 1
238 181 1
238 238 1
238 257 1
238 295 1
238 571 1
238 590 1
238 628 1
239 125 1
239 144 1
239 182 1
239 239 1
239 258 1
239 296 1
239 572 1
239 591 1
239 629 1
240 126 1
240 145 1
240 183 1
240 240 1
240 259 1
240 297 1
240 573 1
240 592 1
240 630 1
241 127 1
241 146 1
241 184 1
241 241 1
241 260 1
241 298 1
241 574 1
241 593 1
241 631 1
242 128 1
242 147 1
242 185 1
242 242 1
242 261 1
242 299 1
242 575 1
242 594 1
242 632 1
243 129 1
243 148 1
243 186 1
243 243 1
243 262 1
243 300 1
243 576 1
243 595 1
243 633 1
244 130 1
244 149 1
244 187 1
244 244 1
244 263 1
244 301 1
244 577 1
244 596 1
244 634 1
245 131 1
245 150 1
245 188 1
245 245 1
245 264 1
245 302 1
245 578 1
245 597 1
245 635 1
246 132 1
246 151 1
246 189 1
246 246 1
246 265 1
246 303 1
246 579 1
246 598 1
246 636 1
247 133 1
247 152 1
247 190 1
247 247 1
247 266 1
247 304 1
247 580 1
247 599 1
247 637 1
248 115 1
248 153 1
248 191 1
248 229 1
248 267 1
248 305 1
248 581 1
248 619 1
248 657 1
249 116 1
249 154 1
249 192 1
249 230 1
249 268 1
249 306 1
249 582 1
249 620 1
249 658 1
250 117 1
250 155 1
250 193 1
250 231 1
250 269 1
250 307 1
250 583 1
250 621 1
250 659 1
251 118 1
251 156 1
251 194 1
251 232 1
251 270 1
251 308 1
251 584 1
251 622 1
251 660 1
252 119 1
252 157 1
252 195 1
252 233 1
252 271 1
252 309 1
252 585 1
252 623 1
252 661 1
253 120 1
253 158 1
253 196 1
253 234 1
253 272 1
253 310 1
253 586 1
253 624 1
253 662 1
254 121 1
254 159 1
254 197 1
254 235 1
254 273 1
254 311 1
254 587 1
254 625 1
254 663 1
255 122 1
255 160 1
255 198 1
255 236 1
255 274 1
255 312 1
255 588 1
255 626 1
255 664 1
256 123 1
256 161 1
256 199 1
256 237 1
256 275 1
256 313 1
256 589 1
256 627 1
256 665 1
257 124 1
257 162 1
257 200 1
257 238 1
257 276 1
257 314 1
257 571 1
257 609 1
257 647 1
258 125 1
258 163 1
258 201 1
258 239 1
258 277 1
258 315 1
258 572 1
258 610 1
258 648 1
259 126 1
259 164 1
259 202 1
259 240 1
259 278 1
259 316 1
259 573 1
259 611 1
259 649 1
260 127 1
260 165 1
260 203 1
260 241 1
260 279 1
260 317 1
260 574 1
260 612 1
260 650 1
261 128 1
261 166 1
261 204 1
261 242 1
261 280 1
261 318 1
261 575 1
261 613 1
261 651 1
262 129 1
262 167 1
262 205 1
262 243 1
262 281 1
262 319 1
262 576 1
262 614 1
262 652 1
263 130 1
263 168 1
263 206 1
263 244 1
263 282 1
263 320 1
263 577 1
263 615 1
263 653 1
264 131 1
264 169 1
264 207 1
264 245 1
264 283 1
264 321 1
264 578 1
264 616 1
264 654 1
265 132 1
265 170 1
265 208 1
265 246 1
265 284 1
265 322 1
265 579 1
265 617 1
265 655 1
266 133 1
266 171 1
266 209 1
266 247 1
266 285 1
266 323 1
266 580 1
266 618 1
266 656 1
267 134 1
267 153 1
267 210 1
267 248 1
267 267 1
267 324 1
267 600 1
267 619 1
267 676 1
268 135 1
268 154 1
268 211 1
268 249 1
268 268 1
268 325 1
268 601 1
268 620 1
268 677 1
269 136 1
269 155 1
269 212 1
269 250 1
269 269 1
269 326 1
269 602 1
269 621 1
269 678 1
270 137 1
270 156 1
270 213 1
270 251 1
270 270 1
270 327 1
270 603 1
270 622 1
270 679 1
271 138 1
271 157 1
271 214 1
271 252 1
271 271 1
271 328 1
271 604 1
271 623 1
271 680 1
272 139 1
272 158 1
272 215 1
272 253 1
272 272 1
272 329 1
272 605 1
272 624 1
272 681 1
273 140 1
273 159 1
273 216 1
273 254 1
273 273 1
273 330 1
273 606 1
273 625 1
273 682 1
274 141 1
274 160 1
274 217 1
274 255 1
274 274 1
274 331 1
274 607 1
274 626 1
274 683 1
275 142 1
275 161 1
275 218 1
275 256 1
275 275 1
275 332 1
275 608 1
275 627 1
275 684 1
276 143 1
276 162 1
276 219 1
276 257 1
276 276 1
276 333 1
276 590 1
276 609 1
276 666 1
277 144 1
277 163 1
277 220 1
277 258 1
277 277 1
277 334 1
277 591 1
277 610 1
277 667 1
278 145 1
278 164 1
278 221 1
278 259 1
278 278 1
278 335 1
278 592 1
278 611 1
278 668 1
279 146 1
279 165 1
279 222 1
279 260 1
279 279 1
279 336 1
279 593 1
279 612 1
279 669 1
280 147 1
280 166 1
280 223 1
280 261 1
280 280 1
280 337 1
280 594 1
280 613 1
280 670 1
281 148 1
281 167 1
281 224 1
281 262 1
281 281 1
281 338 1
281 595 1
281 614 1
281 671 1
282 149 1
282 168 1
282 225 1
282 263 1
282 282 1
282 339 1
282 596 1
282 615 1
282 672 1
283 150 1
283 169 1
283 226 1
283 264 1
283 283 1
283 340 1
283 597 1
283 616 1
283 673 1
284 151 1
284 170 1
284 227 1
284 265 1
284 284 1
284 341 1
284 598 1
284 617 1
284 674 1
285 152 1
285 171 1
285 228 1
285 266 1
285 285 1
285 342 1
285 599 1
285 618 1
285 675 1
286 343 1
286 362 1
286 400 1
286 467 1
286 486 1
286 524 1
286 581 1
286 600 1
286 638 1
287 344 1
287 363 1
287 401 1
287 468 1
287 487 1
287 525 1
287 582 1
287 601 1
287 639 1
288 345 1
288 364 1
288 402 1
288 469 1
288 488 1
288 526 1
288 583 1
288 602 1
288 640 1
289 346 1
289 365 1
289 403 1
289 470 1
289 489 1
289 527 1
289 584 1
289 603 1
289 641 1
290 347 1
290 366 1
290 404 1
290 471 1
290 490 1
290 528 1
290 585 1
290 604 1
290 642 1
291 348 1
291 367 1
291 405 1
291 472 1
291 491 1
291 529 1
291 586 1
291 605 1
291 643 1
292 349 1
292 368 1
292 406 1
292 473 1
292 492 1
292 530 1
292 587 1
292 606 1
292 644 1
293 350 1
293 369 1
293 407 1
293 474 1
293 493 1
293 531 1
293 588 1
293 607 1
293 645 1
294 351 1
294 370 1
294 408 1
294 475 1
294 494 1
294 532 1
294 589 1
294 608 1
294 646 1
295 352 1
295 371 1
295 409 1
295 457 1
295 476 1
295 514 1
295 571 1
295 590 1
295 628 1
296 353 1
296 372 1
296 410 1
296 458 1
296 477 1
296 515 1
296 572 1
296 591 1
296 629 1
297 354 1
297 373 1
297 411 1
297 459 1
297 478 1
297 516 1
297 573 1
297 592 1
297 630 1
298 355 1
298 374 1
298 412 1
298 460 1
298 479 1
298 517 1
298 574 1
298 593 1
298 631 1
299 356 1
299 375 1
299 413 1
299 461 1
299 480 1
299 518 1
299 575 1
299 594 1
299 632 1
300 357 1
300 376 1
300 414 1
300 462 1
300 481 1
300 519 1
300 576 1
300 595 1
300 633 1
301 358 1
301 377 1
301 415 1
301 463 1
301 482 1
301 520 1
301 577 1
301 596 1
301 634 1
302 359 1
302 378 1
302 416 1
302 464 1
302 483 1
302 521 1
302 578 1
302 597 1
302 635 1
303 360 1
303 379 1
303 417 1
303 465 1
303 484 1
303 522 1
303 579 1
303 598 1
303 636 1
304 361 1
304 380 1
304 418 1
304 466 1
304 485 1
304 523 1
304 580 1
304 599 1
304 637 1
305 343 1
305 381 1
305 419 1
305 467 1
305 505 1
305 543 1
305 581 1
305 619 1
305 657 1
306 344 1
306 382 1
306 420 1
306 468 1
306 506 1
306 544 1
306 582 1
306 620 1
306 658 1
307 345 1
307 383 1
307 421 1
307 469 1
307 507 1
307 545 1
307 583 1
307 621 1
307 659 1
308 346 1
308 384 1
308 422 1
308 470 1
308 508 1
308 546 1
308 584 1
308 622 1
308 660 1
309 347 1
309 385 1
309 423 1
309 471 1
309 509 1
309 547 1
309 585 1
309 623 1
309 661 1
310 348 1
310 386 1
310 424 1
310 472 1
310 510 1
310 548 1
310 586 1
310 624 1
310 662 1
311 349 1
311 387 1
311 425 1
311 473 1
311 511 1
311 549 1
311 587 1
311 625 1
311 663 1
312 350 1
312 388 1
312 426 1
312 474 1
312 512 1
312 550 1
312 588 1
312 626 1
312 664 1
313 351 1
313 389 1
313 427 1
313 475 1
313 513 1
313 551 1
313 589 1
313 627 1
313 665 1
314 352 1
314 390 1
314 428 1
314 457 1
314 495 1
314 533 1
314 571 1
314 609 1
314 647 1
315 353 1
315 391 1
315 429 1
315 458 1
315 496 1
315 534 1
315 572 1
315 610 1
315 648 1
316 354 1
316 392 1
316 430 1
316 459 1
316 497 1
316 535 1
316 573 1
316 611 1
316 649 1
317 355 1
317 393 1
317 431 1
317 460 1
317 498 1
317 536 1
317 574 1
317 612 1
317 650 1
318 356 1
318 394 1
318 432 1
318 461 1
318 499 1
318 537 1
318 575 1
318 613 1
318 651 1
319 357 1
319 395 1
319 433 1
319 462 1
319 500 1
319 538 1
319 576 1
319 614 1
319 652 1
320 358 1
320 396 1
320 434 1
320 463 1
320 501 1
320 539 1
320 577 1
320 615 1
320 653 1
321 359 1
321 397 1
321 435 1
321 464 1
321 502 1
321 540 1
321 578 1
321 616 1
321 654 1
322 360 1
322 398 1
322 436 1
322 465 1
322 503 1
322 541 1
322 579 1
322 617 1
322 655 1
323 361 1
323 399 1
323 437 1
323 466 1
323 504 1
323 542 1
323 580 1
323 618 1
323 656 1
324 362 1
324 381 1
324 438 1
324 486 1
324 505 1
324 562 1
324 600 1
324 619 1
324 676 1
325 363 1
325 382 1
325 439 1
325 487 1
325 506 1
325 563 1
325 601 1
325 620 1
325 677 1
326 364 1
326 383 1
326 440 1
326 488 1
326 507 1
326 564 1
326 602 1
326 621 1
326 678 1
327 365 1
327 384 1
327 441 1
327 489 1
327 508 1
327 565 1
327 603 1
327 622 1
327 679 1
328 366 1
328 385 1
328 442 1
328 490 1
328 509 1
328 566 1
328 604 1
328 623 1
328 680 1
329 367 1
329 386 1
329 443 1
329 491 1
329 510 1
329 567 1
329 605 1
329 624 1
329 681 1
330 368 1
330 387 1
330 444 1
330 492 1
330 511 1
330 568 1
330 606 1
330 625 1
330 682 1
331 369 1
331 388 1
331 445 1
331 493 1
331 512 1
331 569 1
331 607 1
331 626 1
331 683 1
332 370 1
332 389 1
332 446 1
332 494 1
332 513 1
332 570 1
332 608 1
332 627 1
332 684 1
333 371 1
333 390 1
333 447 1
333 476 1
333 495 1
333 552 1
333 590 1
333 609 1
333 666 1
334 372 1
334 391 1
334 448 1
334 477 1
334 496 1
334 553 1
334 591 1
334 610 1
334 667 1
335 373 1
335 392 1
335 449 1
335 478 1
335 497 1
335 554 1
335 592 1
335 611 1
335 668 1
336 374 1
336 393 1
336 450 1
336 479 1
336 498 1
336 555 1
336 593 1
336 612 1
336 669 1
337 375 1
337 394 1
337 451 1
337 480 1
337 499 1
337 556 1
337 594 1
337 613 1
337 670 1
338 376 1
338 395 1
338 452 1
338 481 1
338 500 1
338 557 1
338 595 1
338 614 1
338 671 1
339 377 1
339 396 1
339 453 1
339 482 1
339 501 1
339 558 1
339 596 1
339 615 1
339 672 1
340 378 1
340 397 1
340 454 1
340 483 1
340 502 1
340 559 1
340 597 1
340 616 1
340 673 1
341 379 1
341 398 1
341 455 1
341 484 1
341 503 1
341 560 1
341 598 1
341 617 1
341 674 1
342 380 1
342 399 1
342 456 1
342 485 1
342 504 1
342 561 1
342 599 1
342 618 1
342 675 1
