%%MatrixMarket matrix coordinate integer general
288 576 2592
1 1 1
1 49 1
1 65 1
1 97 1
1 145 1
1 161 1
1 289 1
1 337 1
1 353 1
2 2 1
2 50 1
2 66 1
2 98 1
2 146 1
2 162 1
2 290 1
2 338 1
2 354 1
3 3 1
3 51 1
3 67 1
3 99 1
3 147 1
3 163 1
3 291 1
3 339 1
3 355 1
4 4 1
4 52 1
4 68 1
4 100 1
4 148 1
4 164 1
4 292 1
4 340 1
4 356 1
5 5 1
5 53 1
5 69 1
5 101 1
5 149 1
5 165 1
5 293 1
5 341 1
5 357 1
6 6 1
6 54 1
6 70 1
6 102 1
6 150 1
6 166 1
6 294 1
6 342 1
6 358 1
7 7 1
7 55 1
7 71 1
7 103 1
7 151 1
7 167 1
7 295 1
7 343 1
7 359 1
8 8 1
8 56 1
8 72 1
8 104 1
8 152 1
8 168 1
8 296 1
8 344 1
8 360 1
9 9 1
9 57 1
9 73 1
9 105 1
9 153 1
9 169 1
9 297 1
9 345 1
9 361 1
10 10 1
10 58 1
10 74 1
10 106 1
10 154 1
10 170 1
10 298 1
10 346 1
10 362 1
11 11 1
11 59 1
11 75 1
11 107 1
11 155 1
11 171 1
11 299 1
11 347 1
11 363 1
12 12 1
12 60 1
12 76 1
12 108 1
12 156 1
12 172 1
12 300 1
12 348 1
12 364 1
13 13 1
13 61 1
13 77 1
13 109 1
13 157 1
13 173 1
13 301 1
13 349 1
13 365 1
14 14 1
14 62 1
14 78 1
14 110 1
14 158 1
14 174 1
14 302 1
14 350 1
14 366 1
15 15 1
15 63 1
15 79 1
15 111 1
15 159 1
15 175 1
15 303 1
15 351 1
15 367 1
16 16 1
16 64 1
16 80 1
16 112 1
16 160 1
16 176 1
16 304 1
16 352 1
16 368 1
17 17 1
17 49 1
17 81 1
17 113 1
17 145 1
17 177 1
17 305 1
17 337 1
17 369 1
18 18 1
18 50 1
18 82 1
18 114 1
18 146 1
18 178 1
18 306 1
18 338 1
18 370 1
19 19 1
19 51 1
19 83 1
19 115 1
19 147 1
19 179 1
19 307 1
19 339 1
19 371 1
20 20 1
20 52 1
20 84 1
20 116 1
20 148 1
20 180 1
20 308 1
20 340 1
20 372 1
21 21 1
21 53 1
21 85 1
21 117 1
21 149 1
21 181 1
21 309 1
21 341 1
21 373 1
22 22 1
22 54 1
22 86 1
22 118 1
22 150 1
22 182 1
22 310 1
22 342 1
22 374 1
23 23 1
23 55 1
23 87 1
23 119 1
23 151 1
23 183 1
23 311 1
23 343 1
23 375 1
24 24 1
24 56 1
24 88 1
24 120 1
24 152 1
24 184 1
24 312 1
24 344 1
24 376 1
25 25 1
25 57 1
25 89 1
25 121 1
25 153 1
25 185 1
25 313 1
25 345 1
25 377 1
26 26 1
26 58 1
26 90 1
26 122 1
26 154 1
26 186 1
26 314 1
26 346 1
26 378 1
27 27 1
27 59 1
27 91 1
27 123 1
27 155 1
27 187 1
27 315 1
27 347 1
27 379 1
28 28 1
28 60 1
28 92 1
28 124 1
28 156 1
28 188 1
28 316 1
28 348 1
28 380 1
29 29 1
29 61 1
29 93 1
29 125 1
29 157 1
29 189 1
29 317 1
29 349 1
29 381 1
30 30 1
30 62 1
30 94 1
30 126 1
30 158 1
30 190 1
30 318 1
30 350 1
30 382 1
31 31 1
31 63 1
31 95 1
31 127 1
31 159 1
31 191 1
31 319 1
31 351 1
31 383 1
32 32 1
32 64 1
32 96 1
32 128 1
32 160 1
32 192 1
32 320 1
32 352 1
32 384 1
33 33 1
33 65 1
33 81 1
33 129 1
33 161 1
33 177 1
33 321 1
33 353 1
33 369 1
34 34 1
34 66 1
34 82 1
34 130 1
34 162 1
34 178 1
34 322 1
34 354 1
34 370 1
35 35 1
35 67 1
35 83 1
35 131 1
35 163 1
35 179 1
35 323 1
35 355 1
35 371 1
36 36 1
36 68 1
36 84 1
36 132 1
36 164 1
36 180 1
36 324 1
36 356 1
36 372 1
37 37 1
37 69 1
37 85 1
37 133 1
37 165 1
37 181 1
37 325 1
37 357 1
37 373 1
38 38 1
38 70 1
38 86 1
38 134 1
38 166 1
38 182 1
38 326 1
38 358 1
38 374 1
39 39 1
39 71 1
39 87 1
39 135 1
39 167 1
39 183 1
39 327 1
39 359 1
39 375 1
40 40 1
40 72 1
40 88 1
40 136 1
40 168 1
40 184 1
40 328 1
40 360 1
40 376 1
41 41 1
41 73 1
41 89 1
41 137 1
41 169 1
41 185 1
41 329 1
41 361 1
41 377 1
42 42 1
42 74 1
42 90 1
42 138 1
42 170 1
42 186 1
42 330 1
42 362 1
42 378 1
43 43 1
43 75 1
43 91 1
43 139 1
43 171 1
43 187 1
43 331 1
43 363 1
43 379 1
44 44 1
44 76 1
44 92 1
44 140 1
44 172 1
44 188 1
44 332 1
44 364 1
44 380 1
45 45 1
45 77 1
45 93 1
45 141 1
45 173 1
45 189 1
45 333 1
45 365 1
45 381 1
46 46 1
46 78 1
46 94 1
46 142 1
46 174 1
46 190 1
46 334 1
46 366 1
46 382 1
47 47 1
47 79 1
47 95 1
47 143 1
47 175 1
47 191 1
47 335 1
47 367 1
47 383 1
48 48 1
48 80 1
48 96 1
48 144 1
48 176 1
48 192 1
48 336 1
48 368 1
48 384 1
49 1 1
49 49 1
49 65 1
49 193 1
49 241 1
49 257 1
49 385 1
49 433 1
49 449 1
50 2 1
50 50 1
50 66 1
50 194 1
50 242 1
50 258 1
50 386 1
50 434 1
50 450 1
51 3 1
51 51 1
51 67 1
51 195 1
51 243 1
51 259 1
51 387 1
51 435 1
51 451 1
52 4 1
52 52 1
52 68 1
52 196 1
52 244 1
52 260 1
52 388 1
52 436 1
52 452 1
53 5 1
53 53 1
53 69 1
53 197 1
53 245 1
53 261 1
53 389 1
53 437 1
53 453 1
54 6 1
54 54 1
54 70 1
54 198 1
54 246 1
54 262 1
54 390 1
54 438 1
54 454 1
55 7 1
55 55 1
55 71 1
55 199 1
55 247 1
55 263 1
55 391 1
55 439 1
55 455 1
56 8 1
56 56 1
56 72 1
56 200 1
56 248 1
56 264 1
56 392 1
56 440 1
56 456 1
57 9 1
57 57 1
57 73 1
57 201 1
57 249 1
57 265 1
57 393 1
57 441 1
57 457 1
58 10 1
58 58 1
58 74 1
58 202 1
58 250 1
58 266 1
58 394 1
58 442 1
58 458 1
59 11 1
59 59 1
59 75 1
59 203 1
59 251 1
59 267 1
59 395 1
59 443 1
59 459 1
60 12 1
60 60 1
60 76 1
60 204 1
60 252 1
60 268 1
60 396 1
60 444 1
60 460 1
61 13 1
61 61 1
61 77 1
61 205 1
61 253 1
61 269 1
61 397 1
61 445 1
61 461 1
62 14 1
62 62 1
62 78 1
62 206 1
62 254 1
62 270 1
62 398 1
62 446 1
62 462 1
63 15 1
63 63 1
63 79 1
63 207 1
63 255 1
63 271 1
63 399 1
63 447 1
63 463 1
64 16 1
64 64 1
64 80 1
64 208 1
64 256 1
64 272 1
64 400 1
64 448 1
64 464 1
65 17 1
65 49 1
65 81 1
65 209 1
65 241 1
65 273 1
65 401 1
65 433 1
65 465 1
66 18 1
66 50 1
66 82 1
66 210 1
66 242 1
66 274 1
66 402 1
66 434 1
66 466 1
67 19 1
67 51 1
67 83 1
67 211 1
67 243 1
67 275 1
67 403 1
67 435 1
67 467 1
68 20 1
68 52 1
68 84 1
68 212 1
68 244 1
68 276 1
68 404 1
68 436 1
68 468 1
69 21 1
69 53 1
69 85 1
69 213 1
69 245 1
69 277 1
69 405 1
69 437 1
69 469 1
70 22 1
70 54 1
70 86 1
70 214 1
70 246 1
70 278 1
70 406 1
70 438 1
70 470 1
71 23 1
71 55 1
71 87 1
71 215 1
71 247 1
71 279 1
71 407 1
71 439 1
71 471 1
72 24 1
72 56 1
72 88 1
72 216 1
72 248 1
72 280 1
72 408 1
72 440 1
72 472 1
73 25 1
73 57 1
73 89 1
73 217 1
73 249 1
73 281 1
73 409 1
73 441 1
73 473 1
74 26 1
74 58 1
74 90 1
74 218 1
74 250 1
74 282 1
74 410 1
74 442 1
74 474 1
75 27 1
75 59 1
75 91 1
75 219 1
75 251 1
75 283 1
75 411 1
75 443 1
75 475 1
76 28 1
76 60 1
76 92 1
76 220 1
76 252 1
76 284 1
76 412 1
76 444 1
76 476 1
77 29 1
77 61 1
77 93 1
77 221 1
77 253 1
77 285 1
77 413 1
77 445 1
77 477 1
78 30 1
78 62 1
78 94 1
78 222 1
78 254 1
78 286 1
78 414 1
78 446 1
78 478 1
79 31 1
79 63 1
79 95 1
79 223 1
79 255 1
79 287 1
79 415 1
79 447 1
79 479 1
80 32 1
80 64 1
80 96 1
80 224 1
80 256 1
80 288 1
80 416 1
80 448 1
80 480 1
81 33 1
81 65 1
81 81 1
81 225 1
81 257 1
81 273 1
81 417 1
81 449 1
81 465 1
82 34 1
82 66 1
82 82 1
82 226 1
82 258 1
82 274 1
82 418 1
82 450 1
82 466 1
83 35 1
83 67 1
83 83 1
83 227 1
83 259 1
83 275 1
83 419 1
83 451 1
83 467 1
84 36 1
84 68 1
84 84 1
84 228 1
84 260 1
84 276 1
84 420 1
84 452 1
84 468 1
85 37 1
85 69 1
85 85 1
85 229 1
85 261 1
85 277 1
85 421 1
85 453 1
85 469 1
86 38 1
86 70 1
86 86 1
86 230 1
86 262 1
86 278 1
86 422 1
86 454 1
86 470 1
87 39 1
87 71 1
87 87 1
87 231 1
87 263 1
87 279 1
87 423 1
87 455 1
87 471 1
88 40 1
88 72 1
88 88 1
88 232 1
88 264 1
88 280 1
88 424 1
88 456 1
88 472 1
89 41 1
89 73 1
89 89 1
89 233 1
89 265 1
89 281 1
89 425 1
89 457 1
89 473 1
90 42 1
90 74 1
90 90 1
90 234 1
90 266 1
90 282 1
90 426 1
90 458 1
90 474 1
91 43 1
91 75 1
91 91 1
91 235 1
91 267 1
91 283 1
91 427 1
91 459 1
91 475 1
92 44 1
92 76 1
92 92 1
92 236 1
92 268 1
92 284 1
92 428 1
92 460 1
92 476 1
93 45 1
93 77 1
93 93 1
93 237 1
93 269 1
93 285 1
93 429 1
93 461 1
93 477 1
94 46 1
94 78 1
94 94 1
94 238 1
94 270 1
94 286 1
94 430 1
94 462 1
94 478 1
95 47 1
95 79 1
95 95 1
95 239 1
95 271 1
95 287 1
95 431 1
95 463 1
95 479 1
96 48 1
96 80 1
96 96 1
96 240 1
96 272 1
96 288 1
96 432 1
96 464 1
96 480 1
97 97 1
97 145 1
97 161 1
97 193 1
97 241 1
97 257 1
97 481 1
97 529 1
97 545 1
98 98 1
98 146 1
98 162 1
98 194 1
98 242 1
98 258 1
98 482 1
98 530 1
98 546 1
99 99 1
99 147 1
99 163 1
99 195 1
99 243 1
99 259 1
99 483 1
99 531 1
99 547 1
100 100 1
100 148 1
100 164 1
100 196 1
100 244 1
100 260 1
100 484 1
100 532 1
100 548 1
101 101 1
101 149 1
101 165 1
101 197 1
101 245 1
101 261 1
101 485 1
101 533 1
101 549 1
102 102 1
102 150 1
102 166 1
102 198 1
102 246 1
102 262 1
102 486 1
102 534 1
102 550 1
103 103 1
103 151 1
103 167 1
103 199 1
103 247 1
103 263 1
103 487 1
103 535 1
103 551 1
104 104 1
104 152 1
104 168 1
104 200 1
104 248 1
104 264 1
104 488 1
104 536 1
104 552 1
105 105 1
105 153 1
105 169 1
105 201 1
105 249 1
105 265 1
105 489 1
105 537 1
105 553 1
106 106 1
106 154 1
106 170 1
106 202 1
106 250 1
106 266 1
106 490 1
106 538 1
106 554 1
107 107 1
107 155 1
107 171 1
107 203 1
107 251 1
107 267 1
107 491 1
107 539 1
107 555 1
108 108 1
108 156 1
108 172 1
108 204 1
108 252 1
108 268 1
108 492 1
108 540 1
108 556 1
109 109 1
109 157 1
109 173 1
109 205 1
109 253 1
109 269 1
109 493 1
109 541 1
109 557 1
110 110 1
110 158 1
110 174 1
110 206 1
110 254 1
110 270 1
110 494 1
110 542 1
110 558 1
111 111 1
111 159 1
111 175 1
111 207 1
111 255 1
111 271 1
111 495 1
111 543 1
111 559 1
112 112 1
112 160 1
112 176 1
112 208 1
112 256 1
112 272 1
112 496 1
112 544 1
112 560 1
113 113 1
113 145 1
113 177 1
113 209 1
113 241 1
113 273 1
113 497 1
113 529 1
113 561 1
114 114 1
114 146 1
114 178 1
114 210 1
114 242 1
114 274 1
114 498 1
114 530 1
114 562 1
115 115 1
115 147 1
115 179 1
115 211 1
115 243 1
115 275 1
115 499 1
115 531 1
115 563 1
116 116 1
116 148 1
116 180 1
116 212 1
116 244 1
116 276 1
116 500 1
116 532 1
116 564 1
117 117 1
117 149 1
117 181 1
117 213 1
117 245 1
117 277 1
117 501 1
117 533 1
117 565 1
118 118 1
118 150 1
118 182 1
118 214 1
118 246 1
118 278 1
118 502 1
118 534 1
118 566 1
119 119 1
119 151 1
119 183 1
119 215 1
119 247 1
119 279 1
119 503 1
119 535 1
119 567 1
120 120 1
120 152 1
120 184 1
120 216 1
120 248 1
120 280 1
120 504 1
120 536 1
120 568 1
121 121 1
121 153 1
121 185 1
121 217 1
121 249 1
121 281 1
121 505 1
121 537 1
121 569 1
122 122 1
122 154 1
122 186 1
122 218 1
122 250 1
122 282 1
122 506 1
122 538 1
122 570 1
123 123 1
123 155 1
123 187 1
123 219 1
123 251 1
123 283 1
123 507 1
123 539 1
123 571 1
124 124 1
124 156 1
124 188 1
124 220 1
124 252 1
124 284 1
124 508 1
124 540 1
124 572 1
125 125 1
125 157 1
125 189 1
125 221 1
125 253 1
125 285 1
125 509 1
125 541 1
125 573 1
126 126 1
126 158 1
126 190 1
126 222 1
126 254 1
126 286 1
126 510 1
126 542 1
126 574 1
127 127 1
127 159 1
127 191 1
127 223 1
127 255 1
127 287 1
127 511 1
127 543 1
127 575 1
128 128 1
128 160 1
128 192 1
128 224 1
128 256 1
128 288 1
128 512 1
128 544 1
128 576 1
129 129 1
129 161 1
129 177 1
129 225 1
129 257 1
129 273 1
129 513 1
129 545 1
129 561 1
130 130 1
130 162 1
130 178 1
130 226 1
130 258 1
130 274 1
130 514 1
130 546 1
130 562 1
131 131 1
131 163 1
131 179 1
131 227 1
131 259 1
131 275 1
131 515 1
131 547 1
131 563 1
132 132 1
132 164 1
132 180 1
132 228 1
132 260 1
132 276 1
132 516 1
132 548 1
132 564 1
133 133 1
133 165 1
133 181 1
133 229 1
133 261 1
133 277 1
133 517 1
133 549 1
133 565 1
134 134 1
134 166 1
134 182 1
134 230 1
134 262 1
134 278 1
134 518 1
134 550 1
134 566 1
135 135 1
135 167 1
135 183 1
135 231 1
135 263 1
135 279 1
135 519 1
135 551 1
135 567 1
136 136 1
136 168 1
136 184 1
136 232 1
136 264 1
136 280 1
136 520 1
136 552 1
136 568 1
137 137 1
137 169 1
137 185 1
137 233 1
137 265 1
137 281 1
137 521 1
137 553 1
137 569 1
138 138 1
138 170 1
138 186 1
138 234 1
138 266 1
138 282 1
138 522 1
138 554 1
138 570 1
139 139 1
139 171 1
139 187 1
139 235 1
139 267 1
139 283 1
139 523 1
139 555 1
139 571 1
140 140 1
140 172 1
140 188 1
140 236 1
140 268 1
140 284 1
140 524 1
140 556 1
140 572 1
141 141 1
141 173 1
141 189 1
141 237 1
141 269 1
141 285 1
141 525 1
141 557 1
141 573 1
142 142 1
142 174 1
142 190 1
142 238 1
142 270 1
142 286 1
142 526 1
142 558 1
142 574 1
143 143 1
143 175 1
143 191 1
143 239 1
143 271 1
143 287 1
143 527 1
143 559 1
143 575 1
144 144 1
144 176 1
144 192 1
144 240 1
144 272 1
144 288 1
144 528 1
144 560 1
144 576 1
145 1 1
145 72 1
145 86 1
145 102 1
145 175 1
145 187 1
145 199 1
145 261 1
145 275 1
146 2 1
146 75 1
146 89 1
146 105 1
146 176 1
146 190 1
146 193 1
146 264 1
146 278 1
147 3 1
147 77 1
147 88 1
147 104 1
147 164 1
147 191 1
147 204 1
147 266 1
147 277 1
148 4 1
148 78 1
148 92 1
148 108 1
148 170 1
148 181 1
148 194 1
148 267 1
148 281 1
149 5 1
149 66 1
149 93 1
149 109 1
149 169 1
149 180 1
149 206 1
149 257 1
149 282 1
150 6 1
150 79 1
150 91 1
150 107 1
150 167 1
150 192 1
150 195 1
150 269 1
150 280 1
151 7 1
151 69 1
151 83 1
151 99 1
151 173 1
151 184 1
151 196 1
151 270 1
151 284 1
152 8 1
152 68 1
152 95 1
152 111 1
152 172 1
152 183 1
152 197 1
152 258 1
152 285 1
153 9 1
153 80 1
153 94 1
153 110 1
153 161 1
153 186 1
153 198 1
153 271 1
153 283 1
154 10 1
154 70 1
154 82 1
154 98 1
154 171 1
154 185 1
154 208 1
154 259 1
154 273 1
155 11 1
155 71 1
155 96 1
155 112 1
155 163 1
155 177 1
155 200 1
155 260 1
155 287 1
156 12 1
156 74 1
156 85 1
156 101 1
156 162 1
156 189 1
156 201 1
156 272 1
156 286 1
157 13 1
157 73 1
157 84 1
157 100 1
157 174 1
157 188 1
157 202 1
157 262 1
157 274 1
158 14 1
158 65 1
158 90 1
158 106 1
158 166 1
158 178 1
158 203 1
158 263 1
158 288 1
159 15 1
159 76 1
159 87 1
159 103 1
159 165 1
159 179 1
159 205 1
159 265 1
159 276 1
160 16 1
160 67 1
160 81 1
160 97 1
160 168 1
160 182 1
160 207 1
160 268 1
160 279 1
161 23 1
161 42 1
161 86 1
161 115 1
161 130 1
161 187 1
161 212 1
161 240 1
161 275 1
162 17 1
162 45 1
162 89 1
162 118 1
162 132 1
162 190 1
162 215 1
162 234 1
162 278 1
163 28 1
163 33 1
163 88 1
163 117 1
163 134 1
163 191 1
163 217 1
163 231 1
163 277 1
164 18 1
164 47 1
164 92 1
164 121 1
164 135 1
164 181 1
164 209 1
164 237 1
164 281 1
165 30 1
165 35 1
165 93 1
165 122 1
165 136 1
165 180 1
165 219 1
165 236 1
165 282 1
166 19 1
166 34 1
166 91 1
166 120 1
166 137 1
166 192 1
166 220 1
166 225 1
166 280 1
167 20 1
167 48 1
167 83 1
167 124 1
167 129 1
167 184 1
167 210 1
167 239 1
167 284 1
168 21 1
168 38 1
168 95 1
168 125 1
168 139 1
168 183 1
168 222 1
168 227 1
168 285 1
169 22 1
169 36 1
169 94 1
169 123 1
169 140 1
169 186 1
169 211 1
169 226 1
169 283 1
170 32 1
170 37 1
170 82 1
170 113 1
170 141 1
170 185 1
170 223 1
170 238 1
170 273 1
171 24 1
171 41 1
171 96 1
171 127 1
171 142 1
171 177 1
171 213 1
171 230 1
171 287 1
172 25 1
172 39 1
172 85 1
172 126 1
172 131 1
172 189 1
172 214 1
172 228 1
172 286 1
173 26 1
173 40 1
173 84 1
173 114 1
173 143 1
173 188 1
173 224 1
173 229 1
173 274 1
174 27 1
174 44 1
174 90 1
174 128 1
174 133 1
174 178 1
174 216 1
174 233 1
174 288 1
175 29 1
175 43 1
175 87 1
175 116 1
175 144 1
175 179 1
175 218 1
175 232 1
175 276 1
176 31 1
176 46 1
176 81 1
176 119 1
176 138 1
176 182 1
176 221 1
176 235 1
176 279 1
177 42 1
177 50 1
177 72 1
177 130 1
177 153 1
177 175 1
177 240 1
177 241 1
177 261 1
178 45 1
178 52 1
178 75 1
178 132 1
178 156 1
178 176 1
178 234 1
178 242 1
178 264 1
179 33 1
179 54 1
179 77 1
179 134 1
179 155 1
179 164 1
179 231 1
179 243 1
179 266 1
180 47 1
180 55 1
180 78 1
180 135 1
180 147 1
180 170 1
180 237 1
180 244 1
180 267 1
181 35 1
181 56 1
181 66 1
181 136 1
181 159 1
181 169 1
181 236 1
181 245 1
181 257 1
182 34 1
182 57 1
182 79 1
182 137 1
182 158 1
182 167 1
182 225 1
182 246 1
182 269 1
183 48 1
183 49 1
183 69 1
183 129 1
183 150 1
183 173 1
183 239 1
183 247 1
183 270 1
184 38 1
184 59 1
184 68 1
184 139 1
184 160 1
184 172 1
184 227 1
184 248 1
184 258 1
185 36 1
185 60 1
185 80 1
185 140 1
185 149 1
185 161 1
185 226 1
185 249 1
185 271 1
186 37 1
186 61 1
186 70 1
186 141 1
186 148 1
186 171 1
186 238 1
186 250 1
186 259 1
187 41 1
187 62 1
187 71 1
187 142 1
187 154 1
187 163 1
187 230 1
187 251 1
187 260 1
188 39 1
188 51 1
188 74 1
188 131 1
188 152 1
188 162 1
188 228 1
188 252 1
188 272 1
189 40 1
189 63 1
189 73 1
189 143 1
189 151 1
189 174 1
189 229 1
189 253 1
189 262 1
190 44 1
190 53 1
190 65 1
190 133 1
190 157 1
190 166 1
190 233 1
190 254 1
190 263 1
191 43 1
191 64 1
191 76 1
191 144 1
191 145 1
191 165 1
191 232 1
191 255 1
191 265 1
192 46 1
192 58 1
192 67 1
192 138 1
192 146 1
192 168 1
192 235 1
192 256 1
192 268 1
193 1 1
193 72 1
193 86 1
193 296 1
193 356 1
193 383 1
193 393 1
193 464 1
193 478 1
194 2 1
194 75 1
194 89 1
194 299 1
194 359 1
194 384 1
194 396 1
194 458 1
194 469 1
195 3 1
195 77 1
195 88 1
195 301 1
195 361 1
195 372 1
195 395 1
195 455 1
195 480 1
196 4 1
196 78 1
196 92 1
196 302 1
196 353 1
196 378 1
196 387 1
196 461 1
196 472 1
197 5 1
197 66 1
197 93 1
197 290 1
197 363 1
197 377 1
197 399 1
197 460 1
197 471 1
198 6 1
198 79 1
198 91 1
198 303 1
198 364 1
198 375 1
198 398 1
198 449 1
198 474 1
199 7 1
199 69 1
199 83 1
199 293 1
199 354 1
199 381 1
199 390 1
199 463 1
199 475 1
200 8 1
200 68 1
200 95 1
200 292 1
200 366 1
200 380 1
200 400 1
200 451 1
200 465 1
201 9 1
201 80 1
201 94 1
201 304 1
201 355 1
201 369 1
201 389 1
201 450 1
201 477 1
202 10 1
202 70 1
202 82 1
202 294 1
202 367 1
202 379 1
202 388 1
202 462 1
202 476 1
203 11 1
203 71 1
203 96 1
203 295 1
203 357 1
203 371 1
203 394 1
203 454 1
203 466 1
204 12 1
204 74 1
204 85 1
204 298 1
204 358 1
204 370 1
204 392 1
204 452 1
204 479 1
205 13 1
205 73 1
205 84 1
205 297 1
205 368 1
205 382 1
205 391 1
205 453 1
205 467 1
206 14 1
206 65 1
206 90 1
206 289 1
206 360 1
206 374 1
206 397 1
206 457 1
206 468 1
207 15 1
207 76 1
207 87 1
207 300 1
207 362 1
207 373 1
207 385 1
207 456 1
207 470 1
208 16 1
208 67 1
208 81 1
208 291 1
208 365 1
208 376 1
208 386 1
208 459 1
208 473 1
209 23 1
209 42 1
209 86 1
209 309 1
209 326 1
209 383 1
209 406 1
209 420 1
209 478 1
210 17 1
210 45 1
210 89 1
210 312 1
210 329 1
210 384 1
210 409 1
210 423 1
210 469 1
211 28 1
211 33 1
211 88 1
211 314 1
211 328 1
211 372 1
211 408 1
211 425 1
211 480 1
212 18 1
212 47 1
212 92 1
212 315 1
212 332 1
212 378 1
212 412 1
212 417 1
212 472 1
213 30 1
213 35 1
213 93 1
213 305 1
213 333 1
213 377 1
213 413 1
213 427 1
213 471 1
214 19 1
214 34 1
214 91 1
214 317 1
214 331 1
214 375 1
214 411 1
214 428 1
214 474 1
215 20 1
215 48 1
215 83 1
215 318 1
215 323 1
215 381 1
215 403 1
215 418 1
215 475 1
216 21 1
216 38 1
216 95 1
216 306 1
216 335 1
216 380 1
216 415 1
216 430 1
216 465 1
217 22 1
217 36 1
217 94 1
217 319 1
217 334 1
217 369 1
217 414 1
217 419 1
217 477 1
218 32 1
218 37 1
218 82 1
218 307 1
218 322 1
218 379 1
218 402 1
218 431 1
218 476 1
219 24 1
219 41 1
219 96 1
219 308 1
219 336 1
219 371 1
219 416 1
219 421 1
219 466 1
220 25 1
220 39 1
220 85 1
220 320 1
220 325 1
220 370 1
220 405 1
220 422 1
220 479 1
221 26 1
221 40 1
221 84 1
221 310 1
221 324 1
221 382 1
221 404 1
221 432 1
221 467 1
222 27 1
222 44 1
222 90 1
222 311 1
222 330 1
222 374 1
222 410 1
222 424 1
222 468 1
223 29 1
223 43 1
223 87 1
223 313 1
223 327 1
223 373 1
223 407 1
223 426 1
223 470 1
224 31 1
224 46 1
224 81 1
224 316 1
224 321 1
224 376 1
224 401 1
224 429 1
224 473 1
225 42 1
225 50 1
225 72 1
225 326 1
225 347 1
225 356 1
225 420 1
225 444 1
225 464 1
226 45 1
226 52 1
226 75 1
226 329 1
226 350 1
226 359 1
226 423 1
226 435 1
226 458 1
227 33 1
227 54 1
227 77 1
227 328 1
227 351 1
227 361 1
227 425 1
227 446 1
227 455 1
228 47 1
228 55 1
228 78 1
228 332 1
228 341 1
228 353 1
228 417 1
228 438 1
228 461 1
229 35 1
229 56 1
229 66 1
229 333 1
229 340 1
229 363 1
229 427 1
229 448 1
229 460 1
230 34 1
230 57 1
230 79 1
230 331 1
230 352 1
230 364 1
230 428 1
230 437 1
230 449 1
231 48 1
231 49 1
231 69 1
231 323 1
231 344 1
231 354 1
231 418 1
231 441 1
231 463 1
232 38 1
232 59 1
232 68 1
232 335 1
232 343 1
232 366 1
232 430 1
232 442 1
232 451 1
233 36 1
233 60 1
233 80 1
233 334 1
233 346 1
233 355 1
233 419 1
233 440 1
233 450 1
234 37 1
234 61 1
234 70 1
234 322 1
234 345 1
234 367 1
234 431 1
234 439 1
234 462 1
235 41 1
235 62 1
235 71 1
235 336 1
235 337 1
235 357 1
235 421 1
235 445 1
235 454 1
236 39 1
236 51 1
236 74 1
236 325 1
236 349 1
236 358 1
236 422 1
236 443 1
236 452 1
237 40 1
237 63 1
237 73 1
237 324 1
237 348 1
237 368 1
237 432 1
237 433 1
237 453 1
238 44 1
238 53 1
238 65 1
238 330 1
238 338 1
238 360 1
238 424 1
238 447 1
238 457 1
239 43 1
239 64 1
239 76 1
239 327 1
239 339 1
239 362 1
239 426 1
239 434 1
239 456 1
240 46 1
240 58 1
240 67 1
240 321 1
240 342 1
240 365 1
240 429 1
240 436 1
240 459 1
241 102 1
241 175 1
241 187 1
241 296 1
241 356 1
241 383 1
241 491 1
241 551 1
241 576 1
242 105 1
242 176 1
242 190 1
242 299 1
242 359 1
242 384 1
242 494 1
242 545 1
242 570 1
243 104 1
243 164 1
243 191 1
243 301 1
243 361 1
243 372 1
243 495 1
243 556 1
243 567 1
244 108 1
244 170 1
244 181 1
244 302 1
244 353 1
244 378 1
244 485 1
244 546 1
244 573 1
245 109 1
245 169 1
245 180 1
245 290 1
245 363 1
245 377 1
245 484 1
245 558 1
245 572 1
246 107 1
246 167 1
246 192 1
246 303 1
246 364 1
246 375 1
246 496 1
246 547 1
246 561 1
247 99 1
247 173 1
247 184 1
247 293 1
247 354 1
247 381 1
247 488 1
247 548 1
247 575 1
248 111 1
248 172 1
248 183 1
248 292 1
248 366 1
248 380 1
248 487 1
248 549 1
248 563 1
249 110 1
249 161 1
249 186 1
249 304 1
249 355 1
249 369 1
249 490 1
249 550 1
249 562 1
250 98 1
250 171 1
250 185 1
250 294 1
250 367 1
250 379 1
250 489 1
250 560 1
250 574 1
251 112 1
251 163 1
251 177 1
251 295 1
251 357 1
251 371 1
251 481 1
251 552 1
251 566 1
252 101 1
252 162 1
252 189 1
252 298 1
252 358 1
252 370 1
252 493 1
252 553 1
252 564 1
253 100 1
253 174 1
253 188 1
253 297 1
253 368 1
253 382 1
253 492 1
253 554 1
253 565 1
254 106 1
254 166 1
254 178 1
254 289 1
254 360 1
254 374 1
254 482 1
254 555 1
254 569 1
255 103 1
255 165 1
255 179 1
255 300 1
255 362 1
255 373 1
255 483 1
255 557 1
255 568 1
256 97 1
256 168 1
256 182 1
256 291 1
256 365 1
256 376 1
256 486 1
256 559 1
256 571 1
257 115 1
257 130 1
257 187 1
257 309 1
257 326 1
257 383 1
257 504 1
257 521 1
257 576 1
258 118 1
258 132 1
258 190 1
258 312 1
258 329 1
258 384 1
258 507 1
258 524 1
258 570 1
259 117 1
259 134 1
259 191 1
259 314 1
259 328 1
259 372 1
259 509 1
259 523 1
259 567 1
260 121 1
260 135 1
260 181 1
260 315 1
260 332 1
260 378 1
260 510 1
260 515 1
260 573 1
261 122 1
261 136 1
261 180 1
261 305 1
261 333 1
261 377 1
261 498 1
261 527 1
261 572 1
262 120 1
262 137 1
262 192 1
262 317 1
262 331 1
262 375 1
262 511 1
262 526 1
262 561 1
263 124 1
263 129 1
263 184 1
263 318 1
263 323 1
263 381 1
263 501 1
263 518 1
263 575 1
264 125 1
264 139 1
264 183 1
264 306 1
264 335 1
264 380 1
264 500 1
264 528 1
264 563 1
265 123 1
265 140 1
265 186 1
265 319 1
265 334 1
265 369 1
265 512 1
265 517 1
265 562 1
266 113 1
266 141 1
266 185 1
266 307 1
266 322 1
266 379 1
266 502 1
266 516 1
266 574 1
267 127 1
267 142 1
267 177 1
267 308 1
267 336 1
267 371 1
267 503 1
267 522 1
267 566 1
268 126 1
268 131 1
268 189 1
268 320 1
268 325 1
268 370 1
268 506 1
268 520 1
268 564 1
269 114 1
269 143 1
269 188 1
269 310 1
269 324 1
269 382 1
269 505 1
269 519 1
269 565 1
270 128 1
270 133 1
270 178 1
270 311 1
270 330 1
270 374 1
270 497 1
270 525 1
270 569 1
271 116 1
271 144 1
271 179 1
271 313 1
271 327 1
271 373 1
271 508 1
271 513 1
271 568 1
272 119 1
272 138 1
272 182 1
272 316 1
272 321 1
272 376 1
272 499 1
272 514 1
272 571 1
273 130 1
273 153 1
273 175 1
273 326 1
273 347 1
273 356 1
273 521 1
273 542 1
273 551 1
274 132 1
274 156 1
274 176 1
274 329 1
274 350 1
274 359 1
274 524 1
274 533 1
274 545 1
275 134 1
275 155 1
275 164 1
275 328 1
275 351 1
275 361 1
275 523 1
275 544 1
275 556 1
276 135 1
276 147 1
276 170 1
276 332 1
276 341 1
276 353 1
276 515 1
276 536 1
276 546 1
277 136 1
277 159 1
277 169 1
277 333 1
277 340 1
277 363 1
277 527 1
277 535 1
277 558 1
278 137 1
278 158 1
278 167 1
278 331 1
278 352 1
278 364 1
278 526 1
278 538 1
278 547 1
279 129 1
279 150 1
279 173 1
279 323 1
279 344 1
279 354 1
279 518 1
279 539 1
279 548 1
280 139 1
280 160 1
280 172 1
280 335 1
280 343 1
280 366 1
280 528 1
280 529 1
280 549 1
281 140 1
281 149 1
281 161 1
281 334 1
281 346 1
281 355 1
281 517 1
281 541 1
281 550 1
282 141 1
282 148 1
282 171 1
282 322 1
282 345 1
282 367 1
282 516 1
282 540 1
282 560 1
283 142 1
283 154 1
283 163 1
283 336 1
283 337 1
283 357 1
283 522 1
283 530 1
283 552 1
284 131 1
284 152 1
284 162 1
284 325 1
284 349 1
284 358 1
284 520 1
284 543 1
284 553 1
285 143 1
285 151 1
285 174 1
285 324 1
285 348 1
285 368 1
285 519 1
285 531 1
285 554 1
286 133 1
286 157 1
286 166 1
286 330 1
286 338 1
286 360 1
286 525 1
286 532 1
286 555 1
287 144 1
287 145 1
287 165 1
287 327 1
287 339 1
287 362 1
287 513 1
287 534 1
287 557 1
288 138 1
288 146 1
288 168 1
288 321 1
288 342 1
288 365 1
288 514 1
288 537 1
288 559 1
