%%MatrixMarket matrix coordinate integer general
324 648 2916
1 1 1
1 55 1
1 73 1
1 109 1
1 163 1
1 181 1
1 325 1
1 379 1
1 397 1
2 2 1
2 56 1
2 74 1
2 110 1
2 164 1
2 182 1
2 326 1
2 380 1
2 398 1
3 3 1
3 57 1
3 75 1
3 111 1
3 165 1
3 183 1
3 327 1
3 381 1
3 399 1
4 4 1
4 58 1
4 76 1
4 112 1
4 166 1
4 184 1
4 328 1
4 382 1
4 400 1
5 5 1
5 59 1
5 77 1
5 113 1
5 167 1
5 185 1
5 329 1
5 383 1
5 401 1
6 6 1
6 60 1
6 78 1
6 114 1
6 168 1
6 186 1
6 330 1
6 384 1
6 402 1
7 7 1
7 61 1
7 79 1
7 115 1
7 169 1
7 187 1
7 331 1
7 385 1
7 403 1
8 8 1
8 62 1
8 80 1
8 116 1
8 170 1
8 188 1
8 332 1
8 386 1
8 404 1
9 9 1
9 63 1
9 81 1
9 117 1
9 171 1
9 189 1
9 333 1
9 387 1
9 405 1
10 10 1
10 64 1
10 82 1
10 118 1
10 172 1
10 190 1
10 334 1
10 388 1
10 406 1
11 11 1
11 65 1
11 83 1
11 119 1
11 173 1
11 191 1
11 335 1
11 389 1
11 407 1
12 12 1
12 66 1
12 84 1
12 120 1
12 174 1
12 192 1
12 336 1
12 390 1
12 408 1
13 13 1
13 67 1
13 85 1
13 121 1
13 175 1
13 193 1
13 337 1
13 391 1
13 409 1
14 14 1
14 68 1
14 86 1
14 122 1
14 176 1
14 194 1
14 338 1
14 392 1
14 410 1
15 15 1
15 69 1
15 87 1
15 123 1
15 177 1
15 195 1
15 339 1
15 393 1
15 411 1
16 16 1
16 70 1
16 88 1
16 124 1
16 178 1
16 196 1
16 340 1
16 394 1
16 412 1
17 17 1
17 71 1
17 89 1
17 125 1
17 179 1
17 197 1
17 341 1
17 395 1
17 413 1
18 18 1
18 72 1
18 90 1
18 126 1
18 180 1
18 198 1
18 342 1
18 396 1
18 414 1
19 19 1
19 55 1
19 91 1
19 127 1
19 163 1
19 199 1
19 343 1
19 379 1
19 415 1
20 20 1
20 56 1
20 92 1
20 128 1
20 164 1
20 200 1
20 344 1
20 380 1
20 416 1
21 21 1
21 57 1
21 93 1
21 129 1
21 165 1
21 201 1
21 345 1
21 381 1
21 417 1
22 22 1
22 58 1
22 94 1
22 130 1
22 166 1
22 202 1
22 346 1
22 382 1
22 418 1
23 23 1
23 59 1
23 95 1
23 131 1
23 167 1
23 203 1
23 347 1
23 383 1
23 419 1
24 24 1
24 60 1
24 96 1
24 132 1
24 168 1
24 204 1
24 348 1
24 384 1
24 420 1
25 25 1
25 61 1
25 97 1
25 133 1
25 169 1
25 205 1
25 349 1
25 385 1
25 421 1
26 26 1
26 62 1
26 98 1
26 134 1
26 170 1
26 206 1
26 350 1
26 386 1
26 422 1
27 27 1
27 63 1
27 99 1
27 135 1
27 171 1
27 207 1
27 351 1
27 387 1
27 423 1
28 28 1
28 64 1
28 100 1
28 136 1
28 172 1
28 208 1
28 352 1
28 388 1
28 424 1
29 29 1
29 65 1
29 101 1
29 137 1
29 173 1
29 209 1
29 353 1
29 389 1
29 425 1
30 30 1
30 66 1
30 102 1
30 138 1
30 174 1
30 210 1
30 354 1
30 390 1
30 426 1
31 31 1
31 67 1
31 103 1
31 139 1
31 175 1
31 211 1
31 355 1
31 391 1
31 427 1
32 32 1
32 68 1
32 104 1
32 140 1
32 176 1
32 212 1
32 356 1
32 392 1
32 428 1
33 33 1
33 69 1
33 105 1
33 141 1
33 177 1
33 213 1
33 357 1
33 393 1
33 429 1
34 34 1
34 70 1
34 106 1
34 142 1
34 178 1
34 214 1
34 358 1
34 394 1
34 430 1
35 35 1
35 71 1
35 107 1
35 143 1
35 179 1
35 215 1
35 359 1
35 395 1
35 431 1
36 36 1
36 72 1
36 108 1
36 144 1
36 180 1
36 216 1
36 360 1
36 396 1
36 432 1
37 37 1
37 73 1
37 91 1
37 145 1
37 181 1
37 199 1
37 361 1
37 397 1
37 415 1
38 38 1
38 74 1
38 92 1
38 146 1
38 182 1
38 200 1
38 362 1
38 398 1
38 416 1
39 39 1
39 75 1
39 93 1
39 147 1
39 183 1
39 201 1
39 363 1
39 399 1
39 417 1
40 40 1
40 76 1
40 94 1
40 148 1
40 184 1
40 202 1
40 364 1
40 400 1
40 418 1
41 41 1
41 77 1
41 95 1
41 149 1
41 185 1
41 203 1
41 365 1
41 401 1
41 419 1
42 42 1
42 78 1
42 96 1
42 150 1
42 186 1
42 204 1
42 366 1
42 402 1
42 420 1
43 43 1
43 79 1
43 97 1
43 151 1
43 187 1
43 205 1
43 367 1
43 403 1
43 421 1
44 44 1
44 80 1
44 98 1
44 152 1
44 188 1
44 206 1
44 368 1
44 404 1
44 422 1
45 45 1
45 81 1
45 99 1
45 153 1
45 189 1
45 207 1
45 369 1
45 405 1
45 423 1
46 46 1
46 82 1
46 100 1
46 154 1
46 190 1
46 208 1
46 370 1
46 406 1
46 424 1
47 47 1
47 83 1
47 101 1
47 155 1
47 191 1
47 209 1
47 371 1
47 407 1
47 425 1
48 48 1
48 84 1
48 102 1
48 156 1
48 192 1
48 210 1
48 372 1
48 408 1
48 426 1
49 49 1
49 85 1
49 103 1
49 157 1
49 193 1
49 211 1
49 373 1
49 409 1
49 427 1
50 50 1
50 86 1
50 104 1
50 158 1
50 194 1
50 212 1
50 374 1
50 410 1
50 428 1
51 51 1
51 87 1
51 105 1
51 159 1
51 195 1
51 213 1
51 375 1
51 411 1
51 429 1
52 52 1
52 88 1
52 106 1
52 160 1
52 196 1
52 214 1
52 376 1
52 412 1
52 430 1
53 53 1
53 89 1
53 107 1
53 161 1
53 197 1
53 215 1
53 377 1
53 413 1
53 431 1
54 54 1
54 90 1
54 108 1
54 162 1
54 198 1
54 216 1
54 378 1
54 414 1
54 432 1
55 1 1
55 55 1
55 73 1
55 217 1
55 271 1
55 289 1
55 433 1
55 487 1
55 505 1
56 2 1
56 56 1
56 74 1
56 218 1
56 272 1
56 290 1
56 434 1
56 488 1
56 506 1
57 3 1
57 57 1
57 75 1
57 219 1
57 273 1
57 291 1
57 435 1
57 489 1
57 507 1
58 4 1
58 58 1
58 76 1
58 220 1
58 274 1
58 292 1
58 436 1
58 490 1
58 508 1
59 5 1
59 59 1
59 77 1
59 221 1
59 275 1
59 293 1
59 437 1
59 491 1
59 509 1
60 6 1
60 60 1
60 78 1
60 222 1
60 276 1
60 294 1
60 438 1
60 492 1
60 510 1
61 7 1
61 61 1
61 79 1
61 223 1
61 277 1
61 295 1
61 439 1
61 493 1
61 511 1
62 8 1
62 62 1
62 80 1
62 224 1
62 278 1
62 296 1
62 440 1
62 494 1
62 512 1
63 9 1
63 63 1
63 81 1
63 225 1
63 279 1
63 297 1
63 441 1
63 495 1
63 513 1
64 10 1
64 64 1
64 82 1
64 226 1
64 280 1
64 298 1
64 442 1
64 496 1
64 514 1
65 11 1
65 65 1
65 83 1
65 227 1
65 281 1
65 299 1
65 443 1
65 497 1
65 515 1
66 12 1
66 66 1
66 84 1
66 228 1
66 282 1
66 300 1
66 444 1
66 498 1
66 516 1
67 13 1
67 67 1
67 85 1
67 229 1
67 283 1
67 301 1
67 445 1
67 499 1
67 517 1
68 14 1
68 68 1
68 86 1
68 230 1
68 284 1
68 302 1
68 446 1
68 500 1
68 518 1
69 15 1
69 69 1
69 87 1
69 231 1
69 285 1
69 303 1
69 447 1
69 501 1
69 519 1
70 16 1
70 70 1
70 88 1
70 232 1
70 286 1
70 304 1
70 448 1
70 502 1
70 520 1
71 17 1
71 71 1
71 89 1
71 233 1
71 287 1
71 305 1
71 449 1
71 503 1
71 521 1
72 18 1
72 72 1
72 90 1
72 234 1
72 288 1
72 306 1
72 450 1
72 504 1
72 522 1
73 19 1
73 55 1
73 91 1
73 235 1
73 271 1
73 307 1
73 451 1
73 487 1
73 523 1
74 20 1
74 56 1
74 92 1
74 236 1
74 272 1
74 308 1
74 452 1
74 488 1
74 524 1
75 21 1
75 57 1
75 93 1
75 237 1
75 273 1
75 309 1
75 453 1
75 489 1
75 525 1
76 22 1
76 58 1
76 94 1
76 238 1
76 274 1
76 310 1
76 454 1
76 490 1
76 526 1
77 23 1
77 59 1
77 95 1
77 239 1
77 275 1
77 311 1
77 455 1
77 491 1
77 527 1
78 24 1
78 60 1
78 96 1
78 240 1
78 276 1
78 312 1
78 456 1
78 492 1
78 528 1
79 25 1
79 61 1
79 97 1
79 241 1
79 277 1
79 313 1
79 457 1
79 493 1
79 529 1
80 26 1
80 62 1
80 98 1
80 242 1
80 278 1
80 314 1
80 458 1
80 494 1
80 530 1
81 27 1
81 63 1
81 99 1
81 243 1
81 279 1
81 315 1
81 459 1
81 495 1
81 531 1
82 28 1
82 64 1
82 100 1
82 244 1
82 280 1
82 316 1
82 460 1
82 496 1
82 532 1
83 29 1
83 65 1
83 101 1
83 245 1
83 281 1
83 317 1
83 461 1
83 497 1
83 533 1
84 30 1
84 66 1
84 102 1
84 246 1
84 282 1
84 318 1
84 462 1
84 498 1
84 534 1
85 31 1
85 67 1
85 103 1
85 247 1
85 283 1
85 319 1
85 463 1
85 499 1
85 535 1
86 32 1
86 68 1
86 104 1
86 248 1
86 284 1
86 320 1
86 464 1
86 500 1
86 536 1
87 33 1
87 69 1
87 105 1
87 249 1
87 285 1
87 321 1
87 465 1
87 501 1
87 537 1
88 34 1
88 70 1
88 106 1
88 250 1
88 286 1
88 322 1
88 466 1
88 502 1
88 538 1
89 35 1
89 71 1
89 107 1
89 251 1
89 287 1
89 323 1
89 467 1
89 503 1
89 539 1
90 36 1
90 72 1
90 108 1
90 252 1
90 288 1
90 324 1
90 468 1
90 504 1
90 540 1
91 37 1
91 73 1
91 91 1
91 253 1
91 289 1
91 307 1
91 469 1
91 505 1
91 523 1
92 38 1
92 74 1
92 92 1
92 254 1
92 290 1
92 308 1
92 470 1
92 506 1
92 524 1
93 39 1
93 75 1
93 93 1
93 255 1
93 291 1
93 309 1
93 471 1
93 507 1
93 525 1
94 40 1
94 76 1
94 94 1
94 256 1
94 292 1
94 310 1
94 472 1
94 508 1
94 526 1
95 41 1
95 77 1
95 95 1
95 257 1
95 293 1
95 311 1
95 473 1
95 509 1
95 527 1
96 42 1
96 78 1
96 96 1
96 258 1
96 294 1
96 312 1
96 474 1
96 510 1
96 528 1
97 43 1
97 79 1
97 97 1
97 259 1
97 295 1
97 313 1
97 475 1
97 511 1
97 529 1
98 44 1
98 80 1
98 98 1
98 260 1
98 296 1
98 314 1
98 476 1
98 512 1
98 530 1
99 45 1
99 81 1
99 99 1
99 261 1
99 297 1
99 315 1
99 477 1
99 513 1
99 531 1
100 46 1
100 82 1
100 100 1
100 262 1
100 298 1
100 316 1
100 478 1
100 514 1
100 532 1
101 47 1
101 83 1
101 101 1
101 263 1
101 299 1
101 317 1
101 479 1
101 515 1
101 533 1
102 48 1
102 84 1
102 102 1
102 264 1
102 300 1
102 318 1
102 480 1
102 516 1
102 534 1
103 49 1
103 85 1
103 103 1
103 265 1
103 301 1
103 319 1
103 481 1
103 517 1
103 535 1
104 50 1
104 86 1
104 104 1
104 266 1
104 302 1
104 320 1
104 482 1
104 518 1
104 536 1
105 51 1
105 87 1
105 105 1
105 267 1
105 303 1
105 321 1
105 483 1
105 519 1
105 537 1
106 52 1
106 88 1
106 106 1
106 268 1
106 304 1
106 322 1
106 484 1
106 520 1
106 538 1
107 53 1
107 89 1
107 107 1
107 269 1
107 305 1
107 323 1
107 485 1
107 521 1
107 539 1
108 54 1
108 90 1
108 108 1
108 270 1
108 306 1
108 324 1
108 486 1
108 522 1
108 540 1
109 109 1
109 163 1
109 181 1
109 217 1
109 271 1
109 289 1
109 541 1
109 595 1
109 613 1
110 110 1
110 164 1
110 182 1
110 218 1
110 272 1
110 290 1
110 542 1
110 596 1
110 614 1
111 111 1
111 165 1
111 183 1
111 219 1
111 273 1
111 291 1
111 543 1
111 597 1
111 615 1
112 112 1
112 166 1
112 184 1
112 220 1
112 274 1
112 292 1
112 544 1
112 598 1
112 616 1
113 113 1
113 167 1
113 185 1
113 221 1
113 275 1
113 293 1
113 545 1
113 599 1
113 617 1
114 114 1
114 168 1
114 186 1
114 222 1
114 276 1
114 294 1
114 546 1
114 600 1
114 618 1
115 115 1
115 169 1
115 187 1
115 223 1
115 277 1
115 295 1
115 547 1
115 601 1
115 619 1
116 116 1
116 170 1
116 188 1
116 224 1
116 278 1
116 296 1
116 548 1
116 602 1
116 620 1
117 117 1
117 171 1
117 189 1
117 225 1
117 279 1
117 297 1
117 549 1
117 603 1
117 621 1
118 118 1
118 172 1
118 190 1
118 226 1
118 280 1
118 298 1
118 550 1
118 604 1
118 622 1
119 119 1
119 173 1
119 191 1
119 227 1
119 281 1
119 299 1
119 551 1
119 605 1
119 623 1
120 120 1
120 174 1
120 192 1
120 228 1
120 282 1
120 300 1
120 552 1
120 606 1
120 624 1
121 121 1
121 175 1
121 193 1
121 229 1
121 283 1
121 301 1
121 553 1
121 607 1
121 625 1
122 122 1
122 176 1
122 194 1
122 230 1
122 284 1
122 302 1
122 554 1
122 608 1
122 626 1
123 123 1
123 177 1
123 195 1
123 231 1
123 285 1
123 303 1
123 555 1
123 609 1
123 627 1
124 124 1
124 178 1
124 196 1
124 232 1
124 286 1
124 304 1
124 556 1
124 610 1
124 628 1
125 125 1
125 179 1
125 197 1
125 233 1
125 287 1
125 305 1
125 557 1
125 611 1
125 629 1
126 126 1
126 180 1
126 198 1
126 234 1
126 288 1
126 306 1
126 558 1
126 612 1
126 630 1
127 127 1
127 163 1
127 199 1
127 235 1
127 271 1
127 307 1
127 559 1
127 595 1
127 631 1
128 128 1
128 164 1
128 200 1
128 236 1
128 272 1
128 308 1
128 560 1
128 596 1
128 632 1
129 129 1
129 165 1
129 201 1
129 237 1
129 273 1
129 309 1
129 561 1
129 597 1
129 633 1
130 130 1
130 166 1
130 202 1
130 238 1
130 274 1
130 310 1
130 562 1
130 598 1
130 634 1
131 131 1
131 167 1
131 203 1
131 239 1
131 275 1
131 311 1
131 563 1
131 599 1
131 635 1
132 132 1
132 168 1
132 204 1
132 240 1
132 276 1
132 312 1
132 564 1
132 600 1
132 636 1
133 133 1
133 169 1
133 205 1
133 241 1
133 277 1
133 313 1
133 565 1
133 601 1
133 637 1
134 134 1
134 170 1
134 206 1
134 242 1
134 278 1
134 314 1
134 566 1
134 602 1
134 638 1
135 135 1
135 171 1
135 207 1
135 243 1
135 279 1
135 315 1
135 567 1
135 603 1
135 639 1
136 136 1
136 172 1
136 208 1
136 244 1
136 280 1
136 316 1
136 568 1
136 604 1
136 640 1
137 137 1
137 173 1
137 209 1
137 245 1
137 281 1
137 317 1
137 569 1
137 605 1
137 641 1
138 138 1
138 174 1
138 210 1
138 246 1
138 282 1
138 318 1
138 570 1
138 606 1
138 642 1
139 139 1
139 175 1
139 211 1
139 247 1
139 283 1
139 319 1
139 571 1
139 607 1
139 643 1
140 140 1
140 176 1
140 212 1
140 248 1
140 284 1
140 320 1
140 572 1
140 608 1
140 644 1
141 141 1
141 177 1
141 213 1
141 249 1
141 285 1
141 321 1
141 573 1
141 609 1
141 645 1
142 142 1
142 178 1
142 214 1
142 250 1
142 286 1
142 322 1
142 574 1
142 610 1
142 646 1
143 143 1
143 179 1
143 215 1
143 251 1
143 287 1
143 323 1
143 575 1
143 611 1
143 647 1
144 144 1
144 180 1
144 216 1
144 252 1
144 288 1
144 324 1
144 576 1
144 612 1
144 648 1
145 145 1
145 181 1
145 199 1
145 253 1
145 289 1
145 307 1
145 577 1
145 613 1
145 631 1
146 146 1
146 182 1
146 200 1
146 254 1
146 290 1
146 308 1
146 578 1
146 614 1
146 632 1
147 147 1
147 183 1
147 201 1
147 255 1
147 291 1
147 309 1
147 579 1
147 615 1
147 633 1
148 148 1
148 184 1
148 202 1
148 256 1
148 292 1
148 310 1
148 580 1
148 616 1
148 634 1
149 149 1
149 185 1
149 203 1
149 257 1
149 293 1
149 311 1
149 581 1
149 617 1
149 635 1
150 150 1
150 186 1
150 204 1
150 258 1
150 294 1
150 312 1
150 582 1
150 618 1
150 636 1
151 151 1
151 187 1
151 205 1
151 259 1
151 295 1
151 313 1
151 583 1
151 619 1
151 637 1
152 152 1
152 188 1
152 206 1
152 260 1
152 296 1
152 314 1
152 584 1
152 620 1
152 638 1
153 153 1
153 189 1
153 207 1
153 261 1
153 297 1
153 315 1
153 585 1
153 621 1
153 639 1
154 154 1
154 190 1
154 208 1
154 262 1
154 298 1
154 316 1
154 586 1
154 622 1
154 640 1
155 155 1
155 191 1
155 209 1
155 263 1
155 299 1
155 317 1
155 587 1
155 623 1
155 641 1
156 156 1
156 192 1
156 210 1
156 264 1
156 300 1
156 318 1
156 588 1
156 624 1
156 642 1
157 157 1
157 193 1
157 211 1
157 265 1
157 301 1
157 319 1
157 589 1
157 625 1
157 643 1
158 158 1
158 194 1
158 212 1
158 266 1
158 302 1
158 320 1
158 590 1
158 626 1
158 644 1
159 159 1
159 195 1
159 213 1
159 267 1
159 303 1
159 321 1
159 591 1
159 627 1
159 645 1
160 160 1
160 196 1
160 214 1
160 268 1
160 304 1
160 322 1
160 592 1
160 628 1
160 646 1
161 161 1
161 197 1
161 215 1
161 269 1
161 305 1
161 323 1
161 593 1
161 629 1
161 647 1
162 162 1
162 198 1
162 216 1
162 270 1
162 306 1
162 324 1
162 594 1
162 630 1
162 648 1
163 1 1
163 67 1
163 93 1
163 115 1
163 176 1
163 202 1
163 333 1
163 385 1
163 428 1
164 2 1
164 69 1
164 95 1
164 124 1
164 168 1
164 216 1
164 330 1
164 396 1
164 425 1
165 3 1
165 63 1
165 97 1
165 112 1
165 179 1
165 206 1
165 338 1
165 382 1
165 431 1
166 4 1
166 71 1
166 98 1
166 121 1
166 165 1
166 207 1
166 325 1
166 391 1
166 417 1
167 5 1
167 66 1
167 100 1
167 126 1
167 173 1
167 200 1
167 335 1
167 380 1
167 429 1
168 6 1
168 72 1
168 101 1
168 113 1
168 174 1
168 208 1
168 336 1
168 388 1
168 430 1
169 7 1
169 68 1
169 94 1
169 116 1
169 163 1
169 211 1
169 341 1
169 386 1
169 415 1
170 8 1
170 55 1
170 103 1
170 117 1
170 169 1
170 212 1
170 327 1
170 387 1
170 421 1
171 9 1
171 61 1
171 104 1
171 125 1
171 170 1
171 199 1
171 328 1
171 395 1
171 422 1
172 10 1
172 70 1
172 96 1
172 110 1
172 177 1
172 203 1
172 339 1
172 383 1
172 426 1
173 11 1
173 56 1
173 105 1
173 118 1
173 178 1
173 204 1
173 340 1
173 384 1
173 432 1
174 12 1
174 64 1
174 106 1
174 119 1
174 164 1
174 213 1
174 326 1
174 393 1
174 419 1
175 13 1
175 57 1
175 99 1
175 122 1
175 166 1
175 215 1
175 331 1
175 392 1
175 418 1
176 14 1
176 58 1
176 107 1
176 109 1
176 175 1
176 201 1
176 332 1
176 379 1
176 427 1
177 15 1
177 59 1
177 102 1
177 114 1
177 180 1
177 209 1
177 342 1
177 389 1
177 416 1
178 16 1
178 60 1
178 108 1
178 123 1
178 167 1
178 210 1
178 329 1
178 390 1
178 424 1
179 17 1
179 62 1
179 91 1
179 111 1
179 171 1
179 205 1
179 337 1
179 381 1
179 423 1
180 18 1
180 65 1
180 92 1
180 120 1
180 172 1
180 214 1
180 334 1
180 394 1
180 420 1
181 27 1
181 67 1
181 76 1
181 143 1
181 176 1
181 193 1
181 346 1
181 385 1
181 397 1
182 30 1
182 69 1
182 78 1
182 137 1
182 168 1
182 185 1
182 344 1
182 396 1
182 408 1
183 32 1
183 63 1
183 80 1
183 127 1
183 179 1
183 189 1
183 350 1
183 382 1
183 399 1
184 19 1
184 71 1
184 81 1
184 133 1
184 165 1
184 197 1
184 351 1
184 391 1
184 400 1
185 34 1
185 66 1
185 83 1
185 141 1
185 173 1
185 190 1
185 347 1
185 380 1
185 412 1
186 20 1
186 72 1
186 84 1
186 142 1
186 174 1
186 191 1
186 348 1
186 388 1
186 398 1
187 35 1
187 68 1
187 85 1
187 129 1
187 163 1
187 194 1
187 355 1
187 386 1
187 403 1
188 21 1
188 55 1
188 86 1
188 130 1
188 169 1
188 181 1
188 356 1
188 387 1
188 404 1
189 22 1
189 61 1
189 73 1
189 139 1
189 170 1
189 187 1
189 343 1
189 395 1
189 405 1
190 36 1
190 70 1
190 87 1
190 138 1
190 177 1
190 186 1
190 352 1
190 383 1
190 414 1
191 23 1
191 56 1
191 88 1
191 144 1
191 178 1
191 195 1
191 353 1
191 384 1
191 401 1
192 24 1
192 64 1
192 74 1
192 131 1
192 164 1
192 196 1
192 354 1
192 393 1
192 402 1
193 25 1
193 57 1
193 89 1
193 134 1
193 166 1
193 183 1
193 359 1
193 392 1
193 409 1
194 26 1
194 58 1
194 75 1
194 135 1
194 175 1
194 184 1
194 345 1
194 379 1
194 410 1
195 28 1
195 59 1
195 90 1
195 128 1
195 180 1
195 192 1
195 357 1
195 389 1
195 406 1
196 29 1
196 60 1
196 77 1
196 136 1
196 167 1
196 198 1
196 358 1
196 390 1
196 407 1
197 31 1
197 62 1
197 79 1
197 140 1
197 171 1
197 188 1
197 349 1
197 381 1
197 413 1
198 33 1
198 65 1
198 82 1
198 132 1
198 172 1
198 182 1
198 360 1
198 394 1
198 411 1
199 41 1
199 76 1
199 93 1
199 162 1
199 193 1
199 202 1
199 371 1
199 397 1
199 428 1
200 39 1
200 78 1
200 95 1
200 148 1
200 185 1
200 216 1
200 374 1
200 408 1
200 425 1
201 38 1
201 80 1
201 97 1
201 160 1
201 189 1
201 206 1
201 366 1
201 399 1
201 431 1
202 52 1
202 81 1
202 98 1
202 159 1
202 197 1
202 207 1
202 365 1
202 400 1
202 417 1
203 37 1
203 83 1
203 100 1
203 151 1
203 190 1
203 200 1
203 369 1
203 412 1
203 429 1
204 50 1
204 84 1
204 101 1
204 145 1
204 191 1
204 208 1
204 368 1
204 398 1
204 430 1
205 54 1
205 85 1
205 94 1
205 156 1
205 194 1
205 211 1
205 370 1
205 403 1
205 415 1
206 48 1
206 86 1
206 103 1
206 155 1
206 181 1
206 212 1
206 362 1
206 404 1
206 421 1
207 47 1
207 73 1
207 104 1
207 154 1
207 187 1
207 199 1
207 376 1
207 405 1
207 422 1
208 53 1
208 87 1
208 96 1
208 147 1
208 186 1
208 203 1
208 373 1
208 414 1
208 426 1
209 45 1
209 88 1
209 105 1
209 161 1
209 195 1
209 204 1
209 364 1
209 401 1
209 432 1
210 44 1
210 74 1
210 106 1
210 153 1
210 196 1
210 213 1
210 363 1
210 402 1
210 419 1
211 51 1
211 89 1
211 99 1
211 150 1
211 183 1
211 215 1
211 378 1
211 409 1
211 418 1
212 42 1
212 75 1
212 107 1
212 149 1
212 184 1
212 201 1
212 372 1
212 410 1
212 427 1
213 49 1
213 90 1
213 102 1
213 158 1
213 192 1
213 209 1
213 367 1
213 406 1
213 416 1
214 40 1
214 77 1
214 108 1
214 157 1
214 198 1
214 210 1
214 361 1
214 407 1
214 424 1
215 46 1
215 79 1
215 91 1
215 146 1
215 188 1
215 205 1
215 375 1
215 413 1
215 423 1
216 43 1
216 82 1
216 92 1
216 152 1
216 182 1
216 214 1
216 377 1
216 411 1
216 420 1
217 1 1
217 67 1
217 93 1
217 447 1
217 491 1
217 534 1
217 557 1
217 602 1
217 631 1
218 2 1
218 69 1
218 95 1
218 440 1
218 487 1
218 535 1
218 545 1
218 606 1
218 640 1
219 3 1
219 63 1
219 97 1
219 444 1
219 496 1
219 538 1
219 541 1
219 607 1
219 633 1
220 4 1
220 71 1
220 98 1
220 450 1
220 497 1
220 524 1
220 547 1
220 608 1
220 634 1
221 5 1
221 66 1
221 100 1
221 445 1
221 489 1
221 531 1
221 550 1
221 610 1
221 636 1
222 6 1
222 72 1
222 101 1
222 446 1
222 490 1
222 539 1
222 551 1
222 596 1
222 645 1
223 7 1
223 68 1
223 94 1
223 448 1
223 492 1
223 540 1
223 543 1
223 603 1
223 637 1
224 8 1
224 55 1
224 103 1
224 434 1
224 501 1
224 527 1
224 544 1
224 611 1
224 638 1
225 9 1
225 61 1
225 104 1
225 442 1
225 502 1
225 528 1
225 553 1
225 597 1
225 639 1
226 10 1
226 70 1
226 96 1
226 441 1
226 493 1
226 536 1
226 546 1
226 612 1
226 641 1
227 11 1
227 56 1
227 105 1
227 449 1
227 494 1
227 523 1
227 555 1
227 599 1
227 642 1
228 12 1
228 64 1
228 106 1
228 435 1
228 495 1
228 529 1
228 556 1
228 600 1
228 648 1
229 13 1
229 57 1
229 99 1
229 437 1
229 498 1
229 532 1
229 548 1
229 595 1
229 643 1
230 14 1
230 58 1
230 107 1
230 438 1
230 504 1
230 533 1
230 549 1
230 601 1
230 644 1
231 15 1
231 59 1
231 102 1
231 433 1
231 499 1
231 525 1
231 552 1
231 604 1
231 646 1
232 16 1
232 60 1
232 108 1
232 439 1
232 500 1
232 526 1
232 558 1
232 605 1
232 632 1
233 17 1
233 62 1
233 91 1
233 443 1
233 488 1
233 537 1
233 554 1
233 598 1
233 647 1
234 18 1
234 65 1
234 92 1
234 436 1
234 503 1
234 530 1
234 542 1
234 609 1
234 635 1
235 27 1
235 67 1
235 76 1
235 460 1
235 491 1
235 522 1
235 571 1
235 602 1
235 619 1
236 30 1
236 69 1
236 78 1
236 453 1
236 487 1
236 518 1
236 574 1
236 606 1
236 623 1
237 32 1
237 63 1
237 80 1
237 456 1
237 496 1
237 506 1
237 567 1
237 607 1
237 616 1
238 19 1
238 71 1
238 81 1
238 465 1
238 497 1
238 514 1
238 575 1
238 608 1
238 625 1
239 34 1
239 66 1
239 83 1
239 457 1
239 489 1
239 521 1
239 576 1
239 610 1
239 627 1
240 20 1
240 72 1
240 84 1
240 458 1
240 490 1
240 507 1
240 563 1
240 596 1
240 628 1
241 35 1
241 68 1
241 85 1
241 461 1
241 492 1
241 509 1
241 572 1
241 603 1
241 620 1
242 21 1
242 55 1
242 86 1
242 462 1
242 501 1
242 510 1
242 559 1
242 611 1
242 621 1
243 22 1
243 61 1
243 73 1
243 468 1
243 502 1
243 519 1
243 565 1
243 597 1
243 629 1
244 36 1
244 70 1
244 87 1
244 454 1
244 493 1
244 505 1
244 560 1
244 612 1
244 624 1
245 23 1
245 56 1
245 88 1
245 463 1
245 494 1
245 511 1
245 568 1
245 599 1
245 630 1
246 24 1
246 64 1
246 74 1
246 464 1
246 495 1
246 512 1
246 569 1
246 600 1
246 617 1
247 25 1
247 57 1
247 89 1
247 466 1
247 498 1
247 515 1
247 561 1
247 595 1
247 626 1
248 26 1
248 58 1
248 75 1
248 452 1
248 504 1
248 516 1
248 562 1
248 601 1
248 613 1
249 28 1
249 59 1
249 90 1
249 459 1
249 499 1
249 508 1
249 564 1
249 604 1
249 614 1
250 29 1
250 60 1
250 77 1
250 467 1
250 500 1
250 517 1
250 573 1
250 605 1
250 622 1
251 31 1
251 62 1
251 79 1
251 455 1
251 488 1
251 520 1
251 566 1
251 598 1
251 615 1
252 33 1
252 65 1
252 82 1
252 451 1
252 503 1
252 513 1
252 570 1
252 609 1
252 618 1
253 41 1
253 76 1
253 93 1
253 481 1
253 522 1
253 534 1
253 586 1
253 619 1
253 631 1
254 39 1
254 78 1
254 95 1
254 480 1
254 518 1
254 535 1
254 577 1
254 623 1
254 640 1
255 38 1
255 80 1
255 97 1
255 476 1
255 506 1
255 538 1
255 581 1
255 616 1
255 633 1
256 52 1
256 81 1
256 98 1
256 475 1
256 514 1
256 524 1
256 594 1
256 625 1
256 634 1
257 37 1
257 83 1
257 100 1
257 483 1
257 521 1
257 531 1
257 593 1
257 627 1
257 636 1
258 50 1
258 84 1
258 101 1
258 474 1
258 507 1
258 539 1
258 585 1
258 628 1
258 645 1
259 54 1
259 85 1
259 94 1
259 472 1
259 509 1
259 540 1
259 578 1
259 620 1
259 637 1
260 48 1
260 86 1
260 103 1
260 471 1
260 510 1
260 527 1
260 592 1
260 621 1
260 638 1
261 47 1
261 73 1
261 104 1
261 485 1
261 519 1
261 528 1
261 591 1
261 629 1
261 639 1
262 53 1
262 87 1
262 96 1
262 479 1
262 505 1
262 536 1
262 590 1
262 624 1
262 641 1
263 45 1
263 88 1
263 105 1
263 478 1
263 511 1
263 523 1
263 589 1
263 630 1
263 642 1
264 44 1
264 74 1
264 106 1
264 470 1
264 512 1
264 529 1
264 580 1
264 617 1
264 648 1
265 51 1
265 89 1
265 99 1
265 469 1
265 515 1
265 532 1
265 588 1
265 626 1
265 643 1
266 42 1
266 75 1
266 107 1
266 482 1
266 516 1
266 533 1
266 587 1
266 613 1
266 644 1
267 49 1
267 90 1
267 102 1
267 473 1
267 508 1
267 525 1
267 584 1
267 614 1
267 646 1
268 40 1
268 77 1
268 108 1
268 486 1
268 517 1
268 526 1
268 583 1
268 622 1
268 632 1
269 46 1
269 79 1
269 91 1
269 477 1
269 520 1
269 537 1
269 582 1
269 615 1
269 647 1
270 43 1
270 82 1
270 92 1
270 484 1
270 513 1
270 530 1
270 579 1
270 618 1
270 635 1
271 115 1
271 176 1
271 202 1
271 225 1
271 277 1
271 320 1
271 557 1
271 602 1
271 631 1
272 124 1
272 168 1
272 216 1
272 222 1
272 288 1
272 317 1
272 545 1
272 606 1
272 640 1
273 112 1
273 179 1
273 206 1
273 230 1
273 274 1
273 323 1
273 541 1
273 607 1
273 633 1
274 121 1
274 165 1
274 207 1
274 217 1
274 283 1
274 309 1
274 547 1
274 608 1
274 634 1
275 126 1
275 173 1
275 200 1
275 227 1
275 272 1
275 321 1
275 550 1
275 610 1
275 636 1
276 113 1
276 174 1
276 208 1
276 228 1
276 280 1
276 322 1
276 551 1
276 596 1
276 645 1
277 116 1
277 163 1
277 211 1
277 233 1
277 278 1
277 307 1
277 543 1
277 603 1
277 637 1
278 117 1
278 169 1
278 212 1
278 219 1
278 279 1
278 313 1
278 544 1
278 611 1
278 638 1
279 125 1
279 170 1
279 199 1
279 220 1
279 287 1
279 314 1
279 553 1
279 597 1
279 639 1
280 110 1
280 177 1
280 203 1
280 231 1
280 275 1
280 318 1
280 546 1
280 612 1
280 641 1
281 118 1
281 178 1
281 204 1
281 232 1
281 276 1
281 324 1
281 555 1
281 599 1
281 642 1
282 119 1
282 164 1
282 213 1
282 218 1
282 285 1
282 311 1
282 556 1
282 600 1
282 648 1
283 122 1
283 166 1
283 215 1
283 223 1
283 284 1
283 310 1
283 548 1
283 595 1
283 643 1
284 109 1
284 175 1
284 201 1
284 224 1
284 271 1
284 319 1
284 549 1
284 601 1
284 644 1
285 114 1
285 180 1
285 209 1
285 234 1
285 281 1
285 308 1
285 552 1
285 604 1
285 646 1
286 123 1
286 167 1
286 210 1
286 221 1
286 282 1
286 316 1
286 558 1
286 605 1
286 632 1
287 111 1
287 171 1
287 205 1
287 229 1
287 273 1
287 315 1
287 554 1
287 598 1
287 647 1
288 120 1
288 172 1
288 214 1
288 226 1
288 286 1
288 312 1
288 542 1
288 609 1
288 635 1
289 143 1
289 176 1
289 193 1
289 238 1
289 277 1
289 289 1
289 571 1
289 602 1
289 619 1
290 137 1
290 168 1
290 185 1
290 236 1
290 288 1
290 300 1
290 574 1
290 606 1
290 623 1
291 127 1
291 179 1
291 189 1
291 242 1
291 274 1
291 291 1
291 567 1
291 607 1
291 616 1
292 133 1
292 165 1
292 197 1
292 243 1
292 283 1
292 292 1
292 575 1
292 608 1
292 625 1
293 141 1
293 173 1
293 190 1
293 239 1
293 272 1
293 304 1
293 576 1
293 610 1
293 627 1
294 142 1
294 174 1
294 191 1
294 240 1
294 280 1
294 290 1
294 563 1
294 596 1
294 628 1
295 129 1
295 163 1
295 194 1
295 247 1
295 278 1
295 295 1
295 572 1
295 603 1
295 620 1
296 130 1
296 169 1
296 181 1
296 248 1
296 279 1
296 296 1
296 559 1
296 611 1
296 621 1
297 139 1
297 170 1
297 187 1
297 235 1
297 287 1
297 297 1
297 565 1
297 597 1
297 629 1
298 138 1
298 177 1
298 186 1
298 244 1
298 275 1
298 306 1
298 560 1
298 612 1
298 624 1
299 144 1
299 178 1
299 195 1
299 245 1
299 276 1
299 293 1
299 568 1
299 599 1
299 630 1
300 131 1
300 164 1
300 196 1
300 246 1
300 285 1
300 294 1
300 569 1
300 600 1
300 617 1
301 134 1
301 166 1
301 183 1
301 251 1
301 284 1
301 301 1
301 561 1
301 595 1
301 626 1
302 135 1
302 175 1
302 184 1
302 237 1
302 271 1
302 302 1
302 562 1
302 601 1
302 613 1
303 128 1
303 180 1
303 192 1
303 249 1
303 281 1
303 298 1
303 564 1
303 604 1
303 614 1
304 136 1
304 167 1
304 198 1
304 250 1
304 282 1
304 299 1
304 573 1
304 605 1
304 622 1
305 140 1
305 171 1
305 188 1
305 241 1
305 273 1
305 305 1
305 566 1
305 598 1
305 615 1
306 132 1
306 172 1
306 182 1
306 252 1
306 286 1
306 303 1
306 570 1
306 609 1
306 618 1
307 162 1
307 193 1
307 202 1
307 263 1
307 289 1
307 320 1
307 586 1
307 619 1
307 631 1
308 148 1
308 185 1
308 216 1
308 266 1
308 300 1
308 317 1
308 577 1
308 623 1
308 640 1
309 160 1
309 189 1
309 206 1
309 258 1
309 291 1
309 323 1
309 581 1
309 616 1
309 633 1
310 159 1
310 197 1
310 207 1
310 257 1
310 292 1
310 309 1
310 594 1
310 625 1
310 634 1
311 151 1
311 190 1
311 200 1
311 261 1
311 304 1
311 321 1
311 593 1
311 627 1
311 636 1
312 145 1
312 191 1
312 208 1
312 260 1
312 290 1
312 322 1
312 585 1
312 628 1
312 645 1
313 156 1
313 194 1
313 211 1
313 262 1
313 295 1
313 307 1
313 578 1
313 620 1
313 637 1
314 155 1
314 181 1
314 212 1
314 254 1
314 296 1
314 313 1
314 592 1
314 621 1
314 638 1
315 154 1
315 187 1
315 199 1
315 268 1
315 297 1
315 314 1
315 591 1
315 629 1
315 639 1
316 147 1
316 186 1
316 203 1
316 265 1
316 306 1
316 318 1
316 590 1
316 624 1
316 641 1
317 161 1
317 195 1
317 204 1
317 256 1
317 293 1
317 324 1
317 589 1
317 630 1
317 642 1
318 153 1
318 196 1
318 213 1
318 255 1
318 294 1
318 311 1
318 580 1
318 617 1
318 648 1
319 150 1
319 183 1
319 215 1
319 270 1
319 301 1
319 310 1
319 588 1
319 626 1
319 643 1
320 149 1
320 184 1
320 201 1
320 264 1
320 302 1
320 319 1
320 587 1
320 613 1
320 644 1
321 158 1
321 192 1
321 209 1
321 259 1
321 298 1
321 308 1
321 584 1
321 614 1
321 646 1
322 157 1
322 198 1
322 210 1
322 253 1
322 299 1
322 316 1
322 583 1
322 622 1
322 632 1
323 146 1
323 188 1
323 205 1
323 267 1
323 305 1
323 315 1
323 582 1
323 615 1
323 647 1
324 152 1
324 182 1
324 214 1
324 269 1
324 303 1
324 312 1
324 579 1
324 618 1
324 635 1
