%%MatrixMarket matrix coordinate integer general
342 684 3078
1 1 1
1 58 1
1 77 1
1 115 1
1 172 1
1 191 1
1 343 1
1 400 1
1 419 1
2 2 1
2 59 1
2 78 1
2 116 1
2 173 1
2 192 1
2 344 1
2 401 1
2 420 1
3 3 1
3 60 1
3 79 1
3 117 1
3 174 1
3 193 1
3 345 1
3 402 1
3 421 1
4 4 1
4 61 1
4 80 1
4 118 1
4 175 1
4 194 1
4 346 1
4 403 1
4 422 1
5 5 1
5 62 1
5 81 1
5 119 1
5 176 1
5 195 1
5 347 1
5 404 1
5 423 1
6 6 1
6 63 1
6 82 1
6 120 1
6 177 1
6 196 1
6 348 1
6 405 1
6 424 1
7 7 1
7 64 1
7 83 1
7 121 1
7 178 1
7 197 1
7 349 1
7 406 1
7 425 1
8 8 1
8 65 1
8 84 1
8 122 1
8 179 1
8 198 1
8 350 1
8 407 1
8 426 1
9 9 1
9 66 1
9 85 1
9 123 1
9 180 1
9 199 1
9 351 1
9 408 1
9 427 1
10 10 1
10 67 1
10 86 1
10 124 1
10 181 1
10 200 1
10 352 1
10 409 1
10 428 1
11 11 1
11 68 1
11 87 1
11 125 1
11 182 1
11 201 1
11 353 1
11 410 1
11 429 1
12 12 1
12 69 1
12 88 1
12 126 1
12 183 1
12 202 1
12 354 1
12 411 1
12 430 1
13 13 1
13 70 1
13 89 1
13 127 1
13 184 1
13 203 1
13 355 1
13 412 1
13 431 1
14 14 1
14 71 1
14 90 1
14 128 1
14 185 1
14 204 1
14 356 1
14 413 1
14 432 1
15 15 1
15 72 1
15 91 1
15 129 1
15 186 1
15 205 1
15 357 1
15 414 1
15 433 1
16 16 1
16 73 1
16 92 1
16 130 1
16 187 1
16 206 1
16 358 1
16 415 1
16 434 1
17 17 1
17 74 1
17 93 1
17 131 1
17 188 1
17 207 1
17 359 1
17 416 1
17 435 1
18 18 1
18 75 1
18 94 1
18 132 1
18 189 1
18 208 1
18 360 1
18 417 1
18 436 1
19 19 1
19 76 1
19 95 1
19 133 1
19 190 1
19 209 1
19 361 1
19 418 1
19 437 1
20 20 1
20 58 1
20 96 1
20 134 1
20 172 1
20 210 1
20 362 1
20 400 1
20 438 1
21 21 1
21 59 1
21 97 1
21 135 1
21 173 1
21 211 1
21 363 1
21 401 1
21 439 1
22 22 1
22 60 1
22 98 1
22 136 1
22 174 1
22 212 1
22 364 1
22 402 1
22 440 1
23 23 1
23 61 1
23 99 1
23 137 1
23 175 1
23 213 1
23 365 1
23 403 1
23 441 1
24 24 1
24 62 1
24 100 1
24 138 1
24 176 1
24 214 1
24 366 1
24 404 1
24 442 1
25 25 1
25 63 1
25 101 1
25 139 1
25 177 1
25 215 1
25 367 1
25 405 1
25 443 1
26 26 1
26 64 1
26 102 1
26 140 1
26 178 1
26 216 1
26 368 1
26 406 1
26 444 1
27 27 1
27 65 1
27 103 1
27 141 1
27 179 1
27 217 1
27 369 1
27 407 1
27 445 1
28 28 1
28 66 1
28 104 1
28 142 1
28 180 1
28 218 1
28 370 1
28 408 1
28 446 1
29 29 1
29 67 1
29 105 1
29 143 1
29 181 1
29 219 1
29 371 1
29 409 1
29 447 1
30 30 1
30 68 1
30 106 1
30 144 1
30 182 1
30 220 1
30 372 1
30 410 1
30 448 1
31 31 1
31 69 1
31 107 1
31 145 1
31 183 1
31 221 1
31 373 1
31 411 1
31 449 1
32 32 1
32 70 1
32 108 1
32 146 1
32 184 1
32 222 1
32 374 1
32 412 1
32 450 1
33 33 1
33 71 1
33 109 1
33 147 1
33 185 1
33 223 1
33 375 1
33 413 1
33 451 1
34 34 1
34 72 1
34 110 1
34 148 1
34 186 1
34 224 1
34 376 1
34 414 1
34 452 1
35 35 1
35 73 1
35 111 1
35 149 1
35 187 1
35 225 1
35 377 1
35 415 1
35 453 1
36 36 1
36 74 1
36 112 1
36 150 1
36 188 1
36 226 1
36 378 1
36 416 1
36 454 1
37 37 1
37 75 1
37 113 1
37 151 1
37 189 1
37 227 1
37 379 1
37 417 1
37 455 1
38 38 1
38 76 1
38 114 1
38 152 1
38 190 1
38 228 1
38 380 1
38 418 1
38 456 1
39 39 1
39 77 1
39 96 1
39 153 1
39 191 1
39 210 1
39 381 1
39 419 1
39 438 1
40 40 1
40 78 1
40 97 1
40 154 1
40 192 1
40 211 1
40 382 1
40 420 1
40 439 1
41 41 1
41 79 1
41 98 1
41 155 1
41 193 1
41 212 1
41 383 1
41 421 1
41 440 1
42 42 1
42 80 1
42 99 1
42 156 1
42 194 1
42 213 1
42 384 1
42 422 1
42 441 1
43 43 1
43 81 1
43 100 1
43 157 1
43 195 1
43 214 1
43 385 1
43 423 1
43 442 1
44 44 1
44 82 1
44 101 1
44 158 1
44 196 1
44 215 1
44 386 1
44 424 1
44 443 1
45 45 1
45 83 1
45 102 1
45 159 1
45 197 1
45 216 1
45 387 1
45 425 1
45 444 1
46 46 1
46 84 1
46 103 1
46 160 1
46 198 1
46 217 1
46 388 1
46 426 1
46 445 1
47 47 1
47 85 1
47 104 1
47 161 1
47 199 1
47 218 1
47 389 1
47 427 1
47 446 1
48 48 1
48 86 1
48 105 1
48 162 1
48 200 1
48 219 1
48 390 1
48 428 1
48 447 1
49 49 1
49 87 1
49 106 1
49 163 1
49 201 1
49 220 1
49 391 1
49 429 1
49 448 1
50 50 1
50 88 1
50 107 1
50 164 1
50 202 1
50 221 1
50 392 1
50 430 1
50 449 1
51 51 1
51 89 1
51 108 1
51 165 1
51 203 1
51 222 1
51 393 1
51 431 1
51 450 1
52 52 1
52 90 1
52 109 1
52 166 1
52 204 1
52 223 1
52 394 1
52 432 1
52 451 1
53 53 1
53 91 1
53 110 1
53 167 1
53 205 1
53 224 1
53 395 1
53 433 1
53 452 1
54 54 1
54 92 1
54 111 1
54 168 1
54 206 1
54 225 1
54 396 1
54 434 1
54 453 1
55 55 1
55 93 1
55 112 1
55 169 1
55 207 1
55 226 1
55 397 1
55 435 1
55 454 1
56 56 1
56 94 1
56 113 1
56 170 1
56 208 1
56 227 1
56 398 1
56 436 1
56 455 1
57 57 1
57 95 1
57 114 1
57 171 1
57 209 1
57 228 1
57 399 1
57 437 1
57 456 1
58 1 1
58 58 1
58 77 1
58 229 1
58 286 1
58 305 1
58 457 1
58 514 1
58 533 1
59 2 1
59 59 1
59 78 1
59 230 1
59 287 1
59 306 1
59 458 1
59 515 1
59 534 1
60 3 1
60 60 1
60 79 1
60 231 1
60 288 1
60 307 1
60 459 1
60 516 1
60 535 1
61 4 1
61 61 1
61 80 1
61 232 1
61 289 1
61 308 1
61 460 1
61 517 1
61 536 1
62 5 1
62 62 1
62 81 1
62 233 1
62 290 1
62 309 1
62 461 1
62 518 1
62 537 1
63 6 1
63 63 1
63 82 1
63 234 1
63 291 1
63 310 1
63 462 1
63 519 1
63 538 1
64 7 1
64 64 1
64 83 1
64 235 1
64 292 1
64 311 1
64 463 1
64 520 1
64 539 1
65 8 1
65 65 1
65 84 1
65 236 1
65 293 1
65 312 1
65 464 1
65 521 1
65 540 1
66 9 1
66 66 1
66 85 1
66 237 1
66 294 1
66 313 1
66 465 1
66 522 1
66 541 1
67 10 1
67 67 1
67 86 1
67 238 1
67 295 1
67 314 1
67 466 1
67 523 1
67 542 1
68 11 1
68 68 1
68 87 1
68 239 1
68 296 1
68 315 1
68 467 1
68 524 1
68 543 1
69 12 1
69 69 1
69 88 1
69 240 1
69 297 1
69 316 1
69 468 1
69 525 1
69 544 1
70 13 1
70 70 1
70 89 1
70 241 1
70 298 1
70 317 1
70 469 1
70 526 1
70 545 1
71 14 1
71 71 1
71 90 1
71 242 1
71 299 1
71 318 1
71 470 1
71 527 1
71 546 1
72 15 1
72 72 1
72 91 1
72 243 1
72 300 1
72 319 1
72 471 1
72 528 1
72 547 1
73 16 1
73 73 1
73 92 1
73 244 1
73 301 1
73 320 1
73 472 1
73 529 1
73 548 1
74 17 1
74 74 1
74 93 1
74 245 1
74 302 1
74 321 1
74 473 1
74 530 1
74 549 1
75 18 1
75 75 1
75 94 1
75 246 1
75 303 1
75 322 1
75 474 1
75 531 1
75 550 1
76 19 1
76 76 1
76 95 1
76 247 1
76 304 1
76 323 1
76 475 1
76 532 1
76 551 1
77 20 1
77 58 1
77 96 1
77 248 1
77 286 1
77 324 1
77 476 1
77 514 1
77 552 1
78 21 1
78 59 1
78 97 1
78 249 1
78 287 1
78 325 1
78 477 1
78 515 1
78 553 1
79 22 1
79 60 1
79 98 1
79 250 1
79 288 1
79 326 1
79 478 1
79 516 1
79 554 1
80 23 1
80 61 1
80 99 1
80 251 1
80 289 1
80 327 1
80 479 1
80 517 1
80 555 1
81 24 1
81 62 1
81 100 1
81 252 1
81 290 1
81 328 1
81 480 1
81 518 1
81 556 1
82 25 1
82 63 1
82 101 1
82 253 1
82 291 1
82 329 1
82 481 1
82 519 1
82 557 1
83 26 1
83 64 1
83 102 1
83 254 1
83 292 1
83 330 1
83 482 1
83 520 1
83 558 1
84 27 1
84 65 1
84 103 1
84 255 1
84 293 1
84 331 1
84 483 1
84 521 1
84 559 1
85 28 1
85 66 1
85 104 1
85 256 1
85 294 1
85 332 1
85 484 1
85 522 1
85 560 1
86 29 1
86 67 1
86 105 1
86 257 1
86 295 1
86 333 1
86 485 1
86 523 1
86 561 1
87 30 1
87 68 1
87 106 1
87 258 1
87 296 1
87 334 1
87 486 1
87 524 1
87 562 1
88 31 1
88 69 1
88 107 1
88 259 1
88 297 1
88 335 1
88 487 1
88 525 1
88 563 1
89 32 1
89 70 1
89 108 1
89 260 1
89 298 1
89 336 1
89 488 1
89 526 1
89 564 1
90 33 1
90 71 1
90 109 1
90 261 1
90 299 1
90 337 1
90 489 1
90 527 1
90 565 1
91 34 1
91 72 1
91 110 1
91 262 1
91 300 1
91 338 1
91 490 1
91 528 1
91 566 1
92 35 1
92 73 1
92 111 1
92 263 1
92 301 1
92 339 1
92 491 1
92 529 1
92 567 1
93 36 1
93 74 1
93 112 1
93 264 1
93 302 1
93 340 1
93 492 1
93 530 1
93 568 1
94 37 1
94 75 1
94 113 1
94 265 1
94 303 1
94 341 1
94 493 1
94 531 1
94 569 1
95 38 1
95 76 1
95 114 1
95 266 1
95 304 1
95 342 1
95 494 1
95 532 1
95 570 1
96 39 1
96 77 1
96 96 1
96 267 1
96 305 1
96 324 1
96 495 1
96 533 1
96 552 1
97 40 1
97 78 1
97 97 1
97 268 1
97 306 1
97 325 1
97 496 1
97 534 1
97 553 1
98 41 1
98 79 1
98 98 1
98 269 1
98 307 1
98 326 1
98 497 1
98 535 1
98 554 1
99 42 1
99 80 1
99 99 1
99 270 1
99 308 1
99 327 1
99 498 1
99 536 1
99 555 1
100 43 1
100 81 1
100 100 1
100 271 1
100 309 1
100 328 1
100 499 1
100 537 1
100 556 1
101 44 1
101 82 1
101 101 1
101 272 1
101 310 1
101 329 1
101 500 1
101 538 1
101 557 1
102 45 1
102 83 1
102 102 1
102 273 1
102 311 1
102 330 1
102 501 1
102 539 1
102 558 1
103 46 1
103 84 1
103 103 1
103 274 1
103 312 1
103 331 1
103 502 1
103 540 1
103 559 1
104 47 1
104 85 1
104 104 1
104 275 1
104 313 1
104 332 1
104 503 1
104 541 1
104 560 1
105 48 1
105 86 1
105 105 1
105 276 1
105 314 1
105 333 1
105 504 1
105 542 1
105 561 1
106 49 1
106 87 1
106 106 1
106 277 1
106 315 1
106 334 1
106 505 1
106 543 1
106 562 1
107 50 1
107 88 1
107 107 1
107 278 1
107 316 1
107 335 1
107 506 1
107 544 1
107 563 1
108 51 1
108 89 1
108 108 1
108 279 1
108 317 1
108 336 1
108 507 1
108 545 1
108 564 1
109 52 1
109 90 1
109 109 1
109 280 1
109 318 1
109 337 1
109 508 1
109 546 1
109 565 1
110 53 1
110 91 1
110 110 1
110 281 1
110 319 1
110 338 1
110 509 1
110 547 1
110 566 1
111 54 1
111 92 1
111 111 1
111 282 1
111 320 1
111 339 1
111 510 1
111 548 1
111 567 1
112 55 1
112 93 1
112 112 1
112 283 1
112 321 1
112 340 1
112 511 1
112 549 1
112 568 1
113 56 1
113 94 1
113 113 1
113 284 1
113 322 1
113 341 1
113 512 1
113 550 1
113 569 1
114 57 1
114 95 1
114 114 1
114 285 1
114 323 1
114 342 1
114 513 1
114 551 1
114 570 1
115 115 1
115 172 1
115 191 1
115 229 1
115 286 1
115 305 1
115 571 1
115 628 1
115 647 1
116 116 1
116 173 1
116 192 1
116 230 1
116 287 1
116 306 1
116 572 1
116 629 1
116 648 1
117 117 1
117 174 1
117 193 1
117 231 1
117 288 1
117 307 1
117 573 1
117 630 1
117 649 1
118 118 1
118 175 1
118 194 1
118 232 1
118 289 1
118 308 1
118 574 1
118 631 1
118 650 1
119 119 1
119 176 1
119 195 1
119 233 1
119 290 1
119 309 1
119 575 1
119 632 1
119 651 1
120 120 1
120 177 1
120 196 1
120 234 1
120 291 1
120 310 1
120 576 1
120 633 1
120 652 1
121 121 1
121 178 1
121 197 1
121 235 1
121 292 1
121 311 1
121 577 1
121 634 1
121 653 1
122 122 1
122 179 1
122 198 1
122 236 1
122 293 1
122 312 1
122 578 1
122 635 1
122 654 1
123 123 1
123 180 1
123 199 1
123 237 1
123 294 1
123 313 1
123 579 1
123 636 1
123 655 1
124 124 1
124 181 1
124 200 1
124 238 1
124 295 1
124 314 1
124 580 1
124 637 1
124 656 1
125 125 1
125 182 1
125 201 1
125 239 1
125 296 1
125 315 1
125 581 1
125 638 1
125 657 1
126 126 1
126 183 1
126 202 1
126 240 1
126 297 1
126 316 1
126 582 1
126 639 1
126 658 1
127 127 1
127 184 1
127 203 1
127 241 1
127 298 1
127 317 1
127 583 1
127 640 1
127 659 1
128 128 1
128 185 1
128 204 1
128 242 1
128 299 1
128 318 1
128 584 1
128 641 1
128 660 1
129 129 1
129 186 1
129 205 1
129 243 1
129 300 1
129 319 1
129 585 1
129 642 1
129 661 1
130 130 1
130 187 1
130 206 1
130 244 1
130 301 1
130 320 1
130 586 1
130 643 1
130 662 1
131 131 1
131 188 1
131 207 1
131 245 1
131 302 1
131 321 1
131 587 1
131 644 1
131 663 1
132 132 1
132 189 1
132 208 1
132 246 1
132 303 1
132 322 1
132 588 1
132 645 1
132 664 1
133 133 1
133 190 1
133 209 1
133 247 1
133 304 1
133 323 1
133 589 1
133 646 1
133 665 1
134 134 1
134 172 1
134 210 1
134 248 1
134 286 1
134 324 1
134 590 1
134 628 1
134 666 1
135 135 1
135 173 1
135 211 1
135 249 1
135 287 1
135 325 1
135 591 1
135 629 1
135 667 1
136 136 1
136 174 1
136 212 1
136 250 1
136 288 1
136 326 1
136 592 1
136 630 1
136 668 1
137 137 1
137 175 1
137 213 1
137 251 1
137 289 1
137 327 1
137 593 1
137 631 1
137 669 1
138 138 1
138 176 1
138 214 1
138 252 1
138 290 1
138 328 1
138 594 1
138 632 1
138 670 1
139 139 1
139 177 1
139 215 1
139 253 1
139 291 1
139 329 1
139 595 1
139 633 1
139 671 1
140 140 1
140 178 1
140 216 1
140 254 1
140 292 1
140 330 1
140 596 1
140 634 1
140 672 1
141 141 1
141 179 1
141 217 1
141 255 1
141 293 1
141 331 1
141 597 1
141 635 1
141 673 1
142 142 1
142 180 1
142 218 1
142 256 1
142 294 1
142 332 1
142 598 1
142 636 1
142 674 1
143 143 1
143 181 1
143 219 1
143 257 1
143 295 1
143 333 1
143 599 1
143 637 1
143 675 1
144 144 1
144 182 1
144 220 1
144 258 1
144 296 1
144 334 1
144 600 1
144 638 1
144 676 1
145 145 1
145 183 1
145 221 1
145 259 1
145 297 1
145 335 1
145 601 1
145 639 1
145 677 1
146 146 1
146 184 1
146 222 1
146 260 1
146 298 1
146 336 1
146 602 1
146 640 1
146 678 1
147 147 1
147 185 1
147 223 1
147 261 1
147 299 1
147 337 1
147 603 1
147 641 1
147 679 1
148 148 1
148 186 1
148 224 1
148 262 1
148 300 1
148 338 1
148 604 1
148 642 1
148 680 1
149 149 1
149 187 1
149 225 1
149 263 1
149 301 1
149 339 1
149 605 1
149 643 1
149 681 1
150 150 1
150 188 1
150 226 1
150 264 1
150 302 1
150 340 1
150 606 1
150 644 1
150 682 1
151 151 1
151 189 1
151 227 1
151 265 1
151 303 1
151 341 1
151 607 1
151 645 1
151 683 1
152 152 1
152 190 1
152 228 1
152 266 1
152 304 1
152 342 1
152 608 1
152 646 1
152 684 1
153 153 1
153 191 1
153 210 1
153 267 1
153 305 1
153 324 1
153 609 1
153 647 1
153 666 1
154 154 1
154 192 1
154 211 1
154 268 1
154 306 1
154 325 1
154 610 1
154 648 1
154 667 1
155 155 1
155 193 1
155 212 1
155 269 1
155 307 1
155 326 1
155 611 1
155 649 1
155 668 1
156 156 1
156 194 1
156 213 1
156 270 1
156 308 1
156 327 1
156 612 1
156 650 1
156 669 1
157 157 1
157 195 1
157 214 1
157 271 1
157 309 1
157 328 1
157 613 1
157 651 1
157 670 1
158 158 1
158 196 1
158 215 1
158 272 1
158 310 1
158 329 1
158 614 1
158 652 1
158 671 1
159 159 1
159 197 1
159 216 1
159 273 1
159 311 1
159 330 1
159 615 1
159 653 1
159 672 1
160 160 1
160 198 1
160 217 1
160 274 1
160 312 1
160 331 1
160 616 1
160 654 1
160 673 1
161 161 1
161 199 1
161 218 1
161 275 1
161 313 1
161 332 1
161 617 1
161 655 1
161 674 1
162 162 1
162 200 1
162 219 1
162 276 1
162 314 1
162 333 1
162 618 1
162 656 1
162 675 1
163 163 1
163 201 1
163 220 1
163 277 1
163 315 1
163 334 1
163 619 1
163 657 1
163 676 1
164 164 1
164 202 1
164 221 1
164 278 1
164 316 1
164 335 1
164 620 1
164 658 1
164 677 1
165 165 1
165 203 1
165 222 1
165 279 1
165 317 1
165 336 1
165 621 1
165 659 1
165 678 1
166 166 1
166 204 1
166 223 1
166 280 1
166 318 1
166 337 1
166 622 1
166 660 1
166 679 1
167 167 1
167 205 1
167 224 1
167 281 1
167 319 1
167 338 1
167 623 1
167 661 1
167 680 1
168 168 1
168 206 1
168 225 1
168 282 1
168 320 1
168 339 1
168 624 1
168 662 1
168 681 1
169 169 1
169 207 1
169 226 1
169 283 1
169 321 1
169 340 1
169 625 1
169 663 1
169 682 1
170 170 1
170 208 1
170 227 1
170 284 1
170 322 1
170 341 1
170 626 1
170 664 1
170 683 1
171 171 1
171 209 1
171 228 1
171 285 1
171 323 1
171 342 1
171 627 1
171 665 1
171 684 1
172 1 1
172 69 1
172 83 1
172 116 1
172 184 1
172 198 1
172 354 1
172 403 1
172 436 1
173 2 1
173 70 1
173 84 1
173 117 1
173 185 1
173 199 1
173 355 1
173 404 1
173 437 1
174 3 1
174 71 1
174 85 1
174 118 1
174 186 1
174 200 1
174 356 1
174 405 1
174 419 1
175 4 1
175 72 1
175 86 1
175 119 1
175 187 1
175 201 1
175 357 1
175 406 1
175 420 1
176 5 1
176 73 1
176 87 1
176 120 1
176 188 1
176 202 1
176 358 1
176 407 1
176 421 1
177 6 1
177 74 1
177 88 1
177 121 1
177 189 1
177 203 1
177 359 1
177 408 1
177 422 1
178 7 1
178 75 1
178 89 1
178 122 1
178 190 1
178 204 1
178 360 1
178 409 1
178 423 1
179 8 1
179 76 1
179 90 1
179 123 1
179 172 1
179 205 1
179 361 1
179 410 1
179 424 1
180 9 1
180 58 1
180 91 1
180 124 1
180 173 1
180 206 1
180 343 1
180 411 1
180 425 1
181 10 1
181 59 1
181 92 1
181 125 1
181 174 1
181 207 1
181 344 1
181 412 1
181 426 1
182 11 1
182 60 1
182 93 1
182 126 1
182 175 1
182 208 1
182 345 1
182 413 1
182 427 1
183 12 1
183 61 1
183 94 1
183 127 1
183 176 1
183 209 1
183 346 1
183 414 1
183 428 1
184 13 1
184 62 1
184 95 1
184 128 1
184 177 1
184 191 1
184 347 1
184 415 1
184 429 1
185 14 1
185 63 1
185 77 1
185 129 1
185 178 1
185 192 1
185 348 1
185 416 1
185 430 1
186 15 1
186 64 1
186 78 1
186 130 1
186 179 1
186 193 1
186 349 1
186 417 1
186 431 1
187 16 1
187 65 1
187 79 1
187 131 1
187 180 1
187 194 1
187 350 1
187 418 1
187 432 1
188 17 1
188 66 1
188 80 1
188 132 1
188 181 1
188 195 1
188 351 1
188 400 1
188 433 1
189 18 1
189 67 1
189 81 1
189 133 1
189 182 1
189 196 1
189 352 1
189 401 1
189 434 1
190 19 1
190 68 1
190 82 1
190 115 1
190 183 1
190 197 1
190 353 1
190 402 1
190 435 1
191 37 1
191 69 1
191 101 1
191 152 1
191 184 1
191 216 1
191 371 1
191 403 1
191 454 1
192 38 1
192 70 1
192 102 1
192 134 1
192 185 1
192 217 1
192 372 1
192 404 1
192 455 1
193 20 1
193 71 1
193 103 1
193 135 1
193 186 1
193 218 1
193 373 1
193 405 1
193 456 1
194 21 1
194 72 1
194 104 1
194 136 1
194 187 1
194 219 1
194 374 1
194 406 1
194 438 1
195 22 1
195 73 1
195 105 1
195 137 1
195 188 1
195 220 1
195 375 1
195 407 1
195 439 1
196 23 1
196 74 1
196 106 1
196 138 1
196 189 1
196 221 1
196 376 1
196 408 1
196 440 1
197 24 1
197 75 1
197 107 1
197 139 1
197 190 1
197 222 1
197 377 1
197 409 1
197 441 1
198 25 1
198 76 1
198 108 1
198 140 1
198 172 1
198 223 1
198 378 1
198 410 1
198 442 1
199 26 1
199 58 1
199 109 1
199 141 1
199 173 1
199 224 1
199 379 1
199 411 1
199 443 1
200 27 1
200 59 1
200 110 1
200 142 1
200 174 1
200 225 1
200 380 1
200 412 1
200 444 1
201 28 1
201 60 1
201 111 1
201 143 1
201 175 1
201 226 1
201 362 1
201 413 1
201 445 1
202 29 1
202 61 1
202 112 1
202 144 1
202 176 1
202 227 1
202 363 1
202 414 1
202 446 1
203 30 1
203 62 1
203 113 1
203 145 1
203 177 1
203 228 1
203 364 1
203 415 1
203 447 1
204 31 1
204 63 1
204 114 1
204 146 1
204 178 1
204 210 1
204 365 1
204 416 1
204 448 1
205 32 1
205 64 1
205 96 1
205 147 1
205 179 1
205 211 1
205 366 1
205 417 1
205 449 1
206 33 1
206 65 1
206 97 1
206 148 1
206 180 1
206 212 1
206 367 1
206 418 1
206 450 1
207 34 1
207 66 1
207 98 1
207 149 1
207 181 1
207 213 1
207 368 1
207 400 1
207 451 1
208 35 1
208 67 1
208 99 1
208 150 1
208 182 1
208 214 1
208 369 1
208 401 1
208 452 1
209 36 1
209 68 1
209 100 1
209 151 1
209 183 1
209 215 1
209 370 1
209 402 1
209 453 1
210 51 1
210 83 1
210 101 1
210 166 1
210 198 1
210 216 1
210 385 1
210 436 1
210 454 1
211 52 1
211 84 1
211 102 1
211 167 1
211 199 1
211 217 1
211 386 1
211 437 1
211 455 1
212 53 1
212 85 1
212 103 1
212 168 1
212 200 1
212 218 1
212 387 1
212 419 1
212 456 1
213 54 1
213 86 1
213 104 1
213 169 1
213 201 1
213 219 1
213 388 1
213 420 1
213 438 1
214 55 1
214 87 1
214 105 1
214 170 1
214 202 1
214 220 1
214 389 1
214 421 1
214 439 1
215 56 1
215 88 1
215 106 1
215 171 1
215 203 1
215 221 1
215 390 1
215 422 1
215 440 1
216 57 1
216 89 1
216 107 1
216 153 1
216 204 1
216 222 1
216 391 1
216 423 1
216 441 1
217 39 1
217 90 1
217 108 1
217 154 1
217 205 1
217 223 1
217 392 1
217 424 1
217 442 1
218 40 1
218 91 1
218 109 1
218 155 1
218 206 1
218 224 1
218 393 1
218 425 1
218 443 1
219 41 1
219 92 1
219 110 1
219 156 1
219 207 1
219 225 1
219 394 1
219 426 1
219 444 1
220 42 1
220 93 1
220 111 1
220 157 1
220 208 1
220 226 1
220 395 1
220 427 1
220 445 1
221 43 1
221 94 1
221 112 1
221 158 1
221 209 1
221 227 1
221 396 1
221 428 1
221 446 1
222 44 1
222 95 1
222 113 1
222 159 1
222 191 1
222 228 1
222 397 1
222 429 1
222 447 1
223 45 1
223 77 1
223 114 1
223 160 1
223 192 1
223 210 1
223 398 1
223 430 1
223 448 1
224 46 1
224 78 1
224 96 1
224 161 1
224 193 1
224 211 1
224 399 1
224 431 1
224 449 1
225 47 1
225 79 1
225 97 1
225 162 1
225 194 1
225 212 1
225 381 1
225 432 1
225 450 1
226 48 1
226 80 1
226 98 1
226 163 1
226 195 1
226 213 1
226 382 1
226 433 1
226 451 1
227 49 1
227 81 1
227 99 1
227 164 1
227 196 1
227 214 1
227 383 1
227 434 1
227 452 1
228 50 1
228 82 1
228 100 1
228 165 1
228 197 1
228 215 1
228 384 1
228 435 1
228 453 1
229 1 1
229 69 1
229 83 1
229 233 1
229 301 1
229 315 1
229 471 1
229 520 1
229 534 1
230 2 1
230 70 1
230 84 1
230 234 1
230 302 1
230 316 1
230 472 1
230 521 1
230 535 1
231 3 1
231 71 1
231 85 1
231 235 1
231 303 1
231 317 1
231 473 1
231 522 1
231 536 1
232 4 1
232 72 1
232 86 1
232 236 1
232 304 1
232 318 1
232 474 1
232 523 1
232 537 1
233 5 1
233 73 1
233 87 1
233 237 1
233 286 1
233 319 1
233 475 1
233 524 1
233 538 1
234 6 1
234 74 1
234 88 1
234 238 1
234 287 1
234 320 1
234 457 1
234 525 1
234 539 1
235 7 1
235 75 1
235 89 1
235 239 1
235 288 1
235 321 1
235 458 1
235 526 1
235 540 1
236 8 1
236 76 1
236 90 1
236 240 1
236 289 1
236 322 1
236 459 1
236 527 1
236 541 1
237 9 1
237 58 1
237 91 1
237 241 1
237 290 1
237 323 1
237 460 1
237 528 1
237 542 1
238 10 1
238 59 1
238 92 1
238 242 1
238 291 1
238 305 1
238 461 1
238 529 1
238 543 1
239 11 1
239 60 1
239 93 1
239 243 1
239 292 1
239 306 1
239 462 1
239 530 1
239 544 1
240 12 1
240 61 1
240 94 1
240 244 1
240 293 1
240 307 1
240 463 1
240 531 1
240 545 1
241 13 1
241 62 1
241 95 1
241 245 1
241 294 1
241 308 1
241 464 1
241 532 1
241 546 1
242 14 1
242 63 1
242 77 1
242 246 1
242 295 1
242 309 1
242 465 1
242 514 1
242 547 1
243 15 1
243 64 1
243 78 1
243 247 1
243 296 1
243 310 1
243 466 1
243 515 1
243 548 1
244 16 1
244 65 1
244 79 1
244 229 1
244 297 1
244 311 1
244 467 1
244 516 1
244 549 1
245 17 1
245 66 1
245 80 1
245 230 1
245 298 1
245 312 1
245 468 1
245 517 1
245 550 1
246 18 1
246 67 1
246 81 1
246 231 1
246 299 1
246 313 1
246 469 1
246 518 1
246 551 1
247 19 1
247 68 1
247 82 1
247 232 1
247 300 1
247 314 1
247 470 1
247 519 1
247 533 1
248 37 1
248 69 1
248 101 1
248 250 1
248 301 1
248 333 1
248 488 1
248 520 1
248 552 1
249 38 1
249 70 1
249 102 1
249 251 1
249 302 1
249 334 1
249 489 1
249 521 1
249 553 1
250 20 1
250 71 1
250 103 1
250 252 1
250 303 1
250 335 1
250 490 1
250 522 1
250 554 1
251 21 1
251 72 1
251 104 1
251 253 1
251 304 1
251 336 1
251 491 1
251 523 1
251 555 1
252 22 1
252 73 1
252 105 1
252 254 1
252 286 1
252 337 1
252 492 1
252 524 1
252 556 1
253 23 1
253 74 1
253 106 1
253 255 1
253 287 1
253 338 1
253 493 1
253 525 1
253 557 1
254 24 1
254 75 1
254 107 1
254 256 1
254 288 1
254 339 1
254 494 1
254 526 1
254 558 1
255 25 1
255 76 1
255 108 1
255 257 1
255 289 1
255 340 1
255 476 1
255 527 1
255 559 1
256 26 1
256 58 1
256 109 1
256 258 1
256 290 1
256 341 1
256 477 1
256 528 1
256 560 1
257 27 1
257 59 1
257 110 1
257 259 1
257 291 1
257 342 1
257 478 1
257 529 1
257 561 1
258 28 1
258 60 1
258 111 1
258 260 1
258 292 1
258 324 1
258 479 1
258 530 1
258 562 1
259 29 1
259 61 1
259 112 1
259 261 1
259 293 1
259 325 1
259 480 1
259 531 1
259 563 1
260 30 1
260 62 1
260 113 1
260 262 1
260 294 1
260 326 1
260 481 1
260 532 1
260 564 1
261 31 1
261 63 1
261 114 1
261 263 1
261 295 1
261 327 1
261 482 1
261 514 1
261 565 1
262 32 1
262 64 1
262 96 1
262 264 1
262 296 1
262 328 1
262 483 1
262 515 1
262 566 1
263 33 1
263 65 1
263 97 1
263 265 1
263 297 1
263 329 1
263 484 1
263 516 1
263 567 1
264 34 1
264 66 1
264 98 1
264 266 1
264 298 1
264 330 1
264 485 1
264 517 1
264 568 1
265 35 1
265 67 1
265 99 1
265 248 1
265 299 1
265 331 1
265 486 1
265 518 1
265 569 1
266 36 1
266 68 1
266 100 1
266 249 1
266 300 1
266 332 1
266 487 1
266 519 1
266 570 1
267 51 1
267 83 1
267 101 1
267 283 1
267 315 1
267 333 1
267 502 1
267 534 1
267 552 1
268 52 1
268 84 1
268 102 1
268 284 1
268 316 1
268 334 1
268 503 1
268 535 1
268 553 1
269 53 1
269 85 1
269 103 1
269 285 1
269 317 1
269 335 1
269 504 1
269 536 1
269 554 1
270 54 1
270 86 1
270 104 1
270 267 1
270 318 1
270 336 1
270 505 1
270 537 1
270 555 1
271 55 1
271 87 1
271 105 1
271 268 1
271 319 1
271 337 1
271 506 1
271 538 1
271 556 1
272 56 1
272 88 1
272 106 1
272 269 1
272 320 1
272 338 1
272 507 1
272 539 1
272 557 1
273 57 1
273 89 1
273 107 1
273 270 1
273 321 1
273 339 1
273 508 1
273 540 1
273 558 1
274 39 1
274 90 1
274 108 1
274 271 1
274 322 1
274 340 1
274 509 1
274 541 1
274 559 1
275 40 1
275 91 1
275 109 1
275 272 1
275 323 1
275 341 1
275 510 1
275 542 1
275 560 1
276 41 1
276 92 1
276 110 1
276 273 1
276 305 1
276 342 1
276 511 1
276 543 1
276 561 1
277 42 1
277 93 1
277 111 1
277 274 1
277 306 1
277 324 1
277 512 1
277 544 1
277 562 1
278 43 1
278 94 1
278 112 1
278 275 1
278 307 1
278 325 1
278 513 1
278 545 1
278 563 1
279 44 1
279 95 1
279 113 1
279 276 1
279 308 1
279 326 1
279 495 1
279 546 1
279 564 1
280 45 1
280 77 1
280 114 1
280 277 1
280 309 1
280 327 1
280 496 1
280 547 1
280 565 1
281 46 1
281 78 1
281 96 1
281 278 1
281 310 1
281 328 1
281 497 1
281 548 1
281 566 1
282 47 1
282 79 1
282 97 1
282 279 1
282 311 1
282 329 1
282 498 1
282 549 1
282 567 1
283 48 1
283 80 1
283 98 1
283 280 1
283 312 1
283 330 1
283 499 1
283 550 1
283 568 1
284 49 1
284 81 1
284 99 1
284 281 1
284 313 1
284 331 1
284 500 1
284 551 1
284 569 1
285 50 1
285 82 1
285 100 1
285 282 1
285 314 1
285 332 1
285 501 1
285 533 1
285 570 1
286 116 1
286 184 1
286 198 1
286 233 1
286 301 1
286 315 1
286 586 1
286 635 1
286 649 1
287 117 1
287 185 1
287 199 1
287 234 1
287 302 1
287 316 1
287 587 1
287 636 1
287 650 1
288 118 1
288 186 1
288 200 1
288 235 1
288 303 1
288 317 1
288 588 1
288 637 1
288 651 1
289 119 1
289 187 1
289 201 1
289 236 1
289 304 1
289 318 1
289 589 1
289 638 1
289 652 1
290 120 1
290 188 1
290 202 1
290 237 1
290 286 1
290 319 1
290 571 1
290 639 1
290 653 1
291 121 1
291 189 1
291 203 1
291 238 1
291 287 1
291 320 1
291 572 1
291 640 1
291 654 1
292 122 1
292 190 1
292 204 1
292 239 1
292 288 1
292 321 1
292 573 1
292 641 1
292 655 1
293 123 1
293 172 1
293 205 1
293 240 1
293 289 1
293 322 1
293 574 1
293 642 1
293 656 1
294 124 1
294 173 1
294 206 1
294 241 1
294 290 1
294 323 1
294 575 1
294 643 1
294 657 1
295 125 1
295 174 1
295 207 1
295 242 1
295 291 1
295 305 1
295 576 1
295 644 1
295 658 1
296 126 1
296 175 1
296 208 1
296 243 1
296 292 1
296 306 1
296 577 1
296 645 1
296 659 1
297 127 1
297 176 1
297 209 1
297 244 1
297 293 1
297 307 1
297 578 1
297 646 1
297 660 1
298 128 1
298 177 1
298 191 1
298 245 1
298 294 1
298 308 1
298 579 1
298 628 1
298 661 1
299 129 1
299 178 1
299 192 1
299 246 1
299 295 1
299 309 1
299 580 1
299 629 1
299 662 1
300 130 1
300 179 1
300 193 1
300 247 1
300 296 1
300 310 1
300 581 1
300 630 1
300 663 1
301 131 1
301 180 1
301 194 1
301 229 1
301 297 1
301 311 1
301 582 1
301 631 1
301 664 1
302 132 1
302 181 1
302 195 1
302 230 1
302 298 1
302 312 1
302 583 1
302 632 1
302 665 1
303 133 1
303 182 1
303 196 1
303 231 1
303 299 1
303 313 1
303 584 1
303 633 1
303 647 1
304 115 1
304 183 1
304 197 1
304 232 1
304 300 1
304 314 1
304 585 1
304 634 1
304 648 1
305 152 1
305 184 1
305 216 1
305 250 1
305 301 1
305 333 1
305 603 1
305 635 1
305 667 1
306 134 1
306 185 1
306 217 1
306 251 1
306 302 1
306 334 1
306 604 1
306 636 1
306 668 1
307 135 1
307 186 1
307 218 1
307 252 1
307 303 1
307 335 1
307 605 1
307 637 1
307 669 1
308 136 1
308 187 1
308 219 1
308 253 1
308 304 1
308 336 1
308 606 1
308 638 1
308 670 1
309 137 1
309 188 1
309 220 1
309 254 1
309 286 1
309 337 1
309 607 1
309 639 1
309 671 1
310 138 1
310 189 1
310 221 1
310 255 1
310 287 1
310 338 1
310 608 1
310 640 1
310 672 1
311 139 1
311 190 1
311 222 1
311 256 1
311 288 1
311 339 1
311 590 1
311 641 1
311 673 1
312 140 1
312 172 1
312 223 1
312 257 1
312 289 1
312 340 1
312 591 1
312 642 1
312 674 1
313 141 1
313 173 1
313 224 1
313 258 1
313 290 1
313 341 1
313 592 1
313 643 1
313 675 1
314 142 1
314 174 1
314 225 1
314 259 1
314 291 1
314 342 1
314 593 1
314 644 1
314 676 1
315 143 1
315 175 1
315 226 1
315 260 1
315 292 1
315 324 1
315 594 1
315 645 1
315 677 1
316 144 1
316 176 1
316 227 1
316 261 1
316 293 1
316 325 1
316 595 1
316 646 1
316 678 1
317 145 1
317 177 1
317 228 1
317 262 1
317 294 1
317 326 1
317 596 1
317 628 1
317 679 1
318 146 1
318 178 1
318 210 1
318 263 1
318 295 1
318 327 1
318 597 1
318 629 1
318 680 1
319 147 1
319 179 1
319 211 1
319 264 1
319 296 1
319 328 1
319 598 1
319 630 1
319 681 1
320 148 1
320 180 1
320 212 1
320 265 1
320 297 1
320 329 1
320 599 1
320 631 1
320 682 1
321 149 1
321 181 1
321 213 1
321 266 1
321 298 1
321 330 1
321 600 1
321 632 1
321 683 1
322 150 1
322 182 1
322 214 1
322 248 1
322 299 1
322 331 1
322 601 1
322 633 1
322 684 1
323 151 1
323 183 1
323 215 1
323 249 1
323 300 1
323 332 1
323 602 1
323 634 1
323 666 1
324 166 1
324 198 1
324 216 1
324 283 1
324 315 1
324 333 1
324 617 1
324 649 1
324 667 1
325 167 1
325 199 1
325 217 1
325 284 1
325 316 1
325 334 1
325 618 1
325 650 1
325 668 1
326 168 1
326 200 1
326 218 1
326 285 1
326 317 1
326 335 1
326 619 1
326 651 1
326 669 1
327 169 1
327 201 1
327 219 1
327 267 1
327 318 1
327 336 1
327 620 1
327 652 1
327 670 1
328 170 1
328 202 1
328 220 1
328 268 1
328 319 1
328 337 1
328 621 1
328 653 1
328 671 1
329 171 1
329 203 1
329 221 1
329 269 1
329 320 1
329 338 1
329 622 1
329 654 1
329 672 1
330 153 1
330 204 1
330 222 1
330 270 1
330 321 1
330 339 1
330 623 1
330 655 1
330 673 1
331 154 1
331 205 1
331 223 1
331 271 1
331 322 1
331 340 1
331 624 1
331 656 1
331 674 1
332 155 1
332 206 1
332 224 1
332 272 1
332 323 1
332 341 1
332 625 1
332 657 1
332 675 1
333 156 1
333 207 1
333 225 1
333 273 1
333 305 1
333 342 1
333 626 1
333 658 1
333 676 1
334 157 1
334 208 1
334 226 1
334 274 1
334 306 1
334 324 1
334 627 1
334 659 1
334 677 1
335 158 1
335 209 1
335 227 1
335 275 1
335 307 1
335 325 1
335 609 1
335 660 1
335 678 1
336 159 1
336 191 1
336 228 1
336 276 1
336 308 1
336 326 1
336 610 1
336 661 1
336 679 1
337 160 1
337 192 1
337 210 1
337 277 1
337 309 1
337 327 1
337 611 1
337 662 1
337 680 1
338 161 1
338 193 1
338 211 1
338 278 1
338 310 1
338 328 1
338 612 1
338 663 1
338 681 1
339 162 1
339 194 1
339 212 1
339 279 1
339 311 1
339 329 1
339 613 1
339 664 1
339 682 1
340 163 1
340 195 1
340 213 1
340 280 1
340 312 1
340 330 1
340 614 1
340 665 1
340 683 1
341 164 1
341 196 1
341 214 1
341 281 1
341 313 1
341 331 1
341 615 1
341 647 1
341 684 1
342 165 1
342 197 1
342 215 1
342 282 1
342 314 1
342 332 1
342 616 1
342 648 1
342 666 1
