%%MatrixMarket matrix coordinate integer general
306 612 2754
1 1 1
1 18 1
1 75 1
1 307 1
1 324 1
1 381 1
1 409 1
1 426 1
1 483 1
2 2 1
2 19 1
2 76 1
2 308 1
2 325 1
2 382 1
2 410 1
2 427 1
2 484 1
3 3 1
3 20 1
3 77 1
3 309 1
3 326 1
3 383 1
3 411 1
3 428 1
3 485 1
4 4 1
4 21 1
4 78 1
4 310 1
4 327 1
4 384 1
4 412 1
4 429 1
4 486 1
5 5 1
5 22 1
5 79 1
5 311 1
5 328 1
5 385 1
5 413 1
5 430 1
5 487 1
6 6 1
6 23 1
6 80 1
6 312 1
6 329 1
6 386 1
6 414 1
6 431 1
6 488 1
7 7 1
7 24 1
7 81 1
7 313 1
7 330 1
7 387 1
7 415 1
7 432 1
7 489 1
8 8 1
8 25 1
8 82 1
8 314 1
8 331 1
8 388 1
8 416 1
8 433 1
8 490 1
9 9 1
9 26 1
9 83 1
9 315 1
9 332 1
9 389 1
9 417 1
9 434 1
9 491 1
10 10 1
10 27 1
10 84 1
10 316 1
10 333 1
10 390 1
10 418 1
10 435 1
10 492 1
11 11 1
11 28 1
11 85 1
11 317 1
11 334 1
11 391 1
11 419 1
11 436 1
11 493 1
12 12 1
12 29 1
12 69 1
12 318 1
12 335 1
12 375 1
12 420 1
12 437 1
12 477 1
13 13 1
13 30 1
13 70 1
13 319 1
13 336 1
13 376 1
13 421 1
13 438 1
13 478 1
14 14 1
14 31 1
14 71 1
14 320 1
14 337 1
14 377 1
14 422 1
14 439 1
14 479 1
15 15 1
15 32 1
15 72 1
15 321 1
15 338 1
15 378 1
15 423 1
15 440 1
15 480 1
16 16 1
16 33 1
16 73 1
16 322 1
16 339 1
16 379 1
16 424 1
16 441 1
16 481 1
17 17 1
17 34 1
17 74 1
17 323 1
17 340 1
17 380 1
17 425 1
17 442 1
17 482 1
18 1 1
18 63 1
18 89 1
18 307 1
18 369 1
18 395 1
18 409 1
18 471 1
18 497 1
19 2 1
19 64 1
19 90 1
19 308 1
19 370 1
19 396 1
19 410 1
19 472 1
19 498 1
20 3 1
20 65 1
20 91 1
20 309 1
20 371 1
20 397 1
20 411 1
20 473 1
20 499 1
21 4 1
21 66 1
21 92 1
21 310 1
21 372 1
21 398 1
21 412 1
21 474 1
21 500 1
22 5 1
22 67 1
22 93 1
22 311 1
22 373 1
22 399 1
22 413 1
22 475 1
22 501 1
23 6 1
23 68 1
23 94 1
23 312 1
23 374 1
23 400 1
23 414 1
23 476 1
23 502 1
24 7 1
24 52 1
24 95 1
24 313 1
24 358 1
24 401 1
24 415 1
24 460 1
24 503 1
25 8 1
25 53 1
25 96 1
25 314 1
25 359 1
25 402 1
25 416 1
25 461 1
25 504 1
26 9 1
26 54 1
26 97 1
26 315 1
26 360 1
26 403 1
26 417 1
26 462 1
26 505 1
27 10 1
27 55 1
27 98 1
27 316 1
27 361 1
27 404 1
27 418 1
27 463 1
27 506 1
28 11 1
28 56 1
28 99 1
28 317 1
28 362 1
28 405 1
28 419 1
28 464 1
28 507 1
29 12 1
29 57 1
29 100 1
29 318 1
29 363 1
29 406 1
29 420 1
29 465 1
29 508 1
30 13 1
30 58 1
30 101 1
30 319 1
30 364 1
30 407 1
30 421 1
30 466 1
30 509 1
31 14 1
31 59 1
31 102 1
31 320 1
31 365 1
31 408 1
31 422 1
31 467 1
31 510 1
32 15 1
32 60 1
32 86 1
32 321 1
32 366 1
32 392 1
32 423 1
32 468 1
32 494 1
33 16 1
33 61 1
33 87 1
33 322 1
33 367 1
33 393 1
33 424 1
33 469 1
33 495 1
34 17 1
34 62 1
34 88 1
34 323 1
34 368 1
34 394 1
34 425 1
34 470 1
34 496 1
35 18 1
35 49 1
35 89 1
35 324 1
35 355 1
35 395 1
35 426 1
35 457 1
35 497 1
36 19 1
36 50 1
36 90 1
36 325 1
36 356 1
36 396 1
36 427 1
36 458 1
36 498 1
37 20 1
37 51 1
37 91 1
37 326 1
37 357 1
37 397 1
37 428 1
37 459 1
37 499 1
38 21 1
38 35 1
38 92 1
38 327 1
38 341 1
38 398 1
38 429 1
38 443 1
38 500 1
39 22 1
39 36 1
39 93 1
39 328 1
39 342 1
39 399 1
39 430 1
39 444 1
39 501 1
40 23 1
40 37 1
40 94 1
40 329 1
40 343 1
40 400 1
40 431 1
40 445 1
40 502 1
41 24 1
41 38 1
41 95 1
41 330 1
41 344 1
41 401 1
41 432 1
41 446 1
41 503 1
42 25 1
42 39 1
42 96 1
42 331 1
42 345 1
42 402 1
42 433 1
42 447 1
42 504 1
43 26 1
43 40 1
43 97 1
43 332 1
43 346 1
43 403 1
43 434 1
43 448 1
43 505 1
44 27 1
44 41 1
44 98 1
44 333 1
44 347 1
44 404 1
44 435 1
44 449 1
44 506 1
45 28 1
45 42 1
45 99 1
45 334 1
45 348 1
45 405 1
45 436 1
45 450 1
45 507 1
46 29 1
46 43 1
46 100 1
46 335 1
46 349 1
46 406 1
46 437 1
46 451 1
46 508 1
47 30 1
47 44 1
47 101 1
47 336 1
47 350 1
47 407 1
47 438 1
47 452 1
47 509 1
48 31 1
48 45 1
48 102 1
48 337 1
48 351 1
48 408 1
48 439 1
48 453 1
48 510 1
49 32 1
49 46 1
49 86 1
49 338 1
49 352 1
49 392 1
49 440 1
49 454 1
49 494 1
50 33 1
50 47 1
50 87 1
50 339 1
50 353 1
50 393 1
50 441 1
50 455 1
50 495 1
51 34 1
51 48 1
51 88 1
51 340 1
51 354 1
51 394 1
51 442 1
51 456 1
51 496 1
52 103 1
52 120 1
52 177 1
52 307 1
52 324 1
52 381 1
52 511 1
52 528 1
52 585 1
53 104 1
53 121 1
53 178 1
53 308 1
53 325 1
53 382 1
53 512 1
53 529 1
53 586 1
54 105 1
54 122 1
54 179 1
54 309 1
54 326 1
54 383 1
54 513 1
54 530 1
54 587 1
55 106 1
55 123 1
55 180 1
55 310 1
55 327 1
55 384 1
55 514 1
55 531 1
55 588 1
56 107 1
56 124 1
56 181 1
56 311 1
56 328 1
56 385 1
56 515 1
56 532 1
56 589 1
57 108 1
57 125 1
57 182 1
57 312 1
57 329 1
57 386 1
57 516 1
57 533 1
57 590 1
58 109 1
58 126 1
58 183 1
58 313 1
58 330 1
58 387 1
58 517 1
58 534 1
58 591 1
59 110 1
59 127 1
59 184 1
59 314 1
59 331 1
59 388 1
59 518 1
59 535 1
59 592 1
60 111 1
60 128 1
60 185 1
60 315 1
60 332 1
60 389 1
60 519 1
60 536 1
60 593 1
61 112 1
61 129 1
61 186 1
61 316 1
61 333 1
61 390 1
61 520 1
61 537 1
61 594 1
62 113 1
62 130 1
62 187 1
62 317 1
62 334 1
62 391 1
62 521 1
62 538 1
62 595 1
63 114 1
63 131 1
63 171 1
63 318 1
63 335 1
63 375 1
63 522 1
63 539 1
63 579 1
64 115 1
64 132 1
64 172 1
64 319 1
64 336 1
64 376 1
64 523 1
64 540 1
64 580 1
65 116 1
65 133 1
65 173 1
65 320 1
65 337 1
65 377 1
65 524 1
65 541 1
65 581 1
66 117 1
66 134 1
66 174 1
66 321 1
66 338 1
66 378 1
66 525 1
66 542 1
66 582 1
67 118 1
67 135 1
67 175 1
67 322 1
67 339 1
67 379 1
67 526 1
67 543 1
67 583 1
68 119 1
68 136 1
68 176 1
68 323 1
68 340 1
68 380 1
68 527 1
68 544 1
68 584 1
69 103 1
69 165 1
69 191 1
69 307 1
69 369 1
69 395 1
69 511 1
69 573 1
69 599 1
70 104 1
70 166 1
70 192 1
70 308 1
70 370 1
70 396 1
70 512 1
70 574 1
70 600 1
71 105 1
71 167 1
71 193 1
71 309 1
71 371 1
71 397 1
71 513 1
71 575 1
71 601 1
72 106 1
72 168 1
72 194 1
72 310 1
72 372 1
72 398 1
72 514 1
72 576 1
72 602 1
73 107 1
73 169 1
73 195 1
73 311 1
73 373 1
73 399 1
73 515 1
73 577 1
73 603 1
74 108 1
74 170 1
74 196 1
74 312 1
74 374 1
74 400 1
74 516 1
74 578 1
74 604 1
75 109 1
75 154 1
75 197 1
75 313 1
75 358 1
75 401 1
75 517 1
75 562 1
75 605 1
76 110 1
76 155 1
76 198 1
76 314 1
76 359 1
76 402 1
76 518 1
76 563 1
76 606 1
77 111 1
77 156 1
77 199 1
77 315 1
77 360 1
77 403 1
77 519 1
77 564 1
77 607 1
78 112 1
78 157 1
78 200 1
78 316 1
78 361 1
78 404 1
78 520 1
78 565 1
78 608 1
79 113 1
79 158 1
79 201 1
79 317 1
79 362 1
79 405 1
79 521 1
79 566 1
79 609 1
80 114 1
80 159 1
80 202 1
80 318 1
80 363 1
80 406 1
80 522 1
80 567 1
80 610 1
81 115 1
81 160 1
81 203 1
81 319 1
81 364 1
81 407 1
81 523 1
81 568 1
81 611 1
82 116 1
82 161 1
82 204 1
82 320 1
82 365 1
82 408 1
82 524 1
82 569 1
82 612 1
83 117 1
83 162 1
83 188 1
83 321 1
83 366 1
83 392 1
83 525 1
83 570 1
83 596 1
84 118 1
84 163 1
84 189 1
84 322 1
84 367 1
84 393 1
84 526 1
84 571 1
84 597 1
85 119 1
85 164 1
85 190 1
85 323 1
85 368 1
85 394 1
85 527 1
85 572 1
85 598 1
86 120 1
86 151 1
86 191 1
86 324 1
86 355 1
86 395 1
86 528 1
86 559 1
86 599 1
87 121 1
87 152 1
87 192 1
87 325 1
87 356 1
87 396 1
87 529 1
87 560 1
87 600 1
88 122 1
88 153 1
88 193 1
88 326 1
88 357 1
88 397 1
88 530 1
88 561 1
88 601 1
89 123 1
89 137 1
89 194 1
89 327 1
89 341 1
89 398 1
89 531 1
89 545 1
89 602 1
90 124 1
90 138 1
90 195 1
90 328 1
90 342 1
90 399 1
90 532 1
90 546 1
90 603 1
91 125 1
91 139 1
91 196 1
91 329 1
91 343 1
91 400 1
91 533 1
91 547 1
91 604 1
92 126 1
92 140 1
92 197 1
92 330 1
92 344 1
92 401 1
92 534 1
92 548 1
92 605 1
93 127 1
93 141 1
93 198 1
93 331 1
93 345 1
93 402 1
93 535 1
93 549 1
93 606 1
94 128 1
94 142 1
94 199 1
94 332 1
94 346 1
94 403 1
94 536 1
94 550 1
94 607 1
95 129 1
95 143 1
95 200 1
95 333 1
95 347 1
95 404 1
95 537 1
95 551 1
95 608 1
96 130 1
96 144 1
96 201 1
96 334 1
96 348 1
96 405 1
96 538 1
96 552 1
96 609 1
97 131 1
97 145 1
97 202 1
97 335 1
97 349 1
97 406 1
97 539 1
97 553 1
97 610 1
98 132 1
98 146 1
98 203 1
98 336 1
98 350 1
98 407 1
98 540 1
98 554 1
98 611 1
99 133 1
99 147 1
99 204 1
99 337 1
99 351 1
99 408 1
99 541 1
99 555 1
99 612 1
100 134 1
100 148 1
100 188 1
100 338 1
100 352 1
100 392 1
100 542 1
100 556 1
100 596 1
101 135 1
101 149 1
101 189 1
101 339 1
101 353 1
101 393 1
101 543 1
101 557 1
101 597 1
102 136 1
102 150 1
102 190 1
102 340 1
102 354 1
102 394 1
102 544 1
102 558 1
102 598 1
103 205 1
103 222 1
103 279 1
103 409 1
103 426 1
103 483 1
103 511 1
103 528 1
103 585 1
104 206 1
104 223 1
104 280 1
104 410 1
104 427 1
104 484 1
104 512 1
104 529 1
104 586 1
105 207 1
105 224 1
105 281 1
105 411 1
105 428 1
105 485 1
105 513 1
105 530 1
105 587 1
106 208 1
106 225 1
106 282 1
106 412 1
106 429 1
106 486 1
106 514 1
106 531 1
106 588 1
107 209 1
107 226 1
107 283 1
107 413 1
107 430 1
107 487 1
107 515 1
107 532 1
107 589 1
108 210 1
108 227 1
108 284 1
108 414 1
108 431 1
108 488 1
108 516 1
108 533 1
108 590 1
109 211 1
109 228 1
109 285 1
109 415 1
109 432 1
109 489 1
109 517 1
109 534 1
109 591 1
110 212 1
110 229 1
110 286 1
110 416 1
110 433 1
110 490 1
110 518 1
110 535 1
110 592 1
111 213 1
111 230 1
111 287 1
111 417 1
111 434 1
111 491 1
111 519 1
111 536 1
111 593 1
112 214 1
112 231 1
112 288 1
112 418 1
112 435 1
112 492 1
112 520 1
112 537 1
112 594 1
113 215 1
113 232 1
113 289 1
113 419 1
113 436 1
113 493 1
113 521 1
113 538 1
113 595 1
114 216 1
114 233 1
114 273 1
114 420 1
114 437 1
114 477 1
114 522 1
114 539 1
114 579 1
115 217 1
115 234 1
115 274 1
115 421 1
115 438 1
115 478 1
115 523 1
115 540 1
115 580 1
116 218 1
116 235 1
116 275 1
116 422 1
116 439 1
116 479 1
116 524 1
116 541 1
116 581 1
117 219 1
117 236 1
117 276 1
117 423 1
117 440 1
117 480 1
117 525 1
117 542 1
117 582 1
118 220 1
118 237 1
118 277 1
118 424 1
118 441 1
118 481 1
118 526 1
118 543 1
118 583 1
119 221 1
119 238 1
119 278 1
119 425 1
119 442 1
119 482 1
119 527 1
119 544 1
119 584 1
120 205 1
120 267 1
120 293 1
120 409 1
120 471 1
120 497 1
120 511 1
120 573 1
120 599 1
121 206 1
121 268 1
121 294 1
121 410 1
121 472 1
121 498 1
121 512 1
121 574 1
121 600 1
122 207 1
122 269 1
122 295 1
122 411 1
122 473 1
122 499 1
122 513 1
122 575 1
122 601 1
123 208 1
123 270 1
123 296 1
123 412 1
123 474 1
123 500 1
123 514 1
123 576 1
123 602 1
124 209 1
124 271 1
124 297 1
124 413 1
124 475 1
124 501 1
124 515 1
124 577 1
124 603 1
125 210 1
125 272 1
125 298 1
125 414 1
125 476 1
125 502 1
125 516 1
125 578 1
125 604 1
126 211 1
126 256 1
126 299 1
126 415 1
126 460 1
126 503 1
126 517 1
126 562 1
126 605 1
127 212 1
127 257 1
127 300 1
127 416 1
127 461 1
127 504 1
127 518 1
127 563 1
127 606 1
128 213 1
128 258 1
128 301 1
128 417 1
128 462 1
128 505 1
128 519 1
128 564 1
128 607 1
129 214 1
129 259 1
129 302 1
129 418 1
129 463 1
129 506 1
129 520 1
129 565 1
129 608 1
130 215 1
130 260 1
130 303 1
130 419 1
130 464 1
130 507 1
130 521 1
130 566 1
130 609 1
131 216 1
131 261 1
131 304 1
131 420 1
131 465 1
131 508 1
131 522 1
131 567 1
131 610 1
132 217 1
132 262 1
132 305 1
132 421 1
132 466 1
132 509 1
132 523 1
132 568 1
132 611 1
133 218 1
133 263 1
133 306 1
133 422 1
133 467 1
133 510 1
133 524 1
133 569 1
133 612 1
134 219 1
134 264 1
134 290 1
134 423 1
134 468 1
134 494 1
134 525 1
134 570 1
134 596 1
135 220 1
135 265 1
135 291 1
135 424 1
135 469 1
135 495 1
135 526 1
135 571 1
135 597 1
136 221 1
136 266 1
136 292 1
136 425 1
136 470 1
136 496 1
136 527 1
136 572 1
136 598 1
137 222 1
137 253 1
137 293 1
137 426 1
137 457 1
137 497 1
137 528 1
137 559 1
137 599 1
138 223 1
138 254 1
138 294 1
138 427 1
138 458 1
138 498 1
138 529 1
138 560 1
138 600 1
139 224 1
139 255 1
139 295 1
139 428 1
139 459 1
139 499 1
139 530 1
139 561 1
139 601 1
140 225 1
140 239 1
140 296 1
140 429 1
140 443 1
140 500 1
140 531 1
140 545 1
140 602 1
141 226 1
141 240 1
141 297 1
141 430 1
141 444 1
141 501 1
141 532 1
141 546 1
141 603 1
142 227 1
142 241 1
142 298 1
142 431 1
142 445 1
142 502 1
142 533 1
142 547 1
142 604 1
143 228 1
143 242 1
143 299 1
143 432 1
143 446 1
143 503 1
143 534 1
143 548 1
143 605 1
144 229 1
144 243 1
144 300 1
144 433 1
144 447 1
144 504 1
144 535 1
144 549 1
144 606 1
145 230 1
145 244 1
145 301 1
145 434 1
145 448 1
145 505 1
145 536 1
145 550 1
145 607 1
146 231 1
146 245 1
146 302 1
146 435 1
146 449 1
146 506 1
146 537 1
146 551 1
146 608 1
147 232 1
147 246 1
147 303 1
147 436 1
147 450 1
147 507 1
147 538 1
147 552 1
147 609 1
148 233 1
148 247 1
148 304 1
148 437 1
148 451 1
148 508 1
148 539 1
148 553 1
148 610 1
149 234 1
149 248 1
149 305 1
149 438 1
149 452 1
149 509 1
149 540 1
149 554 1
149 611 1
150 235 1
150 249 1
150 306 1
150 439 1
150 453 1
150 510 1
150 541 1
150 555 1
150 612 1
151 236 1
151 250 1
151 290 1
151 440 1
151 454 1
151 494 1
151 542 1
151 556 1
151 596 1
152 237 1
152 251 1
152 291 1
152 441 1
152 455 1
152 495 1
152 543 1
152 557 1
152 597 1
153 238 1
153 252 1
153 292 1
153 442 1
153 456 1
153 496 1
153 544 1
153 558 1
153 598 1
154 1 1
154 18 1
154 52 1
154 314 1
154 331 1
154 365 1
154 524 1
154 541 1
154 575 1
155 2 1
155 19 1
155 53 1
155 315 1
155 332 1
155 366 1
155 525 1
155 542 1
155 576 1
156 3 1
156 20 1
156 54 1
156 316 1
156 333 1
156 367 1
156 526 1
156 543 1
156 577 1
157 4 1
157 21 1
157 55 1
157 317 1
157 334 1
157 368 1
157 527 1
157 544 1
157 578 1
158 5 1
158 22 1
158 56 1
158 318 1
158 335 1
158 369 1
158 511 1
158 528 1
158 562 1
159 6 1
159 23 1
159 57 1
159 319 1
159 336 1
159 370 1
159 512 1
159 529 1
159 563 1
160 7 1
160 24 1
160 58 1
160 320 1
160 337 1
160 371 1
160 513 1
160 530 1
160 564 1
161 8 1
161 25 1
161 59 1
161 321 1
161 338 1
161 372 1
161 514 1
161 531 1
161 565 1
162 9 1
162 26 1
162 60 1
162 322 1
162 339 1
162 373 1
162 515 1
162 532 1
162 566 1
163 10 1
163 27 1
163 61 1
163 323 1
163 340 1
163 374 1
163 516 1
163 533 1
163 567 1
164 11 1
164 28 1
164 62 1
164 307 1
164 324 1
164 358 1
164 517 1
164 534 1
164 568 1
165 12 1
165 29 1
165 63 1
165 308 1
165 325 1
165 359 1
165 518 1
165 535 1
165 569 1
166 13 1
166 30 1
166 64 1
166 309 1
166 326 1
166 360 1
166 519 1
166 536 1
166 570 1
167 14 1
167 31 1
167 65 1
167 310 1
167 327 1
167 361 1
167 520 1
167 537 1
167 571 1
168 15 1
168 32 1
168 66 1
168 311 1
168 328 1
168 362 1
168 521 1
168 538 1
168 572 1
169 16 1
169 33 1
169 67 1
169 312 1
169 329 1
169 363 1
169 522 1
169 539 1
169 573 1
170 17 1
170 34 1
170 68 1
170 313 1
170 330 1
170 364 1
170 523 1
170 540 1
170 574 1
171 1 1
171 35 1
171 69 1
171 314 1
171 348 1
171 382 1
171 524 1
171 558 1
171 592 1
172 2 1
172 36 1
172 70 1
172 315 1
172 349 1
172 383 1
172 525 1
172 559 1
172 593 1
173 3 1
173 37 1
173 71 1
173 316 1
173 350 1
173 384 1
173 526 1
173 560 1
173 594 1
174 4 1
174 38 1
174 72 1
174 317 1
174 351 1
174 385 1
174 527 1
174 561 1
174 595 1
175 5 1
175 39 1
175 73 1
175 318 1
175 352 1
175 386 1
175 511 1
175 545 1
175 579 1
176 6 1
176 40 1
176 74 1
176 319 1
176 353 1
176 387 1
176 512 1
176 546 1
176 580 1
177 7 1
177 41 1
177 75 1
177 320 1
177 354 1
177 388 1
177 513 1
177 547 1
177 581 1
178 8 1
178 42 1
178 76 1
178 321 1
178 355 1
178 389 1
178 514 1
178 548 1
178 582 1
179 9 1
179 43 1
179 77 1
179 322 1
179 356 1
179 390 1
179 515 1
179 549 1
179 583 1
180 10 1
180 44 1
180 78 1
180 323 1
180 357 1
180 391 1
180 516 1
180 550 1
180 584 1
181 11 1
181 45 1
181 79 1
181 307 1
181 341 1
181 375 1
181 517 1
181 551 1
181 585 1
182 12 1
182 46 1
182 80 1
182 308 1
182 342 1
182 376 1
182 518 1
182 552 1
182 586 1
183 13 1
183 47 1
183 81 1
183 309 1
183 343 1
183 377 1
183 519 1
183 553 1
183 587 1
184 14 1
184 48 1
184 82 1
184 310 1
184 344 1
184 378 1
184 520 1
184 554 1
184 588 1
185 15 1
185 49 1
185 83 1
185 311 1
185 345 1
185 379 1
185 521 1
185 555 1
185 589 1
186 16 1
186 50 1
186 84 1
186 312 1
186 346 1
186 380 1
186 522 1
186 556 1
186 590 1
187 17 1
187 51 1
187 85 1
187 313 1
187 347 1
187 381 1
187 523 1
187 557 1
187 591 1
188 18 1
188 35 1
188 86 1
188 331 1
188 348 1
188 399 1
188 541 1
188 558 1
188 609 1
189 19 1
189 36 1
189 87 1
189 332 1
189 349 1
189 400 1
189 542 1
189 559 1
189 610 1
190 20 1
190 37 1
190 88 1
190 333 1
190 350 1
190 401 1
190 543 1
190 560 1
190 611 1
191 21 1
191 38 1
191 89 1
191 334 1
191 351 1
191 402 1
191 544 1
191 561 1
191 612 1
192 22 1
192 39 1
192 90 1
192 335 1
192 352 1
192 403 1
192 528 1
192 545 1
192 596 1
193 23 1
193 40 1
193 91 1
193 336 1
193 353 1
193 404 1
193 529 1
193 546 1
193 597 1
194 24 1
194 41 1
194 92 1
194 337 1
194 354 1
194 405 1
194 530 1
194 547 1
194 598 1
195 25 1
195 42 1
195 93 1
195 338 1
195 355 1
195 406 1
195 531 1
195 548 1
195 599 1
196 26 1
196 43 1
196 94 1
196 339 1
196 356 1
196 407 1
196 532 1
196 549 1
196 600 1
197 27 1
197 44 1
197 95 1
197 340 1
197 357 1
197 408 1
197 533 1
197 550 1
197 601 1
198 28 1
198 45 1
198 96 1
198 324 1
198 341 1
198 392 1
198 534 1
198 551 1
198 602 1
199 29 1
199 46 1
199 97 1
199 325 1
199 342 1
199 393 1
199 535 1
199 552 1
199 603 1
200 30 1
200 47 1
200 98 1
200 326 1
200 343 1
200 394 1
200 536 1
200 553 1
200 604 1
201 31 1
201 48 1
201 99 1
201 327 1
201 344 1
201 395 1
201 537 1
201 554 1
201 605 1
202 32 1
202 49 1
202 100 1
202 328 1
202 345 1
202 396 1
202 538 1
202 555 1
202 606 1
203 33 1
203 50 1
203 101 1
203 329 1
203 346 1
203 397 1
203 539 1
203 556 1
203 607 1
204 34 1
204 51 1
204 102 1
204 330 1
204 347 1
204 398 1
204 540 1
204 557 1
204 608 1
205 103 1
205 120 1
205 154 1
205 212 1
205 229 1
205 263 1
205 524 1
205 541 1
205 575 1
206 104 1
206 121 1
206 155 1
206 213 1
206 230 1
206 264 1
206 525 1
206 542 1
206 576 1
207 105 1
207 122 1
207 156 1
207 214 1
207 231 1
207 265 1
207 526 1
207 543 1
207 577 1
208 106 1
208 123 1
208 157 1
208 215 1
208 232 1
208 266 1
208 527 1
208 544 1
208 578 1
209 107 1
209 124 1
209 158 1
209 216 1
209 233 1
209 267 1
209 511 1
209 528 1
209 562 1
210 108 1
210 125 1
210 159 1
210 217 1
210 234 1
210 268 1
210 512 1
210 529 1
210 563 1
211 109 1
211 126 1
211 160 1
211 218 1
211 235 1
211 269 1
211 513 1
211 530 1
211 564 1
212 110 1
212 127 1
212 161 1
212 219 1
212 236 1
212 270 1
212 514 1
212 531 1
212 565 1
213 111 1
213 128 1
213 162 1
213 220 1
213 237 1
213 271 1
213 515 1
213 532 1
213 566 1
214 112 1
214 129 1
214 163 1
214 221 1
214 238 1
214 272 1
214 516 1
214 533 1
214 567 1
215 113 1
215 130 1
215 164 1
215 205 1
215 222 1
215 256 1
215 517 1
215 534 1
215 568 1
216 114 1
216 131 1
216 165 1
216 206 1
216 223 1
216 257 1
216 518 1
216 535 1
216 569 1
217 115 1
217 132 1
217 166 1
217 207 1
217 224 1
217 258 1
217 519 1
217 536 1
217 570 1
218 116 1
218 133 1
218 167 1
218 208 1
218 225 1
218 259 1
218 520 1
218 537 1
218 571 1
219 117 1
219 134 1
219 168 1
219 209 1
219 226 1
219 260 1
219 521 1
219 538 1
219 572 1
220 118 1
220 135 1
220 169 1
220 210 1
220 227 1
220 261 1
220 522 1
220 539 1
220 573 1
221 119 1
221 136 1
221 170 1
221 211 1
221 228 1
221 262 1
221 523 1
221 540 1
221 574 1
222 103 1
222 137 1
222 171 1
222 212 1
222 246 1
222 280 1
222 524 1
222 558 1
222 592 1
223 104 1
223 138 1
223 172 1
223 213 1
223 247 1
223 281 1
223 525 1
223 559 1
223 593 1
224 105 1
224 139 1
224 173 1
224 214 1
224 248 1
224 282 1
224 526 1
224 560 1
224 594 1
225 106 1
225 140 1
225 174 1
225 215 1
225 249 1
225 283 1
225 527 1
225 561 1
225 595 1
226 107 1
226 141 1
226 175 1
226 216 1
226 250 1
226 284 1
226 511 1
226 545 1
226 579 1
227 108 1
227 142 1
227 176 1
227 217 1
227 251 1
227 285 1
227 512 1
227 546 1
227 580 1
228 109 1
228 143 1
228 177 1
228 218 1
228 252 1
228 286 1
228 513 1
228 547 1
228 581 1
229 110 1
229 144 1
229 178 1
229 219 1
229 253 1
229 287 1
229 514 1
229 548 1
229 582 1
230 111 1
230 145 1
230 179 1
230 220 1
230 254 1
230 288 1
230 515 1
230 549 1
230 583 1
231 112 1
231 146 1
231 180 1
231 221 1
231 255 1
231 289 1
231 516 1
231 550 1
231 584 1
232 113 1
232 147 1
232 181 1
232 205 1
232 239 1
232 273 1
232 517 1
232 551 1
232 585 1
233 114 1
233 148 1
233 182 1
233 206 1
233 240 1
233 274 1
233 518 1
233 552 1
233 586 1
234 115 1
234 149 1
234 183 1
234 207 1
234 241 1
234 275 1
234 519 1
234 553 1
234 587 1
235 116 1
235 150 1
235 184 1
235 208 1
235 242 1
235 276 1
235 520 1
235 554 1
235 588 1
236 117 1
236 151 1
236 185 1
236 209 1
236 243 1
236 277 1
236 521 1
236 555 1
236 589 1
237 118 1
237 152 1
237 186 1
237 210 1
237 244 1
237 278 1
237 522 1
237 556 1
237 590 1
238 119 1
238 153 1
238 187 1
238 211 1
238 245 1
238 279 1
238 523 1
238 557 1
238 591 1
239 120 1
239 137 1
239 188 1
239 229 1
239 246 1
239 297 1
239 541 1
239 558 1
239 609 1
240 121 1
240 138 1
240 189 1
240 230 1
240 247 1
240 298 1
240 542 1
240 559 1
240 610 1
241 122 1
241 139 1
241 190 1
241 231 1
241 248 1
241 299 1
241 543 1
241 560 1
241 611 1
242 123 1
242 140 1
242 191 1
242 232 1
242 249 1
242 300 1
242 544 1
242 561 1
242 612 1
243 124 1
243 141 1
243 192 1
243 233 1
243 250 1
243 301 1
243 528 1
243 545 1
243 596 1
244 125 1
244 142 1
244 193 1
244 234 1
244 251 1
244 302 1
244 529 1
244 546 1
244 597 1
245 126 1
245 143 1
245 194 1
245 235 1
245 252 1
245 303 1
245 530 1
245 547 1
245 598 1
246 127 1
246 144 1
246 195 1
246 236 1
246 253 1
246 304 1
246 531 1
246 548 1
246 599 1
247 128 1
247 145 1
247 196 1
247 237 1
247 254 1
247 305 1
247 532 1
247 549 1
247 600 1
248 129 1
248 146 1
248 197 1
248 238 1
248 255 1
248 306 1
248 533 1
248 550 1
248 601 1
249 130 1
249 147 1
249 198 1
249 222 1
249 239 1
249 290 1
249 534 1
249 551 1
249 602 1
250 131 1
250 148 1
250 199 1
250 223 1
250 240 1
250 291 1
250 535 1
250 552 1
250 603 1
251 132 1
251 149 1
251 200 1
251 224 1
251 241 1
251 292 1
251 536 1
251 553 1
251 604 1
252 133 1
252 150 1
252 201 1
252 225 1
252 242 1
252 293 1
252 537 1
252 554 1
252 605 1
253 134 1
253 151 1
253 202 1
253 226 1
253 243 1
253 294 1
253 538 1
253 555 1
253 606 1
254 135 1
254 152 1
254 203 1
254 227 1
254 244 1
254 295 1
254 539 1
254 556 1
254 607 1
255 136 1
255 153 1
255 204 1
255 228 1
255 245 1
255 296 1
255 540 1
255 557 1
255 608 1
256 103 1
256 120 1
256 154 1
256 314 1
256 331 1
256 365 1
256 419 1
256 436 1
256 470 1
257 104 1
257 121 1
257 155 1
257 315 1
257 332 1
257 366 1
257 420 1
257 437 1
257 471 1
258 105 1
258 122 1
258 156 1
258 316 1
258 333 1
258 367 1
258 421 1
258 438 1
258 472 1
259 106 1
259 123 1
259 157 1
259 317 1
259 334 1
259 368 1
259 422 1
259 439 1
259 473 1
260 107 1
260 124 1
260 158 1
260 318 1
260 335 1
260 369 1
260 423 1
260 440 1
260 474 1
261 108 1
261 125 1
261 159 1
261 319 1
261 336 1
261 370 1
261 424 1
261 441 1
261 475 1
262 109 1
262 126 1
262 160 1
262 320 1
262 337 1
262 371 1
262 425 1
262 442 1
262 476 1
263 110 1
263 127 1
263 161 1
263 321 1
263 338 1
263 372 1
263 409 1
263 426 1
263 460 1
264 111 1
264 128 1
264 162 1
264 322 1
264 339 1
264 373 1
264 410 1
264 427 1
264 461 1
265 112 1
265 129 1
265 163 1
265 323 1
265 340 1
265 374 1
265 411 1
265 428 1
265 462 1
266 113 1
266 130 1
266 164 1
266 307 1
266 324 1
266 358 1
266 412 1
266 429 1
266 463 1
267 114 1
267 131 1
267 165 1
267 308 1
267 325 1
267 359 1
267 413 1
267 430 1
267 464 1
268 115 1
268 132 1
268 166 1
268 309 1
268 326 1
268 360 1
268 414 1
268 431 1
268 465 1
269 116 1
269 133 1
269 167 1
269 310 1
269 327 1
269 361 1
269 415 1
269 432 1
269 466 1
270 117 1
270 134 1
270 168 1
270 311 1
270 328 1
270 362 1
270 416 1
270 433 1
270 467 1
271 118 1
271 135 1
271 169 1
271 312 1
271 329 1
271 363 1
271 417 1
271 434 1
271 468 1
272 119 1
272 136 1
272 170 1
272 313 1
272 330 1
272 364 1
272 418 1
272 435 1
272 469 1
273 103 1
273 137 1
273 171 1
273 314 1
273 348 1
273 382 1
273 419 1
273 453 1
273 487 1
274 104 1
274 138 1
274 172 1
274 315 1
274 349 1
274 383 1
274 420 1
274 454 1
274 488 1
275 105 1
275 139 1
275 173 1
275 316 1
275 350 1
275 384 1
275 421 1
275 455 1
275 489 1
276 106 1
276 140 1
276 174 1
276 317 1
276 351 1
276 385 1
276 422 1
276 456 1
276 490 1
277 107 1
277 141 1
277 175 1
277 318 1
277 352 1
277 386 1
277 423 1
277 457 1
277 491 1
278 108 1
278 142 1
278 176 1
278 319 1
278 353 1
278 387 1
278 424 1
278 458 1
278 492 1
279 109 1
279 143 1
279 177 1
279 320 1
279 354 1
279 388 1
279 425 1
279 459 1
279 493 1
280 110 1
280 144 1
280 178 1
280 321 1
280 355 1
280 389 1
280 409 1
280 443 1
280 477 1
281 111 1
281 145 1
281 179 1
281 322 1
281 356 1
281 390 1
281 410 1
281 444 1
281 478 1
282 112 1
282 146 1
282 180 1
282 323 1
282 357 1
282 391 1
282 411 1
282 445 1
282 479 1
283 113 1
283 147 1
283 181 1
283 307 1
283 341 1
283 375 1
283 412 1
283 446 1
283 480 1
284 114 1
284 148 1
284 182 1
284 308 1
284 342 1
284 376 1
284 413 1
284 447 1
284 481 1
285 115 1
285 149 1
285 183 1
285 309 1
285 343 1
285 377 1
285 414 1
285 448 1
285 482 1
286 116 1
286 150 1
286 184 1
286 310 1
286 344 1
286 378 1
286 415 1
286 449 1
286 483 1
287 117 1
287 151 1
287 185 1
287 311 1
287 345 1
287 379 1
287 416 1
287 450 1
287 484 1
288 118 1
288 152 1
288 186 1
288 312 1
288 346 1
288 380 1
288 417 1
288 451 1
288 485 1
289 119 1
289 153 1
289 187 1
289 313 1
289 347 1
289 381 1
289 418 1
289 452 1
289 486 1
290 120 1
290 137 1
290 188 1
290 331 1
290 348 1
290 399 1
290 436 1
290 453 1
290 504 1
291 121 1
291 138 1
291 189 1
291 332 1
291 349 1
291 400 1
291 437 1
291 454 1
291 505 1
292 122 1
292 139 1
292 190 1
292 333 1
292 350 1
292 401 1
292 438 1
292 455 1
292 506 1
293 123 1
293 140 1
293 191 1
293 334 1
293 351 1
293 402 1
293 439 1
293 456 1
293 507 1
294 124 1
294 141 1
294 192 1
294 335 1
294 352 1
294 403 1
294 440 1
294 457 1
294 508 1
295 125 1
295 142 1
295 193 1
295 336 1
295 353 1
295 404 1
295 441 1
295 458 1
295 509 1
296 126 1
296 143 1
296 194 1
296 337 1
296 354 1
296 405 1
296 442 1
296 459 1
296 510 1
297 127 1
297 144 1
297 195 1
297 338 1
297 355 1
297 406 1
297 426 1
297 443 1
297 494 1
298 128 1
298 145 1
298 196 1
298 339 1
298 356 1
298 407 1
298 427 1
298 444 1
298 495 1
299 129 1
299 146 1
299 197 1
299 340 1
299 357 1
299 408 1
299 428 1
299 445 1
299 496 1
300 130 1
300 147 1
300 198 1
300 324 1
300 341 1
300 392 1
300 429 1
300 446 1
300 497 1
301 131 1
301 148 1
301 199 1
301 325 1
301 342 1
301 393 1
301 430 1
301 447 1
301 498 1
302 132 1
302 149 1
302 200 1
302 326 1
302 343 1
302 394 1
302 431 1
302 448 1
302 499 1
303 133 1
303 150 1
303 201 1
303 327 1
303 344 1
303 395 1
303 432 1
303 449 1
303 500 1
304 134 1
304 151 1
304 202 1
304 328 1
304 345 1
304 396 1
304 433 1
304 450 1
304 501 1
305 135 1
305 152 1
305 203 1
305 329 1
305 346 1
305 397 1
305 434 1
305 451 1
305 502 1
306 136 1
306 153 1
306 204 1
306 330 1
306 347 1
306 398 1
306 435 1
306 452 1
306 503 1
