%%MatrixMarket matrix coordinate integer general
224 448 3584
1 1 1
1 29 1
1 36 1
1 43 1
1 225 1
1 253 1
1 260 1
1 267 1
1 281 1
1 309 1
1 316 1
1 323 1
1 337 1
1 365 1
1 372 1
1 379 1
2 2 1
2 30 1
2 37 1
2 44 1
2 226 1
2 254 1
2 261 1
2 268 1
2 282 1
2 310 1
2 317 1
2 324 1
2 338 1
2 366 1
2 373 1
2 380 1
3 3 1
3 31 1
3 38 1
3 45 1
3 227 1
3 255 1
3 262 1
3 269 1
3 283 1
3 311 1
3 318 1
3 325 1
3 339 1
3 367 1
3 374 1
3 381 1
4 4 1
4 32 1
4 39 1
4 46 1
4 228 1
4 256 1
4 263 1
4 270 1
4 284 1
4 312 1
4 319 1
4 326 1
4 340 1
4 368 1
4 375 1
4 382 1
5 5 1
5 33 1
5 40 1
5 47 1
5 229 1
5 257 1
5 264 1
5 271 1
5 285 1
5 313 1
5 320 1
5 327 1
5 341 1
5 369 1
5 376 1
5 383 1
6 6 1
6 34 1
6 41 1
6 48 1
6 230 1
6 258 1
6 265 1
6 272 1
6 286 1
6 314 1
6 321 1
6 328 1
6 342 1
6 370 1
6 377 1
6 384 1
7 7 1
7 35 1
7 42 1
7 49 1
7 231 1
7 259 1
7 266 1
7 273 1
7 287 1
7 315 1
7 322 1
7 329 1
7 343 1
7 371 1
7 378 1
7 385 1
8 8 1
8 29 1
8 36 1
8 50 1
8 232 1
8 253 1
8 260 1
8 274 1
8 288 1
8 309 1
8 316 1
8 330 1
8 344 1
8 365 1
8 372 1
8 386 1
9 9 1
9 30 1
9 37 1
9 51 1
9 233 1
9 254 1
9 261 1
9 275 1
9 289 1
9 310 1
9 317 1
9 331 1
9 345 1
9 366 1
9 373 1
9 387 1
10 10 1
10 31 1
10 38 1
10 52 1
10 234 1
10 255 1
10 262 1
10 276 1
10 290 1
10 311 1
10 318 1
10 332 1
10 346 1
10 367 1
10 374 1
10 388 1
11 11 1
11 32 1
11 39 1
11 53 1
11 235 1
11 256 1
11 263 1
11 277 1
11 291 1
11 312 1
11 319 1
11 333 1
11 347 1
11 368 1
11 375 1
11 389 1
12 12 1
12 33 1
12 40 1
12 54 1
12 236 1
12 257 1
12 264 1
12 278 1
12 292 1
12 313 1
12 320 1
12 334 1
12 348 1
12 369 1
12 376 1
12 390 1
13 13 1
13 34 1
13 41 1
13 55 1
13 237 1
13 258 1
13 265 1
13 279 1
13 293 1
13 314 1
13 321 1
13 335 1
13 349 1
13 370 1
13 377 1
13 391 1
14 14 1
14 35 1
14 42 1
14 56 1
14 238 1
14 259 1
14 266 1
14 280 1
14 294 1
14 315 1
14 322 1
14 336 1
14 350 1
14 371 1
14 378 1
14 392 1
15 15 1
15 29 1
15 43 1
15 50 1
15 239 1
15 253 1
15 267 1
15 274 1
15 295 1
15 309 1
15 323 1
15 330 1
15 351 1
15 365 1
15 379 1
15 386 1
16 16 1
16 30 1
16 44 1
16 51 1
16 240 1
16 254 1
16 268 1
16 275 1
16 296 1
16 310 1
16 324 1
16 331 1
16 352 1
16 366 1
16 380 1
16 387 1
17 17 1
17 31 1
17 45 1
17 52 1
17 241 1
17 255 1
17 269 1
17 276 1
17 297 1
17 311 1
17 325 1
17 332 1
17 353 1
17 367 1
17 381 1
17 388 1
18 18 1
18 32 1
18 46 1
18 53 1
18 242 1
18 256 1
18 270 1
18 277 1
18 298 1
18 312 1
18 326 1
18 333 1
18 354 1
18 368 1
18 382 1
18 389 1
19 19 1
19 33 1
19 47 1
19 54 1
19 243 1
19 257 1
19 271 1
19 278 1
19 299 1
19 313 1
19 327 1
19 334 1
19 355 1
19 369 1
19 383 1
19 390 1
20 20 1
20 34 1
20 48 1
20 55 1
20 244 1
20 258 1
20 272 1
20 279 1
20 300 1
20 314 1
20 328 1
20 335 1
20 356 1
20 370 1
20 384 1
20 391 1
21 21 1
21 35 1
21 49 1
21 56 1
21 245 1
21 259 1
21 273 1
21 280 1
21 301 1
21 315 1
21 329 1
21 336 1
21 357 1
21 371 1
21 385 1
21 392 1
22 22 1
22 36 1
22 43 1
22 50 1
22 246 1
22 260 1
22 267 1
22 274 1
22 302 1
22 316 1
22 323 1
22 330 1
22 358 1
22 372 1
22 379 1
22 386 1
23 23 1
23 37 1
23 44 1
23 51 1
23 247 1
23 261 1
23 268 1
23 275 1
23 303 1
23 317 1
23 324 1
23 331 1
23 359 1
23 373 1
23 380 1
23 387 1
24 24 1
24 38 1
24 45 1
24 52 1
24 248 1
24 262 1
24 269 1
24 276 1
24 304 1
24 318 1
24 325 1
24 332 1
24 360 1
24 374 1
24 381 1
24 388 1
25 25 1
25 39 1
25 46 1
25 53 1
25 249 1
25 263 1
25 270 1
25 277 1
25 305 1
25 319 1
25 326 1
25 333 1
25 361 1
25 375 1
25 382 1
25 389 1
26 26 1
26 40 1
26 47 1
26 54 1
26 250 1
26 264 1
26 271 1
26 278 1
26 306 1
26 320 1
26 327 1
26 334 1
26 362 1
26 376 1
26 383 1
26 390 1
27 27 1
27 41 1
27 48 1
27 55 1
27 251 1
27 265 1
27 272 1
27 279 1
27 307 1
27 321 1
27 328 1
27 335 1
27 363 1
27 377 1
27 384 1
27 391 1
28 28 1
28 42 1
28 49 1
28 56 1
28 252 1
28 266 1
28 273 1
28 280 1
28 308 1
28 322 1
28 329 1
28 336 1
28 364 1
28 378 1
28 385 1
28 392 1
29 57 1
29 85 1
29 92 1
29 99 1
29 225 1
29 253 1
29 260 1
29 267 1
29 281 1
29 309 1
29 316 1
29 323 1
29 393 1
29 421 1
29 428 1
29 435 1
30 58 1
30 86 1
30 93 1
30 100 1
30 226 1
30 254 1
30 261 1
30 268 1
30 282 1
30 310 1
30 317 1
30 324 1
30 394 1
30 422 1
30 429 1
30 436 1
31 59 1
31 87 1
31 94 1
31 101 1
31 227 1
31 255 1
31 262 1
31 269 1
31 283 1
31 311 1
31 318 1
31 325 1
31 395 1
31 423 1
31 430 1
31 437 1
32 60 1
32 88 1
32 95 1
32 102 1
32 228 1
32 256 1
32 263 1
32 270 1
32 284 1
32 312 1
32 319 1
32 326 1
32 396 1
32 424 1
32 431 1
32 438 1
33 61 1
33 89 1
33 96 1
33 103 1
33 229 1
33 257 1
33 264 1
33 271 1
33 285 1
33 313 1
33 320 1
33 327 1
33 397 1
33 425 1
33 432 1
33 439 1
34 62 1
34 90 1
34 97 1
34 104 1
34 230 1
34 258 1
34 265 1
34 272 1
34 286 1
34 314 1
34 321 1
34 328 1
34 398 1
34 426 1
34 433 1
34 440 1
35 63 1
35 91 1
35 98 1
35 105 1
35 231 1
35 259 1
35 266 1
35 273 1
35 287 1
35 315 1
35 322 1
35 329 1
35 399 1
35 427 1
35 434 1
35 441 1
36 64 1
36 85 1
36 92 1
36 106 1
36 232 1
36 253 1
36 260 1
36 274 1
36 288 1
36 309 1
36 316 1
36 330 1
36 400 1
36 421 1
36 428 1
36 442 1
37 65 1
37 86 1
37 93 1
37 107 1
37 233 1
37 254 1
37 261 1
37 275 1
37 289 1
37 310 1
37 317 1
37 331 1
37 401 1
37 422 1
37 429 1
37 443 1
38 66 1
38 87 1
38 94 1
38 108 1
38 234 1
38 255 1
38 262 1
38 276 1
38 290 1
38 311 1
38 318 1
38 332 1
38 402 1
38 423 1
38 430 1
38 444 1
39 67 1
39 88 1
39 95 1
39 109 1
39 235 1
39 256 1
39 263 1
39 277 1
39 291 1
39 312 1
39 319 1
39 333 1
39 403 1
39 424 1
39 431 1
39 445 1
40 68 1
40 89 1
40 96 1
40 110 1
40 236 1
40 257 1
40 264 1
40 278 1
40 292 1
40 313 1
40 320 1
40 334 1
40 404 1
40 425 1
40 432 1
40 446 1
41 69 1
41 90 1
41 97 1
41 111 1
41 237 1
41 258 1
41 265 1
41 279 1
41 293 1
41 314 1
41 321 1
41 335 1
41 405 1
41 426 1
41 433 1
41 447 1
42 70 1
42 91 1
42 98 1
42 112 1
42 238 1
42 259 1
42 266 1
42 280 1
42 294 1
42 315 1
42 322 1
42 336 1
42 406 1
42 427 1
42 434 1
42 448 1
43 71 1
43 85 1
43 99 1
43 106 1
43 239 1
43 253 1
43 267 1
43 274 1
43 295 1
43 309 1
43 323 1
43 330 1
43 407 1
43 421 1
43 435 1
43 442 1
44 72 1
44 86 1
44 100 1
44 107 1
44 240 1
44 254 1
44 268 1
44 275 1
44 296 1
44 310 1
44 324 1
44 331 1
44 408 1
44 422 1
44 436 1
44 443 1
45 73 1
45 87 1
45 101 1
45 108 1
45 241 1
45 255 1
45 269 1
45 276 1
45 297 1
45 311 1
45 325 1
45 332 1
45 409 1
45 423 1
45 437 1
45 444 1
46 74 1
46 88 1
46 102 1
46 109 1
46 242 1
46 256 1
46 270 1
46 277 1
46 298 1
46 312 1
46 326 1
46 333 1
46 410 1
46 424 1
46 438 1
46 445 1
47 75 1
47 89 1
47 103 1
47 110 1
47 243 1
47 257 1
47 271 1
47 278 1
47 299 1
47 313 1
47 327 1
47 334 1
47 411 1
47 425 1
47 439 1
47 446 1
48 76 1
48 90 1
48 104 1
48 111 1
48 244 1
48 258 1
48 272 1
48 279 1
48 300 1
48 314 1
48 328 1
48 335 1
48 412 1
48 426 1
48 440 1
48 447 1
49 77 1
49 91 1
49 105 1
49 112 1
49 245 1
49 259 1
49 273 1
49 280 1
49 301 1
49 315 1
49 329 1
49 336 1
49 413 1
49 427 1
49 441 1
49 448 1
50 78 1
50 92 1
50 99 1
50 106 1
50 246 1
50 260 1
50 267 1
50 274 1
50 302 1
50 316 1
50 323 1
50 330 1
50 414 1
50 428 1
50 435 1
50 442 1
51 79 1
51 93 1
51 100 1
51 107 1
51 247 1
51 261 1
51 268 1
51 275 1
51 303 1
51 317 1
51 324 1
51 331 1
51 415 1
51 429 1
51 436 1
51 443 1
52 80 1
52 94 1
52 101 1
52 108 1
52 248 1
52 262 1
52 269 1
52 276 1
52 304 1
52 318 1
52 325 1
52 332 1
52 416 1
52 430 1
52 437 1
52 444 1
53 81 1
53 95 1
53 102 1
53 109 1
53 249 1
53 263 1
53 270 1
53 277 1
53 305 1
53 319 1
53 326 1
53 333 1
53 417 1
53 431 1
53 438 1
53 445 1
54 82 1
54 96 1
54 103 1
54 110 1
54 250 1
54 264 1
54 271 1
54 278 1
54 306 1
54 320 1
54 327 1
54 334 1
54 418 1
54 432 1
54 439 1
54 446 1
55 83 1
55 97 1
55 104 1
55 111 1
55 251 1
55 265 1
55 272 1
55 279 1
55 307 1
55 321 1
55 328 1
55 335 1
55 419 1
55 433 1
55 440 1
55 447 1
56 84 1
56 98 1
56 105 1
56 112 1
56 252 1
56 266 1
56 273 1
56 280 1
56 308 1
56 322 1
56 329 1
56 336 1
56 420 1
56 434 1
56 441 1
56 448 1
57 113 1
57 141 1
57 148 1
57 155 1
57 225 1
57 253 1
57 260 1
57 267 1
57 337 1
57 365 1
57 372 1
57 379 1
57 393 1
57 421 1
57 428 1
57 435 1
58 114 1
58 142 1
58 149 1
58 156 1
58 226 1
58 254 1
58 261 1
58 268 1
58 338 1
58 366 1
58 373 1
58 380 1
58 394 1
58 422 1
58 429 1
58 436 1
59 115 1
59 143 1
59 150 1
59 157 1
59 227 1
59 255 1
59 262 1
59 269 1
59 339 1
59 367 1
59 374 1
59 381 1
59 395 1
59 423 1
59 430 1
59 437 1
60 116 1
60 144 1
60 151 1
60 158 1
60 228 1
60 256 1
60 263 1
60 270 1
60 340 1
60 368 1
60 375 1
60 382 1
60 396 1
60 424 1
60 431 1
60 438 1
61 117 1
61 145 1
61 152 1
61 159 1
61 229 1
61 257 1
61 264 1
61 271 1
61 341 1
61 369 1
61 376 1
61 383 1
61 397 1
61 425 1
61 432 1
61 439 1
62 118 1
62 146 1
62 153 1
62 160 1
62 230 1
62 258 1
62 265 1
62 272 1
62 342 1
62 370 1
62 377 1
62 384 1
62 398 1
62 426 1
62 433 1
62 440 1
63 119 1
63 147 1
63 154 1
63 161 1
63 231 1
63 259 1
63 266 1
63 273 1
63 343 1
63 371 1
63 378 1
63 385 1
63 399 1
63 427 1
63 434 1
63 441 1
64 120 1
64 141 1
64 148 1
64 162 1
64 232 1
64 253 1
64 260 1
64 274 1
64 344 1
64 365 1
64 372 1
64 386 1
64 400 1
64 421 1
64 428 1
64 442 1
65 121 1
65 142 1
65 149 1
65 163 1
65 233 1
65 254 1
65 261 1
65 275 1
65 345 1
65 366 1
65 373 1
65 387 1
65 401 1
65 422 1
65 429 1
65 443 1
66 122 1
66 143 1
66 150 1
66 164 1
66 234 1
66 255 1
66 262 1
66 276 1
66 346 1
66 367 1
66 374 1
66 388 1
66 402 1
66 423 1
66 430 1
66 444 1
67 123 1
67 144 1
67 151 1
67 165 1
67 235 1
67 256 1
67 263 1
67 277 1
67 347 1
67 368 1
67 375 1
67 389 1
67 403 1
67 424 1
67 431 1
67 445 1
68 124 1
68 145 1
68 152 1
68 166 1
68 236 1
68 257 1
68 264 1
68 278 1
68 348 1
68 369 1
68 376 1
68 390 1
68 404 1
68 425 1
68 432 1
68 446 1
69 125 1
69 146 1
69 153 1
69 167 1
69 237 1
69 258 1
69 265 1
69 279 1
69 349 1
69 370 1
69 377 1
69 391 1
69 405 1
69 426 1
69 433 1
69 447 1
70 126 1
70 147 1
70 154 1
70 168 1
70 238 1
70 259 1
70 266 1
70 280 1
70 350 1
70 371 1
70 378 1
70 392 1
70 406 1
70 427 1
70 434 1
70 448 1
71 127 1
71 141 1
71 155 1
71 162 1
71 239 1
71 253 1
71 267 1
71 274 1
71 351 1
71 365 1
71 379 1
71 386 1
71 407 1
71 421 1
71 435 1
71 442 1
72 128 1
72 142 1
72 156 1
72 163 1
72 240 1
72 254 1
72 268 1
72 275 1
72 352 1
72 366 1
72 380 1
72 387 1
72 408 1
72 422 1
72 436 1
72 443 1
73 129 1
73 143 1
73 157 1
73 164 1
73 241 1
73 255 1
73 269 1
73 276 1
73 353 1
73 367 1
73 381 1
73 388 1
73 409 1
73 423 1
73 437 1
73 444 1
74 130 1
74 144 1
74 158 1
74 165 1
74 242 1
74 256 1
74 270 1
74 277 1
74 354 1
74 368 1
74 382 1
74 389 1
74 410 1
74 424 1
74 438 1
74 445 1
75 131 1
75 145 1
75 159 1
75 166 1
75 243 1
75 257 1
75 271 1
75 278 1
75 355 1
75 369 1
75 383 1
75 390 1
75 411 1
75 425 1
75 439 1
75 446 1
76 132 1
76 146 1
76 160 1
76 167 1
76 244 1
76 258 1
76 272 1
76 279 1
76 356 1
76 370 1
76 384 1
76 391 1
76 412 1
76 426 1
76 440 1
76 447 1
77 133 1
77 147 1
77 161 1
77 168 1
77 245 1
77 259 1
77 273 1
77 280 1
77 357 1
77 371 1
77 385 1
77 392 1
77 413 1
77 427 1
77 441 1
77 448 1
78 134 1
78 148 1
78 155 1
78 162 1
78 246 1
78 260 1
78 267 1
78 274 1
78 358 1
78 372 1
78 379 1
78 386 1
78 414 1
78 428 1
78 435 1
78 442 1
79 135 1
79 149 1
79 156 1
79 163 1
79 247 1
79 261 1
79 268 1
79 275 1
79 359 1
79 373 1
79 380 1
79 387 1
79 415 1
79 429 1
79 436 1
79 443 1
80 136 1
80 150 1
80 157 1
80 164 1
80 248 1
80 262 1
80 269 1
80 276 1
80 360 1
80 374 1
80 381 1
80 388 1
80 416 1
80 430 1
80 437 1
80 444 1
81 137 1
81 151 1
81 158 1
81 165 1
81 249 1
81 263 1
81 270 1
81 277 1
81 361 1
81 375 1
81 382 1
81 389 1
81 417 1
81 431 1
81 438 1
81 445 1
82 138 1
82 152 1
82 159 1
82 166 1
82 250 1
82 264 1
82 271 1
82 278 1
82 362 1
82 376 1
82 383 1
82 390 1
82 418 1
82 432 1
82 439 1
82 446 1
83 139 1
83 153 1
83 160 1
83 167 1
83 251 1
83 265 1
83 272 1
83 279 1
83 363 1
83 377 1
83 384 1
83 391 1
83 419 1
83 433 1
83 440 1
83 447 1
84 140 1
84 154 1
84 161 1
84 168 1
84 252 1
84 266 1
84 273 1
84 280 1
84 364 1
84 378 1
84 385 1
84 392 1
84 420 1
84 434 1
84 441 1
84 448 1
85 169 1
85 197 1
85 204 1
85 211 1
85 281 1
85 309 1
85 316 1
85 323 1
85 337 1
85 365 1
85 372 1
85 379 1
85 393 1
85 421 1
85 428 1
85 435 1
86 170 1
86 198 1
86 205 1
86 212 1
86 282 1
86 310 1
86 317 1
86 324 1
86 338 1
86 366 1
86 373 1
86 380 1
86 394 1
86 422 1
86 429 1
86 436 1
87 171 1
87 199 1
87 206 1
87 213 1
87 283 1
87 311 1
87 318 1
87 325 1
87 339 1
87 367 1
87 374 1
87 381 1
87 395 1
87 423 1
87 430 1
87 437 1
88 172 1
88 200 1
88 207 1
88 214 1
88 284 1
88 312 1
88 319 1
88 326 1
88 340 1
88 368 1
88 375 1
88 382 1
88 396 1
88 424 1
88 431 1
88 438 1
89 173 1
89 201 1
89 208 1
89 215 1
89 285 1
89 313 1
89 320 1
89 327 1
89 341 1
89 369 1
89 376 1
89 383 1
89 397 1
89 425 1
89 432 1
89 439 1
90 174 1
90 202 1
90 209 1
90 216 1
90 286 1
90 314 1
90 321 1
90 328 1
90 342 1
90 370 1
90 377 1
90 384 1
90 398 1
90 426 1
90 433 1
90 440 1
91 175 1
91 203 1
91 210 1
91 217 1
91 287 1
91 315 1
91 322 1
91 329 1
91 343 1
91 371 1
91 378 1
91 385 1
91 399 1
91 427 1
91 434 1
91 441 1
92 176 1
92 197 1
92 204 1
92 218 1
92 288 1
92 309 1
92 316 1
92 330 1
92 344 1
92 365 1
92 372 1
92 386 1
92 400 1
92 421 1
92 428 1
92 442 1
93 177 1
93 198 1
93 205 1
93 219 1
93 289 1
93 310 1
93 317 1
93 331 1
93 345 1
93 366 1
93 373 1
93 387 1
93 401 1
93 422 1
93 429 1
93 443 1
94 178 1
94 199 1
94 206 1
94 220 1
94 290 1
94 311 1
94 318 1
94 332 1
94 346 1
94 367 1
94 374 1
94 388 1
94 402 1
94 423 1
94 430 1
94 444 1
95 179 1
95 200 1
95 207 1
95 221 1
95 291 1
95 312 1
95 319 1
95 333 1
95 347 1
95 368 1
95 375 1
95 389 1
95 403 1
95 424 1
95 431 1
95 445 1
96 180 1
96 201 1
96 208 1
96 222 1
96 292 1
96 313 1
96 320 1
96 334 1
96 348 1
96 369 1
96 376 1
96 390 1
96 404 1
96 425 1
96 432 1
96 446 1
97 181 1
97 202 1
97 209 1
97 223 1
97 293 1
97 314 1
97 321 1
97 335 1
97 349 1
97 370 1
97 377 1
97 391 1
97 405 1
97 426 1
97 433 1
97 447 1
98 182 1
98 203 1
98 210 1
98 224 1
98 294 1
98 315 1
98 322 1
98 336 1
98 350 1
98 371 1
98 378 1
98 392 1
98 406 1
98 427 1
98 434 1
98 448 1
99 183 1
99 197 1
99 211 1
99 218 1
99 295 1
99 309 1
99 323 1
99 330 1
99 351 1
99 365 1
99 379 1
99 386 1
99 407 1
99 421 1
99 435 1
99 442 1
100 184 1
100 198 1
100 212 1
100 219 1
100 296 1
100 310 1
100 324 1
100 331 1
100 352 1
100 366 1
100 380 1
100 387 1
100 408 1
100 422 1
100 436 1
100 443 1
101 185 1
101 199 1
101 213 1
101 220 1
101 297 1
101 311 1
101 325 1
101 332 1
101 353 1
101 367 1
101 381 1
101 388 1
101 409 1
101 423 1
101 437 1
101 444 1
102 186 1
102 200 1
102 214 1
102 221 1
102 298 1
102 312 1
102 326 1
102 333 1
102 354 1
102 368 1
102 382 1
102 389 1
102 410 1
102 424 1
102 438 1
102 445 1
103 187 1
103 201 1
103 215 1
103 222 1
103 299 1
103 313 1
103 327 1
103 334 1
103 355 1
103 369 1
103 383 1
103 390 1
103 411 1
103 425 1
103 439 1
103 446 1
104 188 1
104 202 1
104 216 1
104 223 1
104 300 1
104 314 1
104 328 1
104 335 1
104 356 1
104 370 1
104 384 1
104 391 1
104 412 1
104 426 1
104 440 1
104 447 1
105 189 1
105 203 1
105 217 1
105 224 1
105 301 1
105 315 1
105 329 1
105 336 1
105 357 1
105 371 1
105 385 1
105 392 1
105 413 1
105 427 1
105 441 1
105 448 1
106 190 1
106 204 1
106 211 1
106 218 1
106 302 1
106 316 1
106 323 1
106 330 1
106 358 1
106 372 1
106 379 1
106 386 1
106 414 1
106 428 1
106 435 1
106 442 1
107 191 1
107 205 1
107 212 1
107 219 1
107 303 1
107 317 1
107 324 1
107 331 1
107 359 1
107 373 1
107 380 1
107 387 1
107 415 1
107 429 1
107 436 1
107 443 1
108 192 1
108 206 1
108 213 1
108 220 1
108 304 1
108 318 1
108 325 1
108 332 1
108 360 1
108 374 1
108 381 1
108 388 1
108 416 1
108 430 1
108 437 1
108 444 1
109 193 1
109 207 1
109 214 1
109 221 1
109 305 1
109 319 1
109 326 1
109 333 1
109 361 1
109 375 1
109 382 1
109 389 1
109 417 1
109 431 1
109 438 1
109 445 1
110 194 1
110 208 1
110 215 1
110 222 1
110 306 1
110 320 1
110 327 1
110 334 1
110 362 1
110 376 1
110 383 1
110 390 1
110 418 1
110 432 1
110 439 1
110 446 1
111 195 1
111 209 1
111 216 1
111 223 1
111 307 1
111 321 1
111 328 1
111 335 1
111 363 1
111 377 1
111 384 1
111 391 1
111 419 1
111 433 1
111 440 1
111 447 1
112 196 1
112 210 1
112 217 1
112 224 1
112 308 1
112 322 1
112 329 1
112 336 1
112 364 1
112 378 1
112 385 1
112 392 1
112 420 1
112 434 1
112 441 1
112 448 1
113 1 1
113 34 1
113 40 1
113 47 1
113 228 1
113 254 1
113 260 1
113 267 1
113 285 1
113 311 1
113 317 1
113 324 1
113 342 1
113 368 1
113 374 1
113 381 1
114 2 1
114 35 1
114 41 1
114 48 1
114 229 1
114 255 1
114 261 1
114 268 1
114 286 1
114 312 1
114 318 1
114 325 1
114 343 1
114 369 1
114 375 1
114 382 1
115 3 1
115 29 1
115 42 1
115 49 1
115 230 1
115 256 1
115 262 1
115 269 1
115 287 1
115 313 1
115 319 1
115 326 1
115 337 1
115 370 1
115 376 1
115 383 1
116 4 1
116 30 1
116 36 1
116 43 1
116 231 1
116 257 1
116 263 1
116 270 1
116 281 1
116 314 1
116 320 1
116 327 1
116 338 1
116 371 1
116 377 1
116 384 1
117 5 1
117 31 1
117 37 1
117 44 1
117 225 1
117 258 1
117 264 1
117 271 1
117 282 1
117 315 1
117 321 1
117 328 1
117 339 1
117 365 1
117 378 1
117 385 1
118 6 1
118 32 1
118 38 1
118 45 1
118 226 1
118 259 1
118 265 1
118 272 1
118 283 1
118 309 1
118 322 1
118 329 1
118 340 1
118 366 1
118 372 1
118 379 1
119 7 1
119 33 1
119 39 1
119 46 1
119 227 1
119 253 1
119 266 1
119 273 1
119 284 1
119 310 1
119 316 1
119 323 1
119 341 1
119 367 1
119 373 1
119 380 1
120 8 1
120 34 1
120 40 1
120 52 1
120 235 1
120 254 1
120 260 1
120 279 1
120 292 1
120 311 1
120 317 1
120 336 1
120 349 1
120 368 1
120 374 1
120 386 1
121 9 1
121 35 1
121 41 1
121 53 1
121 236 1
121 255 1
121 261 1
121 280 1
121 293 1
121 312 1
121 318 1
121 330 1
121 350 1
121 369 1
121 375 1
121 387 1
122 10 1
122 29 1
122 42 1
122 54 1
122 237 1
122 256 1
122 262 1
122 274 1
122 294 1
122 313 1
122 319 1
122 331 1
122 344 1
122 370 1
122 376 1
122 388 1
123 11 1
123 30 1
123 36 1
123 55 1
123 238 1
123 257 1
123 263 1
123 275 1
123 288 1
123 314 1
123 320 1
123 332 1
123 345 1
123 371 1
123 377 1
123 389 1
124 12 1
124 31 1
124 37 1
124 56 1
124 232 1
124 258 1
124 264 1
124 276 1
124 289 1
124 315 1
124 321 1
124 333 1
124 346 1
124 365 1
124 378 1
124 390 1
125 13 1
125 32 1
125 38 1
125 50 1
125 233 1
125 259 1
125 265 1
125 277 1
125 290 1
125 309 1
125 322 1
125 334 1
125 347 1
125 366 1
125 372 1
125 391 1
126 14 1
126 33 1
126 39 1
126 51 1
126 234 1
126 253 1
126 266 1
126 278 1
126 291 1
126 310 1
126 316 1
126 335 1
126 348 1
126 367 1
126 373 1
126 392 1
127 21 1
127 34 1
127 47 1
127 52 1
127 241 1
127 254 1
127 267 1
127 279 1
127 298 1
127 311 1
127 324 1
127 336 1
127 355 1
127 368 1
127 381 1
127 386 1
128 15 1
128 35 1
128 48 1
128 53 1
128 242 1
128 255 1
128 268 1
128 280 1
128 299 1
128 312 1
128 325 1
128 330 1
128 356 1
128 369 1
128 382 1
128 387 1
129 16 1
129 29 1
129 49 1
129 54 1
129 243 1
129 256 1
129 269 1
129 274 1
129 300 1
129 313 1
129 326 1
129 331 1
129 357 1
129 370 1
129 383 1
129 388 1
130 17 1
130 30 1
130 43 1
130 55 1
130 244 1
130 257 1
130 270 1
130 275 1
130 301 1
130 314 1
130 327 1
130 332 1
130 351 1
130 371 1
130 384 1
130 389 1
131 18 1
131 31 1
131 44 1
131 56 1
131 245 1
131 258 1
131 271 1
131 276 1
131 295 1
131 315 1
131 328 1
131 333 1
131 352 1
131 365 1
131 385 1
131 390 1
132 19 1
132 32 1
132 45 1
132 50 1
132 239 1
132 259 1
132 272 1
132 277 1
132 296 1
132 309 1
132 329 1
132 334 1
132 353 1
132 366 1
132 379 1
132 391 1
133 20 1
133 33 1
133 46 1
133 51 1
133 240 1
133 253 1
133 273 1
133 278 1
133 297 1
133 310 1
133 323 1
133 335 1
133 354 1
133 367 1
133 380 1
133 392 1
134 27 1
134 40 1
134 47 1
134 52 1
134 247 1
134 260 1
134 267 1
134 279 1
134 304 1
134 317 1
134 324 1
134 336 1
134 361 1
134 374 1
134 381 1
134 386 1
135 28 1
135 41 1
135 48 1
135 53 1
135 248 1
135 261 1
135 268 1
135 280 1
135 305 1
135 318 1
135 325 1
135 330 1
135 362 1
135 375 1
135 382 1
135 387 1
136 22 1
136 42 1
136 49 1
136 54 1
136 249 1
136 262 1
136 269 1
136 274 1
136 306 1
136 319 1
136 326 1
136 331 1
136 363 1
136 376 1
136 383 1
136 388 1
137 23 1
137 36 1
137 43 1
137 55 1
137 250 1
137 263 1
137 270 1
137 275 1
137 307 1
137 320 1
137 327 1
137 332 1
137 364 1
137 377 1
137 384 1
137 389 1
138 24 1
138 37 1
138 44 1
138 56 1
138 251 1
138 264 1
138 271 1
138 276 1
138 308 1
138 321 1
138 328 1
138 333 1
138 358 1
138 378 1
138 385 1
138 390 1
139 25 1
139 38 1
139 45 1
139 50 1
139 252 1
139 265 1
139 272 1
139 277 1
139 302 1
139 322 1
139 329 1
139 334 1
139 359 1
139 372 1
139 379 1
139 391 1
140 26 1
140 39 1
140 46 1
140 51 1
140 246 1
140 266 1
140 273 1
140 278 1
140 303 1
140 316 1
140 323 1
140 335 1
140 360 1
140 373 1
140 380 1
140 392 1
141 57 1
141 90 1
141 96 1
141 103 1
141 228 1
141 254 1
141 260 1
141 267 1
141 285 1
141 311 1
141 317 1
141 324 1
141 399 1
141 425 1
141 431 1
141 438 1
142 58 1
142 91 1
142 97 1
142 104 1
142 229 1
142 255 1
142 261 1
142 268 1
142 286 1
142 312 1
142 318 1
142 325 1
142 393 1
142 426 1
142 432 1
142 439 1
143 59 1
143 85 1
143 98 1
143 105 1
143 230 1
143 256 1
143 262 1
143 269 1
143 287 1
143 313 1
143 319 1
143 326 1
143 394 1
143 427 1
143 433 1
143 440 1
144 60 1
144 86 1
144 92 1
144 99 1
144 231 1
144 257 1
144 263 1
144 270 1
144 281 1
144 314 1
144 320 1
144 327 1
144 395 1
144 421 1
144 434 1
144 441 1
145 61 1
145 87 1
145 93 1
145 100 1
145 225 1
145 258 1
145 264 1
145 271 1
145 282 1
145 315 1
145 321 1
145 328 1
145 396 1
145 422 1
145 428 1
145 435 1
146 62 1
146 88 1
146 94 1
146 101 1
146 226 1
146 259 1
146 265 1
146 272 1
146 283 1
146 309 1
146 322 1
146 329 1
146 397 1
146 423 1
146 429 1
146 436 1
147 63 1
147 89 1
147 95 1
147 102 1
147 227 1
147 253 1
147 266 1
147 273 1
147 284 1
147 310 1
147 316 1
147 323 1
147 398 1
147 424 1
147 430 1
147 437 1
148 64 1
148 90 1
148 96 1
148 108 1
148 235 1
148 254 1
148 260 1
148 279 1
148 292 1
148 311 1
148 317 1
148 336 1
148 406 1
148 425 1
148 431 1
148 443 1
149 65 1
149 91 1
149 97 1
149 109 1
149 236 1
149 255 1
149 261 1
149 280 1
149 293 1
149 312 1
149 318 1
149 330 1
149 400 1
149 426 1
149 432 1
149 444 1
150 66 1
150 85 1
150 98 1
150 110 1
150 237 1
150 256 1
150 262 1
150 274 1
150 294 1
150 313 1
150 319 1
150 331 1
150 401 1
150 427 1
150 433 1
150 445 1
151 67 1
151 86 1
151 92 1
151 111 1
151 238 1
151 257 1
151 263 1
151 275 1
151 288 1
151 314 1
151 320 1
151 332 1
151 402 1
151 421 1
151 434 1
151 446 1
152 68 1
152 87 1
152 93 1
152 112 1
152 232 1
152 258 1
152 264 1
152 276 1
152 289 1
152 315 1
152 321 1
152 333 1
152 403 1
152 422 1
152 428 1
152 447 1
153 69 1
153 88 1
153 94 1
153 106 1
153 233 1
153 259 1
153 265 1
153 277 1
153 290 1
153 309 1
153 322 1
153 334 1
153 404 1
153 423 1
153 429 1
153 448 1
154 70 1
154 89 1
154 95 1
154 107 1
154 234 1
154 253 1
154 266 1
154 278 1
154 291 1
154 310 1
154 316 1
154 335 1
154 405 1
154 424 1
154 430 1
154 442 1
155 77 1
155 90 1
155 103 1
155 108 1
155 241 1
155 254 1
155 267 1
155 279 1
155 298 1
155 311 1
155 324 1
155 336 1
155 412 1
155 425 1
155 438 1
155 443 1
156 71 1
156 91 1
156 104 1
156 109 1
156 242 1
156 255 1
156 268 1
156 280 1
156 299 1
156 312 1
156 325 1
156 330 1
156 413 1
156 426 1
156 439 1
156 444 1
157 72 1
157 85 1
157 105 1
157 110 1
157 243 1
157 256 1
157 269 1
157 274 1
157 300 1
157 313 1
157 326 1
157 331 1
157 407 1
157 427 1
157 440 1
157 445 1
158 73 1
158 86 1
158 99 1
158 111 1
158 244 1
158 257 1
158 270 1
158 275 1
158 301 1
158 314 1
158 327 1
158 332 1
158 408 1
158 421 1
158 441 1
158 446 1
159 74 1
159 87 1
159 100 1
159 112 1
159 245 1
159 258 1
159 271 1
159 276 1
159 295 1
159 315 1
159 328 1
159 333 1
159 409 1
159 422 1
159 435 1
159 447 1
160 75 1
160 88 1
160 101 1
160 106 1
160 239 1
160 259 1
160 272 1
160 277 1
160 296 1
160 309 1
160 329 1
160 334 1
160 410 1
160 423 1
160 436 1
160 448 1
161 76 1
161 89 1
161 102 1
161 107 1
161 240 1
161 253 1
161 273 1
161 278 1
161 297 1
161 310 1
161 323 1
161 335 1
161 411 1
161 424 1
161 437 1
161 442 1
162 83 1
162 96 1
162 103 1
162 108 1
162 247 1
162 260 1
162 267 1
162 279 1
162 304 1
162 317 1
162 324 1
162 336 1
162 418 1
162 431 1
162 438 1
162 443 1
163 84 1
163 97 1
163 104 1
163 109 1
163 248 1
163 261 1
163 268 1
163 280 1
163 305 1
163 318 1
163 325 1
163 330 1
163 419 1
163 432 1
163 439 1
163 444 1
164 78 1
164 98 1
164 105 1
164 110 1
164 249 1
164 262 1
164 269 1
164 274 1
164 306 1
164 319 1
164 326 1
164 331 1
164 420 1
164 433 1
164 440 1
164 445 1
165 79 1
165 92 1
165 99 1
165 111 1
165 250 1
165 263 1
165 270 1
165 275 1
165 307 1
165 320 1
165 327 1
165 332 1
165 414 1
165 434 1
165 441 1
165 446 1
166 80 1
166 93 1
166 100 1
166 112 1
166 251 1
166 264 1
166 271 1
166 276 1
166 308 1
166 321 1
166 328 1
166 333 1
166 415 1
166 428 1
166 435 1
166 447 1
167 81 1
167 94 1
167 101 1
167 106 1
167 252 1
167 265 1
167 272 1
167 277 1
167 302 1
167 322 1
167 329 1
167 334 1
167 416 1
167 429 1
167 436 1
167 448 1
168 82 1
168 95 1
168 102 1
168 107 1
168 246 1
168 266 1
168 273 1
168 278 1
168 303 1
168 316 1
168 323 1
168 335 1
168 417 1
168 430 1
168 437 1
168 442 1
169 114 1
169 147 1
169 153 1
169 160 1
169 228 1
169 254 1
169 260 1
169 267 1
169 342 1
169 368 1
169 374 1
169 381 1
169 399 1
169 425 1
169 431 1
169 438 1
170 115 1
170 141 1
170 154 1
170 161 1
170 229 1
170 255 1
170 261 1
170 268 1
170 343 1
170 369 1
170 375 1
170 382 1
170 393 1
170 426 1
170 432 1
170 439 1
171 116 1
171 142 1
171 148 1
171 155 1
171 230 1
171 256 1
171 262 1
171 269 1
171 337 1
171 370 1
171 376 1
171 383 1
171 394 1
171 427 1
171 433 1
171 440 1
172 117 1
172 143 1
172 149 1
172 156 1
172 231 1
172 257 1
172 263 1
172 270 1
172 338 1
172 371 1
172 377 1
172 384 1
172 395 1
172 421 1
172 434 1
172 441 1
173 118 1
173 144 1
173 150 1
173 157 1
173 225 1
173 258 1
173 264 1
173 271 1
173 339 1
173 365 1
173 378 1
173 385 1
173 396 1
173 422 1
173 428 1
173 435 1
174 119 1
174 145 1
174 151 1
174 158 1
174 226 1
174 259 1
174 265 1
174 272 1
174 340 1
174 366 1
174 372 1
174 379 1
174 397 1
174 423 1
174 429 1
174 436 1
175 113 1
175 146 1
175 152 1
175 159 1
175 227 1
175 253 1
175 266 1
175 273 1
175 341 1
175 367 1
175 373 1
175 380 1
175 398 1
175 424 1
175 430 1
175 437 1
176 121 1
176 147 1
176 153 1
176 165 1
176 235 1
176 254 1
176 260 1
176 279 1
176 349 1
176 368 1
176 374 1
176 386 1
176 406 1
176 425 1
176 431 1
176 443 1
177 122 1
177 141 1
177 154 1
177 166 1
177 236 1
177 255 1
177 261 1
177 280 1
177 350 1
177 369 1
177 375 1
177 387 1
177 400 1
177 426 1
177 432 1
177 444 1
178 123 1
178 142 1
178 148 1
178 167 1
178 237 1
178 256 1
178 262 1
178 274 1
178 344 1
178 370 1
178 376 1
178 388 1
178 401 1
178 427 1
178 433 1
178 445 1
179 124 1
179 143 1
179 149 1
179 168 1
179 238 1
179 257 1
179 263 1
179 275 1
179 345 1
179 371 1
179 377 1
179 389 1
179 402 1
179 421 1
179 434 1
179 446 1
180 125 1
180 144 1
180 150 1
180 162 1
180 232 1
180 258 1
180 264 1
180 276 1
180 346 1
180 365 1
180 378 1
180 390 1
180 403 1
180 422 1
180 428 1
180 447 1
181 126 1
181 145 1
181 151 1
181 163 1
181 233 1
181 259 1
181 265 1
181 277 1
181 347 1
181 366 1
181 372 1
181 391 1
181 404 1
181 423 1
181 429 1
181 448 1
182 120 1
182 146 1
182 152 1
182 164 1
182 234 1
182 253 1
182 266 1
182 278 1
182 348 1
182 367 1
182 373 1
182 392 1
182 405 1
182 424 1
182 430 1
182 442 1
183 127 1
183 147 1
183 160 1
183 165 1
183 241 1
183 254 1
183 267 1
183 279 1
183 355 1
183 368 1
183 381 1
183 386 1
183 412 1
183 425 1
183 438 1
183 443 1
184 128 1
184 141 1
184 161 1
184 166 1
184 242 1
184 255 1
184 268 1
184 280 1
184 356 1
184 369 1
184 382 1
184 387 1
184 413 1
184 426 1
184 439 1
184 444 1
185 129 1
185 142 1
185 155 1
185 167 1
185 243 1
185 256 1
185 269 1
185 274 1
185 357 1
185 370 1
185 383 1
185 388 1
185 407 1
185 427 1
185 440 1
185 445 1
186 130 1
186 143 1
186 156 1
186 168 1
186 244 1
186 257 1
186 270 1
186 275 1
186 351 1
186 371 1
186 384 1
186 389 1
186 408 1
186 421 1
186 441 1
186 446 1
187 131 1
187 144 1
187 157 1
187 162 1
187 245 1
187 258 1
187 271 1
187 276 1
187 352 1
187 365 1
187 385 1
187 390 1
187 409 1
187 422 1
187 435 1
187 447 1
188 132 1
188 145 1
188 158 1
188 163 1
188 239 1
188 259 1
188 272 1
188 277 1
188 353 1
188 366 1
188 379 1
188 391 1
188 410 1
188 423 1
188 436 1
188 448 1
189 133 1
189 146 1
189 159 1
189 164 1
189 240 1
189 253 1
189 273 1
189 278 1
189 354 1
189 367 1
189 380 1
189 392 1
189 411 1
189 424 1
189 437 1
189 442 1
190 140 1
190 153 1
190 160 1
190 165 1
190 247 1
190 260 1
190 267 1
190 279 1
190 361 1
190 374 1
190 381 1
190 386 1
190 418 1
190 431 1
190 438 1
190 443 1
191 134 1
191 154 1
191 161 1
191 166 1
191 248 1
191 261 1
191 268 1
191 280 1
191 362 1
191 375 1
191 382 1
191 387 1
191 419 1
191 432 1
191 439 1
191 444 1
192 135 1
192 148 1
192 155 1
192 167 1
192 249 1
192 262 1
192 269 1
192 274 1
192 363 1
192 376 1
192 383 1
192 388 1
192 420 1
192 433 1
192 440 1
192 445 1
193 136 1
193 149 1
193 156 1
193 168 1
193 250 1
193 263 1
193 270 1
193 275 1
193 364 1
193 377 1
193 384 1
193 389 1
193 414 1
193 434 1
193 441 1
193 446 1
194 137 1
194 150 1
194 157 1
194 162 1
194 251 1
194 264 1
194 271 1
194 276 1
194 358 1
194 378 1
194 385 1
194 390 1
194 415 1
194 428 1
194 435 1
194 447 1
195 138 1
195 151 1
195 158 1
195 163 1
195 252 1
195 265 1
195 272 1
195 277 1
195 359 1
195 372 1
195 379 1
195 391 1
195 416 1
195 429 1
195 436 1
195 448 1
196 139 1
196 152 1
196 159 1
196 164 1
196 246 1
196 266 1
196 273 1
196 278 1
196 360 1
196 373 1
196 380 1
196 392 1
196 417 1
196 430 1
196 437 1
196 442 1
197 172 1
197 198 1
197 204 1
197 211 1
197 285 1
197 311 1
197 317 1
197 324 1
197 342 1
197 368 1
197 374 1
197 381 1
197 399 1
197 425 1
197 431 1
197 438 1
198 173 1
198 199 1
198 205 1
198 212 1
198 286 1
198 312 1
198 318 1
198 325 1
198 343 1
198 369 1
198 375 1
198 382 1
198 393 1
198 426 1
198 432 1
198 439 1
199 174 1
199 200 1
199 206 1
199 213 1
199 287 1
199 313 1
199 319 1
199 326 1
199 337 1
199 370 1
199 376 1
199 383 1
199 394 1
199 427 1
199 433 1
199 440 1
200 175 1
200 201 1
200 207 1
200 214 1
200 281 1
200 314 1
200 320 1
200 327 1
200 338 1
200 371 1
200 377 1
200 384 1
200 395 1
200 421 1
200 434 1
200 441 1
201 169 1
201 202 1
201 208 1
201 215 1
201 282 1
201 315 1
201 321 1
201 328 1
201 339 1
201 365 1
201 378 1
201 385 1
201 396 1
201 422 1
201 428 1
201 435 1
202 170 1
202 203 1
202 209 1
202 216 1
202 283 1
202 309 1
202 322 1
202 329 1
202 340 1
202 366 1
202 372 1
202 379 1
202 397 1
202 423 1
202 429 1
202 436 1
203 171 1
203 197 1
203 210 1
203 217 1
203 284 1
203 310 1
203 316 1
203 323 1
203 341 1
203 367 1
203 373 1
203 380 1
203 398 1
203 424 1
203 430 1
203 437 1
204 179 1
204 198 1
204 204 1
204 223 1
204 292 1
204 311 1
204 317 1
204 336 1
204 349 1
204 368 1
204 374 1
204 386 1
204 406 1
204 425 1
204 431 1
204 443 1
205 180 1
205 199 1
205 205 1
205 224 1
205 293 1
205 312 1
205 318 1
205 330 1
205 350 1
205 369 1
205 375 1
205 387 1
205 400 1
205 426 1
205 432 1
205 444 1
206 181 1
206 200 1
206 206 1
206 218 1
206 294 1
206 313 1
206 319 1
206 331 1
206 344 1
206 370 1
206 376 1
206 388 1
206 401 1
206 427 1
206 433 1
206 445 1
207 182 1
207 201 1
207 207 1
207 219 1
207 288 1
207 314 1
207 320 1
207 332 1
207 345 1
207 371 1
207 377 1
207 389 1
207 402 1
207 421 1
207 434 1
207 446 1
208 176 1
208 202 1
208 208 1
208 220 1
208 289 1
208 315 1
208 321 1
208 333 1
208 346 1
208 365 1
208 378 1
208 390 1
208 403 1
208 422 1
208 428 1
208 447 1
209 177 1
209 203 1
209 209 1
209 221 1
209 290 1
209 309 1
209 322 1
209 334 1
209 347 1
209 366 1
209 372 1
209 391 1
209 404 1
209 423 1
209 429 1
209 448 1
210 178 1
210 197 1
210 210 1
210 222 1
210 291 1
210 310 1
210 316 1
210 335 1
210 348 1
210 367 1
210 373 1
210 392 1
210 405 1
210 424 1
210 430 1
210 442 1
211 185 1
211 198 1
211 211 1
211 223 1
211 298 1
211 311 1
211 324 1
211 336 1
211 355 1
211 368 1
211 381 1
211 386 1
211 412 1
211 425 1
211 438 1
211 443 1
212 186 1
212 199 1
212 212 1
212 224 1
212 299 1
212 312 1
212 325 1
212 330 1
212 356 1
212 369 1
212 382 1
212 387 1
212 413 1
212 426 1
212 439 1
212 444 1
213 187 1
213 200 1
213 213 1
213 218 1
213 300 1
213 313 1
213 326 1
213 331 1
213 357 1
213 370 1
213 383 1
213 388 1
213 407 1
213 427 1
213 440 1
213 445 1
214 188 1
214 201 1
214 214 1
214 219 1
214 301 1
214 314 1
214 327 1
214 332 1
214 351 1
214 371 1
214 384 1
214 389 1
214 408 1
214 421 1
214 441 1
214 446 1
215 189 1
215 202 1
215 215 1
215 220 1
215 295 1
215 315 1
215 328 1
215 333 1
215 352 1
215 365 1
215 385 1
215 390 1
215 409 1
215 422 1
215 435 1
215 447 1
216 183 1
216 203 1
216 216 1
216 221 1
216 296 1
216 309 1
216 329 1
216 334 1
216 353 1
216 366 1
216 379 1
216 391 1
216 410 1
216 423 1
216 436 1
216 448 1
217 184 1
217 197 1
217 217 1
217 222 1
217 297 1
217 310 1
217 323 1
217 335 1
217 354 1
217 367 1
217 380 1
217 392 1
217 411 1
217 424 1
217 437 1
217 442 1
218 191 1
218 204 1
218 211 1
218 223 1
218 304 1
218 317 1
218 324 1
218 336 1
218 361 1
218 374 1
218 381 1
218 386 1
218 418 1
218 431 1
218 438 1
218 443 1
219 192 1
219 205 1
219 212 1
219 224 1
219 305 1
219 318 1
219 325 1
219 330 1
219 362 1
219 375 1
219 382 1
219 387 1
219 419 1
219 432 1
219 439 1
219 444 1
220 193 1
220 206 1
220 213 1
220 218 1
220 306 1
220 319 1
220 326 1
220 331 1
220 363 1
220 376 1
220 383 1
220 388 1
220 420 1
220 433 1
220 440 1
220 445 1
221 194 1
221 207 1
221 214 1
221 219 1
221 307 1
221 320 1
221 327 1
221 332 1
221 364 1
221 377 1
221 384 1
221 389 1
221 414 1
221 434 1
221 441 1
221 446 1
222 195 1
222 208 1
222 215 1
222 220 1
222 308 1
222 321 1
222 328 1
222 333 1
222 358 1
222 378 1
222 385 1
222 390 1
222 415 1
222 428 1
222 435 1
222 447 1
223 196 1
223 209 1
223 216 1
223 221 1
223 302 1
223 322 1
223 329 1
223 334 1
223 359 1
223 372 1
223 379 1
223 391 1
223 416 1
223 429 1
223 436 1
223 448 1
224 190 1
224 210 1
224 217 1
224 222 1
224 303 1
224 316 1
224 323 1
224 335 1
224 360 1
224 373 1
224 380 1
224 392 1
224 417 1
224 430 1
224 437 1
224 442 1
