%%MatrixMarket matrix coordinate integer general
256 512 4096
1 1 1
1 33 1
1 41 1
1 49 1
1 257 1
1 289 1
1 297 1
1 305 1
1 321 1
1 353 1
1 361 1
1 369 1
1 385 1
1 417 1
1 425 1
1 433 1
2 2 1
2 34 1
2 42 1
2 50 1
2 258 1
2 290 1
2 298 1
2 306 1
2 322 1
2 354 1
2 362 1
2 370 1
2 386 1
2 418 1
2 426 1
2 434 1
3 3 1
3 35 1
3 43 1
3 51 1
3 259 1
3 291 1
3 299 1
3 307 1
3 323 1
3 355 1
3 363 1
3 371 1
3 387 1
3 419 1
3 427 1
3 435 1
4 4 1
4 36 1
4 44 1
4 52 1
4 260 1
4 292 1
4 300 1
4 308 1
4 324 1
4 356 1
4 364 1
4 372 1
4 388 1
4 420 1
4 428 1
4 436 1
5 5 1
5 37 1
5 45 1
5 53 1
5 261 1
5 293 1
5 301 1
5 309 1
5 325 1
5 357 1
5 365 1
5 373 1
5 389 1
5 421 1
5 429 1
5 437 1
6 6 1
6 38 1
6 46 1
6 54 1
6 262 1
6 294 1
6 302 1
6 310 1
6 326 1
6 358 1
6 366 1
6 374 1
6 390 1
6 422 1
6 430 1
6 438 1
7 7 1
7 39 1
7 47 1
7 55 1
7 263 1
7 295 1
7 303 1
7 311 1
7 327 1
7 359 1
7 367 1
7 375 1
7 391 1
7 423 1
7 431 1
7 439 1
8 8 1
8 40 1
8 48 1
8 56 1
8 264 1
8 296 1
8 304 1
8 312 1
8 328 1
8 360 1
8 368 1
8 376 1
8 392 1
8 424 1
8 432 1
8 440 1
9 9 1
9 33 1
9 41 1
9 57 1
9 265 1
9 289 1
9 297 1
9 313 1
9 329 1
9 353 1
9 361 1
9 377 1
9 393 1
9 417 1
9 425 1
9 441 1
10 10 1
10 34 1
10 42 1
10 58 1
10 266 1
10 290 1
10 298 1
10 314 1
10 330 1
10 354 1
10 362 1
10 378 1
10 394 1
10 418 1
10 426 1
10 442 1
11 11 1
11 35 1
11 43 1
11 59 1
11 267 1
11 291 1
11 299 1
11 315 1
11 331 1
11 355 1
11 363 1
11 379 1
11 395 1
11 419 1
11 427 1
11 443 1
12 12 1
12 36 1
12 44 1
12 60 1
12 268 1
12 292 1
12 300 1
12 316 1
12 332 1
12 356 1
12 364 1
12 380 1
12 396 1
12 420 1
12 428 1
12 444 1
13 13 1
13 37 1
13 45 1
13 61 1
13 269 1
13 293 1
13 301 1
13 317 1
13 333 1
13 357 1
13 365 1
13 381 1
13 397 1
13 421 1
13 429 1
13 445 1
14 14 1
14 38 1
14 46 1
14 62 1
14 270 1
14 294 1
14 302 1
14 318 1
14 334 1
14 358 1
14 366 1
14 382 1
14 398 1
14 422 1
14 430 1
14 446 1
15 15 1
15 39 1
15 47 1
15 63 1
15 271 1
15 295 1
15 303 1
15 319 1
15 335 1
15 359 1
15 367 1
15 383 1
15 399 1
15 423 1
15 431 1
15 447 1
16 16 1
16 40 1
16 48 1
16 64 1
16 272 1
16 296 1
16 304 1
16 320 1
16 336 1
16 360 1
16 368 1
16 384 1
16 400 1
16 424 1
16 432 1
16 448 1
17 17 1
17 33 1
17 49 1
17 57 1
17 273 1
17 289 1
17 305 1
17 313 1
17 337 1
17 353 1
17 369 1
17 377 1
17 401 1
17 417 1
17 433 1
17 441 1
18 18 1
18 34 1
18 50 1
18 58 1
18 274 1
18 290 1
18 306 1
18 314 1
18 338 1
18 354 1
18 370 1
18 378 1
18 402 1
18 418 1
18 434 1
18 442 1
19 19 1
19 35 1
19 51 1
19 59 1
19 275 1
19 291 1
19 307 1
19 315 1
19 339 1
19 355 1
19 371 1
19 379 1
19 403 1
19 419 1
19 435 1
19 443 1
20 20 1
20 36 1
20 52 1
20 60 1
20 276 1
20 292 1
20 308 1
20 316 1
20 340 1
20 356 1
20 372 1
20 380 1
20 404 1
20 420 1
20 436 1
20 444 1
21 21 1
21 37 1
21 53 1
21 61 1
21 277 1
21 293 1
21 309 1
21 317 1
21 341 1
21 357 1
21 373 1
21 381 1
21 405 1
21 421 1
21 437 1
21 445 1
22 22 1
22 38 1
22 54 1
22 62 1
22 278 1
22 294 1
22 310 1
22 318 1
22 342 1
22 358 1
22 374 1
22 382 1
22 406 1
22 422 1
22 438 1
22 446 1
23 23 1
23 39 1
23 55 1
23 63 1
23 279 1
23 295 1
23 311 1
23 319 1
23 343 1
23 359 1
23 375 1
23 383 1
23 407 1
23 423 1
23 439 1
23 447 1
24 24 1
24 40 1
24 56 1
24 64 1
24 280 1
24 296 1
24 312 1
24 320 1
24 344 1
24 360 1
24 376 1
24 384 1
24 408 1
24 424 1
24 440 1
24 448 1
25 25 1
25 41 1
25 49 1
25 57 1
25 281 1
25 297 1
25 305 1
25 313 1
25 345 1
25 361 1
25 369 1
25 377 1
25 409 1
25 425 1
25 433 1
25 441 1
26 26 1
26 42 1
26 50 1
26 58 1
26 282 1
26 298 1
26 306 1
26 314 1
26 346 1
26 362 1
26 370 1
26 378 1
26 410 1
26 426 1
26 434 1
26 442 1
27 27 1
27 43 1
27 51 1
27 59 1
27 283 1
27 299 1
27 307 1
27 315 1
27 347 1
27 363 1
27 371 1
27 379 1
27 411 1
27 427 1
27 435 1
27 443 1
28 28 1
28 44 1
28 52 1
28 60 1
28 284 1
28 300 1
28 308 1
28 316 1
28 348 1
28 364 1
28 372 1
28 380 1
28 412 1
28 428 1
28 436 1
28 444 1
29 29 1
29 45 1
29 53 1
29 61 1
29 285 1
29 301 1
29 309 1
29 317 1
29 349 1
29 365 1
29 373 1
29 381 1
29 413 1
29 429 1
29 437 1
29 445 1
30 30 1
30 46 1
30 54 1
30 62 1
30 286 1
30 302 1
30 310 1
30 318 1
30 350 1
30 366 1
30 374 1
30 382 1
30 414 1
30 430 1
30 438 1
30 446 1
31 31 1
31 47 1
31 55 1
31 63 1
31 287 1
31 303 1
31 311 1
31 319 1
31 351 1
31 367 1
31 375 1
31 383 1
31 415 1
31 431 1
31 439 1
31 447 1
32 32 1
32 48 1
32 56 1
32 64 1
32 288 1
32 304 1
32 312 1
32 320 1
32 352 1
32 368 1
32 376 1
32 384 1
32 416 1
32 432 1
32 440 1
32 448 1
33 65 1
33 97 1
33 105 1
33 113 1
33 257 1
33 289 1
33 297 1
33 305 1
33 321 1
33 353 1
33 361 1
33 369 1
33 449 1
33 481 1
33 489 1
33 497 1
34 66 1
34 98 1
34 106 1
34 114 1
34 258 1
34 290 1
34 298 1
34 306 1
34 322 1
34 354 1
34 362 1
34 370 1
34 450 1
34 482 1
34 490 1
34 498 1
35 67 1
35 99 1
35 107 1
35 115 1
35 259 1
35 291 1
35 299 1
35 307 1
35 323 1
35 355 1
35 363 1
35 371 1
35 451 1
35 483 1
35 491 1
35 499 1
36 68 1
36 100 1
36 108 1
36 116 1
36 260 1
36 292 1
36 300 1
36 308 1
36 324 1
36 356 1
36 364 1
36 372 1
36 452 1
36 484 1
36 492 1
36 500 1
37 69 1
37 101 1
37 109 1
37 117 1
37 261 1
37 293 1
37 301 1
37 309 1
37 325 1
37 357 1
37 365 1
37 373 1
37 453 1
37 485 1
37 493 1
37 501 1
38 70 1
38 102 1
38 110 1
38 118 1
38 262 1
38 294 1
38 302 1
38 310 1
38 326 1
38 358 1
38 366 1
38 374 1
38 454 1
38 486 1
38 494 1
38 502 1
39 71 1
39 103 1
39 111 1
39 119 1
39 263 1
39 295 1
39 303 1
39 311 1
39 327 1
39 359 1
39 367 1
39 375 1
39 455 1
39 487 1
39 495 1
39 503 1
40 72 1
40 104 1
40 112 1
40 120 1
40 264 1
40 296 1
40 304 1
40 312 1
40 328 1
40 360 1
40 368 1
40 376 1
40 456 1
40 488 1
40 496 1
40 504 1
41 73 1
41 97 1
41 105 1
41 121 1
41 265 1
41 289 1
41 297 1
41 313 1
41 329 1
41 353 1
41 361 1
41 377 1
41 457 1
41 481 1
41 489 1
41 505 1
42 74 1
42 98 1
42 106 1
42 122 1
42 266 1
42 290 1
42 298 1
42 314 1
42 330 1
42 354 1
42 362 1
42 378 1
42 458 1
42 482 1
42 490 1
42 506 1
43 75 1
43 99 1
43 107 1
43 123 1
43 267 1
43 291 1
43 299 1
43 315 1
43 331 1
43 355 1
43 363 1
43 379 1
43 459 1
43 483 1
43 491 1
43 507 1
44 76 1
44 100 1
44 108 1
44 124 1
44 268 1
44 292 1
44 300 1
44 316 1
44 332 1
44 356 1
44 364 1
44 380 1
44 460 1
44 484 1
44 492 1
44 508 1
45 77 1
45 101 1
45 109 1
45 125 1
45 269 1
45 293 1
45 301 1
45 317 1
45 333 1
45 357 1
45 365 1
45 381 1
45 461 1
45 485 1
45 493 1
45 509 1
46 78 1
46 102 1
46 110 1
46 126 1
46 270 1
46 294 1
46 302 1
46 318 1
46 334 1
46 358 1
46 366 1
46 382 1
46 462 1
46 486 1
46 494 1
46 510 1
47 79 1
47 103 1
47 111 1
47 127 1
47 271 1
47 295 1
47 303 1
47 319 1
47 335 1
47 359 1
47 367 1
47 383 1
47 463 1
47 487 1
47 495 1
47 511 1
48 80 1
48 104 1
48 112 1
48 128 1
48 272 1
48 296 1
48 304 1
48 320 1
48 336 1
48 360 1
48 368 1
48 384 1
48 464 1
48 488 1
48 496 1
48 512 1
49 81 1
49 97 1
49 113 1
49 121 1
49 273 1
49 289 1
49 305 1
49 313 1
49 337 1
49 353 1
49 369 1
49 377 1
49 465 1
49 481 1
49 497 1
49 505 1
50 82 1
50 98 1
50 114 1
50 122 1
50 274 1
50 290 1
50 306 1
50 314 1
50 338 1
50 354 1
50 370 1
50 378 1
50 466 1
50 482 1
50 498 1
50 506 1
51 83 1
51 99 1
51 115 1
51 123 1
51 275 1
51 291 1
51 307 1
51 315 1
51 339 1
51 355 1
51 371 1
51 379 1
51 467 1
51 483 1
51 499 1
51 507 1
52 84 1
52 100 1
52 116 1
52 124 1
52 276 1
52 292 1
52 308 1
52 316 1
52 340 1
52 356 1
52 372 1
52 380 1
52 468 1
52 484 1
52 500 1
52 508 1
53 85 1
53 101 1
53 117 1
53 125 1
53 277 1
53 293 1
53 309 1
53 317 1
53 341 1
53 357 1
53 373 1
53 381 1
53 469 1
53 485 1
53 501 1
53 509 1
54 86 1
54 102 1
54 118 1
54 126 1
54 278 1
54 294 1
54 310 1
54 318 1
54 342 1
54 358 1
54 374 1
54 382 1
54 470 1
54 486 1
54 502 1
54 510 1
55 87 1
55 103 1
55 119 1
55 127 1
55 279 1
55 295 1
55 311 1
55 319 1
55 343 1
55 359 1
55 375 1
55 383 1
55 471 1
55 487 1
55 503 1
55 511 1
56 88 1
56 104 1
56 120 1
56 128 1
56 280 1
56 296 1
56 312 1
56 320 1
56 344 1
56 360 1
56 376 1
56 384 1
56 472 1
56 488 1
56 504 1
56 512 1
57 89 1
57 105 1
57 113 1
57 121 1
57 281 1
57 297 1
57 305 1
57 313 1
57 345 1
57 361 1
57 369 1
57 377 1
57 473 1
57 489 1
57 497 1
57 505 1
58 90 1
58 106 1
58 114 1
58 122 1
58 282 1
58 298 1
58 306 1
58 314 1
58 346 1
58 362 1
58 370 1
58 378 1
58 474 1
58 490 1
58 498 1
58 506 1
59 91 1
59 107 1
59 115 1
59 123 1
59 283 1
59 299 1
59 307 1
59 315 1
59 347 1
59 363 1
59 371 1
59 379 1
59 475 1
59 491 1
59 499 1
59 507 1
60 92 1
60 108 1
60 116 1
60 124 1
60 284 1
60 300 1
60 308 1
60 316 1
60 348 1
60 364 1
60 372 1
60 380 1
60 476 1
60 492 1
60 500 1
60 508 1
61 93 1
61 109 1
61 117 1
61 125 1
61 285 1
61 301 1
61 309 1
61 317 1
61 349 1
61 365 1
61 373 1
61 381 1
61 477 1
61 493 1
61 501 1
61 509 1
62 94 1
62 110 1
62 118 1
62 126 1
62 286 1
62 302 1
62 310 1
62 318 1
62 350 1
62 366 1
62 374 1
62 382 1
62 478 1
62 494 1
62 502 1
62 510 1
63 95 1
63 111 1
63 119 1
63 127 1
63 287 1
63 303 1
63 311 1
63 319 1
63 351 1
63 367 1
63 375 1
63 383 1
63 479 1
63 495 1
63 503 1
63 511 1
64 96 1
64 112 1
64 120 1
64 128 1
64 288 1
64 304 1
64 312 1
64 320 1
64 352 1
64 368 1
64 376 1
64 384 1
64 480 1
64 496 1
64 504 1
64 512 1
65 129 1
65 161 1
65 169 1
65 177 1
65 257 1
65 289 1
65 297 1
65 305 1
65 385 1
65 417 1
65 425 1
65 433 1
65 449 1
65 481 1
65 489 1
65 497 1
66 130 1
66 162 1
66 170 1
66 178 1
66 258 1
66 290 1
66 298 1
66 306 1
66 386 1
66 418 1
66 426 1
66 434 1
66 450 1
66 482 1
66 490 1
66 498 1
67 131 1
67 163 1
67 171 1
67 179 1
67 259 1
67 291 1
67 299 1
67 307 1
67 387 1
67 419 1
67 427 1
67 435 1
67 451 1
67 483 1
67 491 1
67 499 1
68 132 1
68 164 1
68 172 1
68 180 1
68 260 1
68 292 1
68 300 1
68 308 1
68 388 1
68 420 1
68 428 1
68 436 1
68 452 1
68 484 1
68 492 1
68 500 1
69 133 1
69 165 1
69 173 1
69 181 1
69 261 1
69 293 1
69 301 1
69 309 1
69 389 1
69 421 1
69 429 1
69 437 1
69 453 1
69 485 1
69 493 1
69 501 1
70 134 1
70 166 1
70 174 1
70 182 1
70 262 1
70 294 1
70 302 1
70 310 1
70 390 1
70 422 1
70 430 1
70 438 1
70 454 1
70 486 1
70 494 1
70 502 1
71 135 1
71 167 1
71 175 1
71 183 1
71 263 1
71 295 1
71 303 1
71 311 1
71 391 1
71 423 1
71 431 1
71 439 1
71 455 1
71 487 1
71 495 1
71 503 1
72 136 1
72 168 1
72 176 1
72 184 1
72 264 1
72 296 1
72 304 1
72 312 1
72 392 1
72 424 1
72 432 1
72 440 1
72 456 1
72 488 1
72 496 1
72 504 1
73 137 1
73 161 1
73 169 1
73 185 1
73 265 1
73 289 1
73 297 1
73 313 1
73 393 1
73 417 1
73 425 1
73 441 1
73 457 1
73 481 1
73 489 1
73 505 1
74 138 1
74 162 1
74 170 1
74 186 1
74 266 1
74 290 1
74 298 1
74 314 1
74 394 1
74 418 1
74 426 1
74 442 1
74 458 1
74 482 1
74 490 1
74 506 1
75 139 1
75 163 1
75 171 1
75 187 1
75 267 1
75 291 1
75 299 1
75 315 1
75 395 1
75 419 1
75 427 1
75 443 1
75 459 1
75 483 1
75 491 1
75 507 1
76 140 1
76 164 1
76 172 1
76 188 1
76 268 1
76 292 1
76 300 1
76 316 1
76 396 1
76 420 1
76 428 1
76 444 1
76 460 1
76 484 1
76 492 1
76 508 1
77 141 1
77 165 1
77 173 1
77 189 1
77 269 1
77 293 1
77 301 1
77 317 1
77 397 1
77 421 1
77 429 1
77 445 1
77 461 1
77 485 1
77 493 1
77 509 1
78 142 1
78 166 1
78 174 1
78 190 1
78 270 1
78 294 1
78 302 1
78 318 1
78 398 1
78 422 1
78 430 1
78 446 1
78 462 1
78 486 1
78 494 1
78 510 1
79 143 1
79 167 1
79 175 1
79 191 1
79 271 1
79 295 1
79 303 1
79 319 1
79 399 1
79 423 1
79 431 1
79 447 1
79 463 1
79 487 1
79 495 1
79 511 1
80 144 1
80 168 1
80 176 1
80 192 1
80 272 1
80 296 1
80 304 1
80 320 1
80 400 1
80 424 1
80 432 1
80 448 1
80 464 1
80 488 1
80 496 1
80 512 1
81 145 1
81 161 1
81 177 1
81 185 1
81 273 1
81 289 1
81 305 1
81 313 1
81 401 1
81 417 1
81 433 1
81 441 1
81 465 1
81 481 1
81 497 1
81 505 1
82 146 1
82 162 1
82 178 1
82 186 1
82 274 1
82 290 1
82 306 1
82 314 1
82 402 1
82 418 1
82 434 1
82 442 1
82 466 1
82 482 1
82 498 1
82 506 1
83 147 1
83 163 1
83 179 1
83 187 1
83 275 1
83 291 1
83 307 1
83 315 1
83 403 1
83 419 1
83 435 1
83 443 1
83 467 1
83 483 1
83 499 1
83 507 1
84 148 1
84 164 1
84 180 1
84 188 1
84 276 1
84 292 1
84 308 1
84 316 1
84 404 1
84 420 1
84 436 1
84 444 1
84 468 1
84 484 1
84 500 1
84 508 1
85 149 1
85 165 1
85 181 1
85 189 1
85 277 1
85 293 1
85 309 1
85 317 1
85 405 1
85 421 1
85 437 1
85 445 1
85 469 1
85 485 1
85 501 1
85 509 1
86 150 1
86 166 1
86 182 1
86 190 1
86 278 1
86 294 1
86 310 1
86 318 1
86 406 1
86 422 1
86 438 1
86 446 1
86 470 1
86 486 1
86 502 1
86 510 1
87 151 1
87 167 1
87 183 1
87 191 1
87 279 1
87 295 1
87 311 1
87 319 1
87 407 1
87 423 1
87 439 1
87 447 1
87 471 1
87 487 1
87 503 1
87 511 1
88 152 1
88 168 1
88 184 1
88 192 1
88 280 1
88 296 1
88 312 1
88 320 1
88 408 1
88 424 1
88 440 1
88 448 1
88 472 1
88 488 1
88 504 1
88 512 1
89 153 1
89 169 1
89 177 1
89 185 1
89 281 1
89 297 1
89 305 1
89 313 1
89 409 1
89 425 1
89 433 1
89 441 1
89 473 1
89 489 1
89 497 1
89 505 1
90 154 1
90 170 1
90 178 1
90 186 1
90 282 1
90 298 1
90 306 1
90 314 1
90 410 1
90 426 1
90 434 1
90 442 1
90 474 1
90 490 1
90 498 1
90 506 1
91 155 1
91 171 1
91 179 1
91 187 1
91 283 1
91 299 1
91 307 1
91 315 1
91 411 1
91 427 1
91 435 1
91 443 1
91 475 1
91 491 1
91 499 1
91 507 1
92 156 1
92 172 1
92 180 1
92 188 1
92 284 1
92 300 1
92 308 1
92 316 1
92 412 1
92 428 1
92 436 1
92 444 1
92 476 1
92 492 1
92 500 1
92 508 1
93 157 1
93 173 1
93 181 1
93 189 1
93 285 1
93 301 1
93 309 1
93 317 1
93 413 1
93 429 1
93 437 1
93 445 1
93 477 1
93 493 1
93 501 1
93 509 1
94 158 1
94 174 1
94 182 1
94 190 1
94 286 1
94 302 1
94 310 1
94 318 1
94 414 1
94 430 1
94 438 1
94 446 1
94 478 1
94 494 1
94 502 1
94 510 1
95 159 1
95 175 1
95 183 1
95 191 1
95 287 1
95 303 1
95 311 1
95 319 1
95 415 1
95 431 1
95 439 1
95 447 1
95 479 1
95 495 1
95 503 1
95 511 1
96 160 1
96 176 1
96 184 1
96 192 1
96 288 1
96 304 1
96 312 1
96 320 1
96 416 1
96 432 1
96 440 1
96 448 1
96 480 1
96 496 1
96 504 1
96 512 1
97 193 1
97 225 1
97 233 1
97 241 1
97 321 1
97 353 1
97 361 1
97 369 1
97 385 1
97 417 1
97 425 1
97 433 1
97 449 1
97 481 1
97 489 1
97 497 1
98 194 1
98 226 1
98 234 1
98 242 1
98 322 1
98 354 1
98 362 1
98 370 1
98 386 1
98 418 1
98 426 1
98 434 1
98 450 1
98 482 1
98 490 1
98 498 1
99 195 1
99 227 1
99 235 1
99 243 1
99 323 1
99 355 1
99 363 1
99 371 1
99 387 1
99 419 1
99 427 1
99 435 1
99 451 1
99 483 1
99 491 1
99 499 1
100 196 1
100 228 1
100 236 1
100 244 1
100 324 1
100 356 1
100 364 1
100 372 1
100 388 1
100 420 1
100 428 1
100 436 1
100 452 1
100 484 1
100 492 1
100 500 1
101 197 1
101 229 1
101 237 1
101 245 1
101 325 1
101 357 1
101 365 1
101 373 1
101 389 1
101 421 1
101 429 1
101 437 1
101 453 1
101 485 1
101 493 1
101 501 1
102 198 1
102 230 1
102 238 1
102 246 1
102 326 1
102 358 1
102 366 1
102 374 1
102 390 1
102 422 1
102 430 1
102 438 1
102 454 1
102 486 1
102 494 1
102 502 1
103 199 1
103 231 1
103 239 1
103 247 1
103 327 1
103 359 1
103 367 1
103 375 1
103 391 1
103 423 1
103 431 1
103 439 1
103 455 1
103 487 1
103 495 1
103 503 1
104 200 1
104 232 1
104 240 1
104 248 1
104 328 1
104 360 1
104 368 1
104 376 1
104 392 1
104 424 1
104 432 1
104 440 1
104 456 1
104 488 1
104 496 1
104 504 1
105 201 1
105 225 1
105 233 1
105 249 1
105 329 1
105 353 1
105 361 1
105 377 1
105 393 1
105 417 1
105 425 1
105 441 1
105 457 1
105 481 1
105 489 1
105 505 1
106 202 1
106 226 1
106 234 1
106 250 1
106 330 1
106 354 1
106 362 1
106 378 1
106 394 1
106 418 1
106 426 1
106 442 1
106 458 1
106 482 1
106 490 1
106 506 1
107 203 1
107 227 1
107 235 1
107 251 1
107 331 1
107 355 1
107 363 1
107 379 1
107 395 1
107 419 1
107 427 1
107 443 1
107 459 1
107 483 1
107 491 1
107 507 1
108 204 1
108 228 1
108 236 1
108 252 1
108 332 1
108 356 1
108 364 1
108 380 1
108 396 1
108 420 1
108 428 1
108 444 1
108 460 1
108 484 1
108 492 1
108 508 1
109 205 1
109 229 1
109 237 1
109 253 1
109 333 1
109 357 1
109 365 1
109 381 1
109 397 1
109 421 1
109 429 1
109 445 1
109 461 1
109 485 1
109 493 1
109 509 1
110 206 1
110 230 1
110 238 1
110 254 1
110 334 1
110 358 1
110 366 1
110 382 1
110 398 1
110 422 1
110 430 1
110 446 1
110 462 1
110 486 1
110 494 1
110 510 1
111 207 1
111 231 1
111 239 1
111 255 1
111 335 1
111 359 1
111 367 1
111 383 1
111 399 1
111 423 1
111 431 1
111 447 1
111 463 1
111 487 1
111 495 1
111 511 1
112 208 1
112 232 1
112 240 1
112 256 1
112 336 1
112 360 1
112 368 1
112 384 1
112 400 1
112 424 1
112 432 1
112 448 1
112 464 1
112 488 1
112 496 1
112 512 1
113 209 1
113 225 1
113 241 1
113 249 1
113 337 1
113 353 1
113 369 1
113 377 1
113 401 1
113 417 1
113 433 1
113 441 1
113 465 1
113 481 1
113 497 1
113 505 1
114 210 1
114 226 1
114 242 1
114 250 1
114 338 1
114 354 1
114 370 1
114 378 1
114 402 1
114 418 1
114 434 1
114 442 1
114 466 1
114 482 1
114 498 1
114 506 1
115 211 1
115 227 1
115 243 1
115 251 1
115 339 1
115 355 1
115 371 1
115 379 1
115 403 1
115 419 1
115 435 1
115 443 1
115 467 1
115 483 1
115 499 1
115 507 1
116 212 1
116 228 1
116 244 1
116 252 1
116 340 1
116 356 1
116 372 1
116 380 1
116 404 1
116 420 1
116 436 1
116 444 1
116 468 1
116 484 1
116 500 1
116 508 1
117 213 1
117 229 1
117 245 1
117 253 1
117 341 1
117 357 1
117 373 1
117 381 1
117 405 1
117 421 1
117 437 1
117 445 1
117 469 1
117 485 1
117 501 1
117 509 1
118 214 1
118 230 1
118 246 1
118 254 1
118 342 1
118 358 1
118 374 1
118 382 1
118 406 1
118 422 1
118 438 1
118 446 1
118 470 1
118 486 1
118 502 1
118 510 1
119 215 1
119 231 1
119 247 1
119 255 1
119 343 1
119 359 1
119 375 1
119 383 1
119 407 1
119 423 1
119 439 1
119 447 1
119 471 1
119 487 1
119 503 1
119 511 1
120 216 1
120 232 1
120 248 1
120 256 1
120 344 1
120 360 1
120 376 1
120 384 1
120 408 1
120 424 1
120 440 1
120 448 1
120 472 1
120 488 1
120 504 1
120 512 1
121 217 1
121 233 1
121 241 1
121 249 1
121 345 1
121 361 1
121 369 1
121 377 1
121 409 1
121 425 1
121 433 1
121 441 1
121 473 1
121 489 1
121 497 1
121 505 1
122 218 1
122 234 1
122 242 1
122 250 1
122 346 1
122 362 1
122 370 1
122 378 1
122 410 1
122 426 1
122 434 1
122 442 1
122 474 1
122 490 1
122 498 1
122 506 1
123 219 1
123 235 1
123 243 1
123 251 1
123 347 1
123 363 1
123 371 1
123 379 1
123 411 1
123 427 1
123 435 1
123 443 1
123 475 1
123 491 1
123 499 1
123 507 1
124 220 1
124 236 1
124 244 1
124 252 1
124 348 1
124 364 1
124 372 1
124 380 1
124 412 1
124 428 1
124 436 1
124 444 1
124 476 1
124 492 1
124 500 1
124 508 1
125 221 1
125 237 1
125 245 1
125 253 1
125 349 1
125 365 1
125 373 1
125 381 1
125 413 1
125 429 1
125 437 1
125 445 1
125 477 1
125 493 1
125 501 1
125 509 1
126 222 1
126 238 1
126 246 1
126 254 1
126 350 1
126 366 1
126 374 1
126 382 1
126 414 1
126 430 1
126 438 1
126 446 1
126 478 1
126 494 1
126 502 1
126 510 1
127 223 1
127 239 1
127 247 1
127 255 1
127 351 1
127 367 1
127 375 1
127 383 1
127 415 1
127 431 1
127 439 1
127 447 1
127 479 1
127 495 1
127 503 1
127 511 1
128 224 1
128 240 1
128 248 1
128 256 1
128 352 1
128 368 1
128 376 1
128 384 1
128 416 1
128 432 1
128 440 1
128 448 1
128 480 1
128 496 1
128 504 1
128 512 1
129 1 1
129 30 1
129 48 1
129 55 1
129 194 1
129 217 1
129 235 1
129 248 1
129 323 1
129 352 1
129 366 1
129 372 1
129 389 1
129 411 1
129 425 1
129 438 1
130 2 1
130 25 1
130 43 1
130 56 1
130 196 1
130 218 1
130 237 1
130 243 1
130 325 1
130 347 1
130 361 1
130 374 1
130 391 1
130 413 1
130 426 1
130 433 1
131 3 1
131 32 1
131 46 1
131 52 1
131 197 1
131 219 1
131 233 1
131 246 1
131 321 1
131 350 1
131 368 1
131 375 1
131 386 1
131 409 1
131 427 1
131 440 1
132 4 1
132 26 1
132 45 1
132 51 1
132 198 1
132 220 1
132 239 1
132 245 1
132 327 1
132 349 1
132 362 1
132 369 1
132 392 1
132 415 1
132 428 1
132 434 1
133 5 1
133 27 1
133 41 1
133 54 1
133 199 1
133 221 1
133 234 1
133 241 1
133 322 1
133 345 1
133 363 1
133 376 1
133 388 1
133 410 1
133 429 1
133 435 1
134 6 1
134 28 1
134 47 1
134 53 1
134 193 1
134 222 1
134 240 1
134 247 1
134 328 1
134 351 1
134 364 1
134 370 1
134 387 1
134 416 1
134 430 1
134 436 1
135 7 1
135 29 1
135 42 1
135 49 1
135 200 1
135 223 1
135 236 1
135 242 1
135 324 1
135 346 1
135 365 1
135 371 1
135 390 1
135 412 1
135 431 1
135 437 1
136 8 1
136 31 1
136 44 1
136 50 1
136 195 1
136 224 1
136 238 1
136 244 1
136 326 1
136 348 1
136 367 1
136 373 1
136 385 1
136 414 1
136 432 1
136 439 1
137 9 1
137 30 1
137 48 1
137 61 1
137 202 1
137 217 1
137 235 1
137 255 1
137 331 1
137 352 1
137 366 1
137 378 1
137 397 1
137 411 1
137 425 1
137 444 1
138 10 1
138 25 1
138 43 1
138 63 1
138 204 1
138 218 1
138 237 1
138 256 1
138 333 1
138 347 1
138 361 1
138 380 1
138 399 1
138 413 1
138 426 1
138 446 1
139 11 1
139 32 1
139 46 1
139 58 1
139 205 1
139 219 1
139 233 1
139 252 1
139 329 1
139 350 1
139 368 1
139 381 1
139 394 1
139 409 1
139 427 1
139 447 1
140 12 1
140 26 1
140 45 1
140 64 1
140 206 1
140 220 1
140 239 1
140 251 1
140 335 1
140 349 1
140 362 1
140 382 1
140 400 1
140 415 1
140 428 1
140 441 1
141 13 1
141 27 1
141 41 1
141 60 1
141 207 1
141 221 1
141 234 1
141 254 1
141 330 1
141 345 1
141 363 1
141 383 1
141 396 1
141 410 1
141 429 1
141 448 1
142 14 1
142 28 1
142 47 1
142 59 1
142 201 1
142 222 1
142 240 1
142 253 1
142 336 1
142 351 1
142 364 1
142 377 1
142 395 1
142 416 1
142 430 1
142 442 1
143 15 1
143 29 1
143 42 1
143 62 1
143 208 1
143 223 1
143 236 1
143 249 1
143 332 1
143 346 1
143 365 1
143 384 1
143 398 1
143 412 1
143 431 1
143 443 1
144 16 1
144 31 1
144 44 1
144 57 1
144 203 1
144 224 1
144 238 1
144 250 1
144 334 1
144 348 1
144 367 1
144 379 1
144 393 1
144 414 1
144 432 1
144 445 1
145 22 1
145 30 1
145 55 1
145 61 1
145 209 1
145 217 1
145 248 1
145 255 1
145 344 1
145 352 1
145 372 1
145 378 1
145 403 1
145 411 1
145 438 1
145 444 1
146 17 1
146 25 1
146 56 1
146 63 1
146 210 1
146 218 1
146 243 1
146 256 1
146 339 1
146 347 1
146 374 1
146 380 1
146 405 1
146 413 1
146 433 1
146 446 1
147 24 1
147 32 1
147 52 1
147 58 1
147 211 1
147 219 1
147 246 1
147 252 1
147 342 1
147 350 1
147 375 1
147 381 1
147 401 1
147 409 1
147 440 1
147 447 1
148 18 1
148 26 1
148 51 1
148 64 1
148 212 1
148 220 1
148 245 1
148 251 1
148 341 1
148 349 1
148 369 1
148 382 1
148 407 1
148 415 1
148 434 1
148 441 1
149 19 1
149 27 1
149 54 1
149 60 1
149 213 1
149 221 1
149 241 1
149 254 1
149 337 1
149 345 1
149 376 1
149 383 1
149 402 1
149 410 1
149 435 1
149 448 1
150 20 1
150 28 1
150 53 1
150 59 1
150 214 1
150 222 1
150 247 1
150 253 1
150 343 1
150 351 1
150 370 1
150 377 1
150 408 1
150 416 1
150 436 1
150 442 1
151 21 1
151 29 1
151 49 1
151 62 1
151 215 1
151 223 1
151 242 1
151 249 1
151 338 1
151 346 1
151 371 1
151 384 1
151 404 1
151 412 1
151 437 1
151 443 1
152 23 1
152 31 1
152 50 1
152 57 1
152 216 1
152 224 1
152 244 1
152 250 1
152 340 1
152 348 1
152 373 1
152 379 1
152 406 1
152 414 1
152 439 1
152 445 1
153 35 1
153 48 1
153 55 1
153 61 1
153 229 1
153 235 1
153 248 1
153 255 1
153 353 1
153 366 1
153 372 1
153 378 1
153 418 1
153 425 1
153 438 1
153 444 1
154 37 1
154 43 1
154 56 1
154 63 1
154 231 1
154 237 1
154 243 1
154 256 1
154 354 1
154 361 1
154 374 1
154 380 1
154 420 1
154 426 1
154 433 1
154 446 1
155 33 1
155 46 1
155 52 1
155 58 1
155 226 1
155 233 1
155 246 1
155 252 1
155 355 1
155 368 1
155 375 1
155 381 1
155 421 1
155 427 1
155 440 1
155 447 1
156 39 1
156 45 1
156 51 1
156 64 1
156 232 1
156 239 1
156 245 1
156 251 1
156 356 1
156 362 1
156 369 1
156 382 1
156 422 1
156 428 1
156 434 1
156 441 1
157 34 1
157 41 1
157 54 1
157 60 1
157 228 1
157 234 1
157 241 1
157 254 1
157 357 1
157 363 1
157 376 1
157 383 1
157 423 1
157 429 1
157 435 1
157 448 1
158 40 1
158 47 1
158 53 1
158 59 1
158 227 1
158 240 1
158 247 1
158 253 1
158 358 1
158 364 1
158 370 1
158 377 1
158 417 1
158 430 1
158 436 1
158 442 1
159 36 1
159 42 1
159 49 1
159 62 1
159 230 1
159 236 1
159 242 1
159 249 1
159 359 1
159 365 1
159 371 1
159 384 1
159 424 1
159 431 1
159 437 1
159 443 1
160 38 1
160 44 1
160 50 1
160 57 1
160 225 1
160 238 1
160 244 1
160 250 1
160 360 1
160 367 1
160 373 1
160 379 1
160 419 1
160 432 1
160 439 1
160 445 1
161 65 1
161 94 1
161 112 1
161 119 1
161 194 1
161 217 1
161 235 1
161 248 1
161 323 1
161 352 1
161 366 1
161 372 1
161 454 1
161 476 1
161 495 1
161 501 1
162 66 1
162 89 1
162 107 1
162 120 1
162 196 1
162 218 1
162 237 1
162 243 1
162 325 1
162 347 1
162 361 1
162 374 1
162 449 1
162 478 1
162 496 1
162 503 1
163 67 1
163 96 1
163 110 1
163 116 1
163 197 1
163 219 1
163 233 1
163 246 1
163 321 1
163 350 1
163 368 1
163 375 1
163 456 1
163 479 1
163 492 1
163 498 1
164 68 1
164 90 1
164 109 1
164 115 1
164 198 1
164 220 1
164 239 1
164 245 1
164 327 1
164 349 1
164 362 1
164 369 1
164 450 1
164 473 1
164 491 1
164 504 1
165 69 1
165 91 1
165 105 1
165 118 1
165 199 1
165 221 1
165 234 1
165 241 1
165 322 1
165 345 1
165 363 1
165 376 1
165 451 1
165 480 1
165 494 1
165 500 1
166 70 1
166 92 1
166 111 1
166 117 1
166 193 1
166 222 1
166 240 1
166 247 1
166 328 1
166 351 1
166 364 1
166 370 1
166 452 1
166 474 1
166 493 1
166 499 1
167 71 1
167 93 1
167 106 1
167 113 1
167 200 1
167 223 1
167 236 1
167 242 1
167 324 1
167 346 1
167 365 1
167 371 1
167 453 1
167 475 1
167 489 1
167 502 1
168 72 1
168 95 1
168 108 1
168 114 1
168 195 1
168 224 1
168 238 1
168 244 1
168 326 1
168 348 1
168 367 1
168 373 1
168 455 1
168 477 1
168 490 1
168 497 1
169 73 1
169 94 1
169 112 1
169 125 1
169 202 1
169 217 1
169 235 1
169 255 1
169 331 1
169 352 1
169 366 1
169 378 1
169 462 1
169 476 1
169 495 1
169 507 1
170 74 1
170 89 1
170 107 1
170 127 1
170 204 1
170 218 1
170 237 1
170 256 1
170 333 1
170 347 1
170 361 1
170 380 1
170 457 1
170 478 1
170 496 1
170 509 1
171 75 1
171 96 1
171 110 1
171 122 1
171 205 1
171 219 1
171 233 1
171 252 1
171 329 1
171 350 1
171 368 1
171 381 1
171 464 1
171 479 1
171 492 1
171 505 1
172 76 1
172 90 1
172 109 1
172 128 1
172 206 1
172 220 1
172 239 1
172 251 1
172 335 1
172 349 1
172 362 1
172 382 1
172 458 1
172 473 1
172 491 1
172 511 1
173 77 1
173 91 1
173 105 1
173 124 1
173 207 1
173 221 1
173 234 1
173 254 1
173 330 1
173 345 1
173 363 1
173 383 1
173 459 1
173 480 1
173 494 1
173 506 1
174 78 1
174 92 1
174 111 1
174 123 1
174 201 1
174 222 1
174 240 1
174 253 1
174 336 1
174 351 1
174 364 1
174 377 1
174 460 1
174 474 1
174 493 1
174 512 1
175 79 1
175 93 1
175 106 1
175 126 1
175 208 1
175 223 1
175 236 1
175 249 1
175 332 1
175 346 1
175 365 1
175 384 1
175 461 1
175 475 1
175 489 1
175 508 1
176 80 1
176 95 1
176 108 1
176 121 1
176 203 1
176 224 1
176 238 1
176 250 1
176 334 1
176 348 1
176 367 1
176 379 1
176 463 1
176 477 1
176 490 1
176 510 1
177 86 1
177 94 1
177 119 1
177 125 1
177 209 1
177 217 1
177 248 1
177 255 1
177 344 1
177 352 1
177 372 1
177 378 1
177 468 1
177 476 1
177 501 1
177 507 1
178 81 1
178 89 1
178 120 1
178 127 1
178 210 1
178 218 1
178 243 1
178 256 1
178 339 1
178 347 1
178 374 1
178 380 1
178 470 1
178 478 1
178 503 1
178 509 1
179 88 1
179 96 1
179 116 1
179 122 1
179 211 1
179 219 1
179 246 1
179 252 1
179 342 1
179 350 1
179 375 1
179 381 1
179 471 1
179 479 1
179 498 1
179 505 1
180 82 1
180 90 1
180 115 1
180 128 1
180 212 1
180 220 1
180 245 1
180 251 1
180 341 1
180 349 1
180 369 1
180 382 1
180 465 1
180 473 1
180 504 1
180 511 1
181 83 1
181 91 1
181 118 1
181 124 1
181 213 1
181 221 1
181 241 1
181 254 1
181 337 1
181 345 1
181 376 1
181 383 1
181 472 1
181 480 1
181 500 1
181 506 1
182 84 1
182 92 1
182 117 1
182 123 1
182 214 1
182 222 1
182 247 1
182 253 1
182 343 1
182 351 1
182 370 1
182 377 1
182 466 1
182 474 1
182 499 1
182 512 1
183 85 1
183 93 1
183 113 1
183 126 1
183 215 1
183 223 1
183 242 1
183 249 1
183 338 1
183 346 1
183 371 1
183 384 1
183 467 1
183 475 1
183 502 1
183 508 1
184 87 1
184 95 1
184 114 1
184 121 1
184 216 1
184 224 1
184 244 1
184 250 1
184 340 1
184 348 1
184 373 1
184 379 1
184 469 1
184 477 1
184 497 1
184 510 1
185 99 1
185 112 1
185 119 1
185 125 1
185 229 1
185 235 1
185 248 1
185 255 1
185 353 1
185 366 1
185 372 1
185 378 1
185 488 1
185 495 1
185 501 1
185 507 1
186 101 1
186 107 1
186 120 1
186 127 1
186 231 1
186 237 1
186 243 1
186 256 1
186 354 1
186 361 1
186 374 1
186 380 1
186 483 1
186 496 1
186 503 1
186 509 1
187 97 1
187 110 1
187 116 1
187 122 1
187 226 1
187 233 1
187 246 1
187 252 1
187 355 1
187 368 1
187 375 1
187 381 1
187 486 1
187 492 1
187 498 1
187 505 1
188 103 1
188 109 1
188 115 1
188 128 1
188 232 1
188 239 1
188 245 1
188 251 1
188 356 1
188 362 1
188 369 1
188 382 1
188 485 1
188 491 1
188 504 1
188 511 1
189 98 1
189 105 1
189 118 1
189 124 1
189 228 1
189 234 1
189 241 1
189 254 1
189 357 1
189 363 1
189 376 1
189 383 1
189 481 1
189 494 1
189 500 1
189 506 1
190 104 1
190 111 1
190 117 1
190 123 1
190 227 1
190 240 1
190 247 1
190 253 1
190 358 1
190 364 1
190 370 1
190 377 1
190 487 1
190 493 1
190 499 1
190 512 1
191 100 1
191 106 1
191 113 1
191 126 1
191 230 1
191 236 1
191 242 1
191 249 1
191 359 1
191 365 1
191 371 1
191 384 1
191 482 1
191 489 1
191 502 1
191 508 1
192 102 1
192 108 1
192 114 1
192 121 1
192 225 1
192 238 1
192 244 1
192 250 1
192 360 1
192 367 1
192 373 1
192 379 1
192 484 1
192 490 1
192 497 1
192 510 1
193 129 1
193 158 1
193 176 1
193 183 1
193 194 1
193 217 1
193 235 1
193 248 1
193 389 1
193 411 1
193 425 1
193 438 1
193 454 1
193 476 1
193 495 1
193 501 1
194 130 1
194 153 1
194 171 1
194 184 1
194 196 1
194 218 1
194 237 1
194 243 1
194 391 1
194 413 1
194 426 1
194 433 1
194 449 1
194 478 1
194 496 1
194 503 1
195 131 1
195 160 1
195 174 1
195 180 1
195 197 1
195 219 1
195 233 1
195 246 1
195 386 1
195 409 1
195 427 1
195 440 1
195 456 1
195 479 1
195 492 1
195 498 1
196 132 1
196 154 1
196 173 1
196 179 1
196 198 1
196 220 1
196 239 1
196 245 1
196 392 1
196 415 1
196 428 1
196 434 1
196 450 1
196 473 1
196 491 1
196 504 1
197 133 1
197 155 1
197 169 1
197 182 1
197 199 1
197 221 1
197 234 1
197 241 1
197 388 1
197 410 1
197 429 1
197 435 1
197 451 1
197 480 1
197 494 1
197 500 1
198 134 1
198 156 1
198 175 1
198 181 1
198 193 1
198 222 1
198 240 1
198 247 1
198 387 1
198 416 1
198 430 1
198 436 1
198 452 1
198 474 1
198 493 1
198 499 1
199 135 1
199 157 1
199 170 1
199 177 1
199 200 1
199 223 1
199 236 1
199 242 1
199 390 1
199 412 1
199 431 1
199 437 1
199 453 1
199 475 1
199 489 1
199 502 1
200 136 1
200 159 1
200 172 1
200 178 1
200 195 1
200 224 1
200 238 1
200 244 1
200 385 1
200 414 1
200 432 1
200 439 1
200 455 1
200 477 1
200 490 1
200 497 1
201 137 1
201 158 1
201 176 1
201 189 1
201 202 1
201 217 1
201 235 1
201 255 1
201 397 1
201 411 1
201 425 1
201 444 1
201 462 1
201 476 1
201 495 1
201 507 1
202 138 1
202 153 1
202 171 1
202 191 1
202 204 1
202 218 1
202 237 1
202 256 1
202 399 1
202 413 1
202 426 1
202 446 1
202 457 1
202 478 1
202 496 1
202 509 1
203 139 1
203 160 1
203 174 1
203 186 1
203 205 1
203 219 1
203 233 1
203 252 1
203 394 1
203 409 1
203 427 1
203 447 1
203 464 1
203 479 1
203 492 1
203 505 1
204 140 1
204 154 1
204 173 1
204 192 1
204 206 1
204 220 1
204 239 1
204 251 1
204 400 1
204 415 1
204 428 1
204 441 1
204 458 1
204 473 1
204 491 1
204 511 1
205 141 1
205 155 1
205 169 1
205 188 1
205 207 1
205 221 1
205 234 1
205 254 1
205 396 1
205 410 1
205 429 1
205 448 1
205 459 1
205 480 1
205 494 1
205 506 1
206 142 1
206 156 1
206 175 1
206 187 1
206 201 1
206 222 1
206 240 1
206 253 1
206 395 1
206 416 1
206 430 1
206 442 1
206 460 1
206 474 1
206 493 1
206 512 1
207 143 1
207 157 1
207 170 1
207 190 1
207 208 1
207 223 1
207 236 1
207 249 1
207 398 1
207 412 1
207 431 1
207 443 1
207 461 1
207 475 1
207 489 1
207 508 1
208 144 1
208 159 1
208 172 1
208 185 1
208 203 1
208 224 1
208 238 1
208 250 1
208 393 1
208 414 1
208 432 1
208 445 1
208 463 1
208 477 1
208 490 1
208 510 1
209 150 1
209 158 1
209 183 1
209 189 1
209 209 1
209 217 1
209 248 1
209 255 1
209 403 1
209 411 1
209 438 1
209 444 1
209 468 1
209 476 1
209 501 1
209 507 1
210 145 1
210 153 1
210 184 1
210 191 1
210 210 1
210 218 1
210 243 1
210 256 1
210 405 1
210 413 1
210 433 1
210 446 1
210 470 1
210 478 1
210 503 1
210 509 1
211 152 1
211 160 1
211 180 1
211 186 1
211 211 1
211 219 1
211 246 1
211 252 1
211 401 1
211 409 1
211 440 1
211 447 1
211 471 1
211 479 1
211 498 1
211 505 1
212 146 1
212 154 1
212 179 1
212 192 1
212 212 1
212 220 1
212 245 1
212 251 1
212 407 1
212 415 1
212 434 1
212 441 1
212 465 1
212 473 1
212 504 1
212 511 1
213 147 1
213 155 1
213 182 1
213 188 1
213 213 1
213 221 1
213 241 1
213 254 1
213 402 1
213 410 1
213 435 1
213 448 1
213 472 1
213 480 1
213 500 1
213 506 1
214 148 1
214 156 1
214 181 1
214 187 1
214 214 1
214 222 1
214 247 1
214 253 1
214 408 1
214 416 1
214 436 1
214 442 1
214 466 1
214 474 1
214 499 1
214 512 1
215 149 1
215 157 1
215 177 1
215 190 1
215 215 1
215 223 1
215 242 1
215 249 1
215 404 1
215 412 1
215 437 1
215 443 1
215 467 1
215 475 1
215 502 1
215 508 1
216 151 1
216 159 1
216 178 1
216 185 1
216 216 1
216 224 1
216 244 1
216 250 1
216 406 1
216 414 1
216 439 1
216 445 1
216 469 1
216 477 1
216 497 1
216 510 1
217 163 1
217 176 1
217 183 1
217 189 1
217 229 1
217 235 1
217 248 1
217 255 1
217 418 1
217 425 1
217 438 1
217 444 1
217 488 1
217 495 1
217 501 1
217 507 1
218 165 1
218 171 1
218 184 1
218 191 1
218 231 1
218 237 1
218 243 1
218 256 1
218 420 1
218 426 1
218 433 1
218 446 1
218 483 1
218 496 1
218 503 1
218 509 1
219 161 1
219 174 1
219 180 1
219 186 1
219 226 1
219 233 1
219 246 1
219 252 1
219 421 1
219 427 1
219 440 1
219 447 1
219 486 1
219 492 1
219 498 1
219 505 1
220 167 1
220 173 1
220 179 1
220 192 1
220 232 1
220 239 1
220 245 1
220 251 1
220 422 1
220 428 1
220 434 1
220 441 1
220 485 1
220 491 1
220 504 1
220 511 1
221 162 1
221 169 1
221 182 1
221 188 1
221 228 1
221 234 1
221 241 1
221 254 1
221 423 1
221 429 1
221 435 1
221 448 1
221 481 1
221 494 1
221 500 1
221 506 1
222 168 1
222 175 1
222 181 1
222 187 1
222 227 1
222 240 1
222 247 1
222 253 1
222 417 1
222 430 1
222 436 1
222 442 1
222 487 1
222 493 1
222 499 1
222 512 1
223 164 1
223 170 1
223 177 1
223 190 1
223 230 1
223 236 1
223 242 1
223 249 1
223 424 1
223 431 1
223 437 1
223 443 1
223 482 1
223 489 1
223 502 1
223 508 1
224 166 1
224 172 1
224 178 1
224 185 1
224 225 1
224 238 1
224 244 1
224 250 1
224 419 1
224 432 1
224 439 1
224 445 1
224 484 1
224 490 1
224 497 1
224 510 1
225 259 1
225 288 1
225 302 1
225 308 1
225 323 1
225 352 1
225 366 1
225 372 1
225 389 1
225 411 1
225 425 1
225 438 1
225 454 1
225 476 1
225 495 1
225 501 1
226 261 1
226 283 1
226 297 1
226 310 1
226 325 1
226 347 1
226 361 1
226 374 1
226 391 1
226 413 1
226 426 1
226 433 1
226 449 1
226 478 1
226 496 1
226 503 1
227 257 1
227 286 1
227 304 1
227 311 1
227 321 1
227 350 1
227 368 1
227 375 1
227 386 1
227 409 1
227 427 1
227 440 1
227 456 1
227 479 1
227 492 1
227 498 1
228 263 1
228 285 1
228 298 1
228 305 1
228 327 1
228 349 1
228 362 1
228 369 1
228 392 1
228 415 1
228 428 1
228 434 1
228 450 1
228 473 1
228 491 1
228 504 1
229 258 1
229 281 1
229 299 1
229 312 1
229 322 1
229 345 1
229 363 1
229 376 1
229 388 1
229 410 1
229 429 1
229 435 1
229 451 1
229 480 1
229 494 1
229 500 1
230 264 1
230 287 1
230 300 1
230 306 1
230 328 1
230 351 1
230 364 1
230 370 1
230 387 1
230 416 1
230 430 1
230 436 1
230 452 1
230 474 1
230 493 1
230 499 1
231 260 1
231 282 1
231 301 1
231 307 1
231 324 1
231 346 1
231 365 1
231 371 1
231 390 1
231 412 1
231 431 1
231 437 1
231 453 1
231 475 1
231 489 1
231 502 1
232 262 1
232 284 1
232 303 1
232 309 1
232 326 1
232 348 1
232 367 1
232 373 1
232 385 1
232 414 1
232 432 1
232 439 1
232 455 1
232 477 1
232 490 1
232 497 1
233 267 1
233 288 1
233 302 1
233 314 1
233 331 1
233 352 1
233 366 1
233 378 1
233 397 1
233 411 1
233 425 1
233 444 1
233 462 1
233 476 1
233 495 1
233 507 1
234 269 1
234 283 1
234 297 1
234 316 1
234 333 1
234 347 1
234 361 1
234 380 1
234 399 1
234 413 1
234 426 1
234 446 1
234 457 1
234 478 1
234 496 1
234 509 1
235 265 1
235 286 1
235 304 1
235 317 1
235 329 1
235 350 1
235 368 1
235 381 1
235 394 1
235 409 1
235 427 1
235 447 1
235 464 1
235 479 1
235 492 1
235 505 1
236 271 1
236 285 1
236 298 1
236 318 1
236 335 1
236 349 1
236 362 1
236 382 1
236 400 1
236 415 1
236 428 1
236 441 1
236 458 1
236 473 1
236 491 1
236 511 1
237 266 1
237 281 1
237 299 1
237 319 1
237 330 1
237 345 1
237 363 1
237 383 1
237 396 1
237 410 1
237 429 1
237 448 1
237 459 1
237 480 1
237 494 1
237 506 1
238 272 1
238 287 1
238 300 1
238 313 1
238 336 1
238 351 1
238 364 1
238 377 1
238 395 1
238 416 1
238 430 1
238 442 1
238 460 1
238 474 1
238 493 1
238 512 1
239 268 1
239 282 1
239 301 1
239 320 1
239 332 1
239 346 1
239 365 1
239 384 1
239 398 1
239 412 1
239 431 1
239 443 1
239 461 1
239 475 1
239 489 1
239 508 1
240 270 1
240 284 1
240 303 1
240 315 1
240 334 1
240 348 1
240 367 1
240 379 1
240 393 1
240 414 1
240 432 1
240 445 1
240 463 1
240 477 1
240 490 1
240 510 1
241 280 1
241 288 1
241 308 1
241 314 1
241 344 1
241 352 1
241 372 1
241 378 1
241 403 1
241 411 1
241 438 1
241 444 1
241 468 1
241 476 1
241 501 1
241 507 1
242 275 1
242 283 1
242 310 1
242 316 1
242 339 1
242 347 1
242 374 1
242 380 1
242 405 1
242 413 1
242 433 1
242 446 1
242 470 1
242 478 1
242 503 1
242 509 1
243 278 1
243 286 1
243 311 1
243 317 1
243 342 1
243 350 1
243 375 1
243 381 1
243 401 1
243 409 1
243 440 1
243 447 1
243 471 1
243 479 1
243 498 1
243 505 1
244 277 1
244 285 1
244 305 1
244 318 1
244 341 1
244 349 1
244 369 1
244 382 1
244 407 1
244 415 1
244 434 1
244 441 1
244 465 1
244 473 1
244 504 1
244 511 1
245 273 1
245 281 1
245 312 1
245 319 1
245 337 1
245 345 1
245 376 1
245 383 1
245 402 1
245 410 1
245 435 1
245 448 1
245 472 1
245 480 1
245 500 1
245 506 1
246 279 1
246 287 1
246 306 1
246 313 1
246 343 1
246 351 1
246 370 1
246 377 1
246 408 1
246 416 1
246 436 1
246 442 1
246 466 1
246 474 1
246 499 1
246 512 1
247 274 1
247 282 1
247 307 1
247 320 1
247 338 1
247 346 1
247 371 1
247 384 1
247 404 1
247 412 1
247 437 1
247 443 1
247 467 1
247 475 1
247 502 1
247 508 1
248 276 1
248 284 1
248 309 1
248 315 1
248 340 1
248 348 1
248 373 1
248 379 1
248 406 1
248 414 1
248 439 1
248 445 1
248 469 1
248 477 1
248 497 1
248 510 1
249 289 1
249 302 1
249 308 1
249 314 1
249 353 1
249 366 1
249 372 1
249 378 1
249 418 1
249 425 1
249 438 1
249 444 1
249 488 1
249 495 1
249 501 1
249 507 1
250 290 1
250 297 1
250 310 1
250 316 1
250 354 1
250 361 1
250 374 1
250 380 1
250 420 1
250 426 1
250 433 1
250 446 1
250 483 1
250 496 1
250 503 1
250 509 1
251 291 1
251 304 1
251 311 1
251 317 1
251 355 1
251 368 1
251 375 1
251 381 1
251 421 1
251 427 1
251 440 1
251 447 1
251 486 1
251 492 1
251 498 1
251 505 1
252 292 1
252 298 1
252 305 1
252 318 1
252 356 1
252 362 1
252 369 1
252 382 1
252 422 1
252 428 1
252 434 1
252 441 1
252 485 1
252 491 1
252 504 1
252 511 1
253 293 1
253 299 1
253 312 1
253 319 1
253 357 1
253 363 1
253 376 1
253 383 1
253 423 1
253 429 1
253 435 1
253 448 1
253 481 1
253 494 1
253 500 1
253 506 1
254 294 1
254 300 1
254 306 1
254 313 1
254 358 1
254 364 1
254 370 1
254 377 1
254 417 1
254 430 1
254 436 1
254 442 1
254 487 1
254 493 1
254 499 1
254 512 1
255 295 1
255 301 1
255 307 1
255 320 1
255 359 1
255 365 1
255 371 1
255 384 1
255 424 1
255 431 1
255 437 1
255 443 1
255 482 1
255 489 1
255 502 1
255 508 1
256 296 1
256 303 1
256 309 1
256 315 1
256 360 1
256 367 1
256 373 1
256 379 1
256 419 1
256 432 1
256 439 1
256 445 1
256 484 1
256 490 1
256 497 1
256 510 1
