%%MatrixMarket matrix coordinate integer general
30 60 120
1 1 1
1 16 1
1 31 1
1 46 1
2 2 1
2 17 1
2 32 1
2 47 1
3 3 1
3 18 1
3 33 1
3 48 1
4 4 1
4 19 1
4 34 1
4 49 1
5 5 1
5 20 1
5 35 1
5 50 1
6 6 1
6 21 1
6 36 1
6 51 1
7 7 1
7 22 1
7 37 1
7 52 1
8 8 1
8 23 1
8 38 1
8 53 1
9 9 1
9 24 1
9 39 1
9 54 1
10 10 1
10 25 1
10 40 1
10 55 1
11 11 1
11 26 1
11 41 1
11 56 1
12 12 1
12 27 1
12 42 1
12 57 1
13 13 1
13 28 1
13 43 1
13 58 1
14 14 1
14 29 1
14 44 1
14 59 1
15 15 1
15 30 1
15 45 1
15 60 1
16 1 1
16 28 1
16 32 1
16 59 1
17 2 1
17 29 1
17 33 1
17 60 1
18 3 1
18 30 1
18 34 1
18 46 1
19 4 1
19 16 1
19 35 1
19 47 1
20 5 1
20 17 1
20 36 1
20 48 1
21 6 1
21 18 1
21 37 1
21 49 1
22 7 1
22 19 1
22 38 1
22 50 1
23 8 1
23 20 1
23 39 1
23 51 1
24 9 1
24 21 1
24 40 1
24 52 1
25 10 1
25 22 1
25 41 1
25 53 1
26 11 1
26 23 1
26 42 1
26 54 1
27 12 1
27 24 1
27 43 1
27 55 1
28 13 1
28 25 1
28 44 1
28 56 1
29 14 1
29 26 1
29 45 1
29 57 1
30 15 1
30 27 1
30 31 1
30 58 1
