%%MatrixMarket matrix coordinate integer general
288 576 2592
1 1 1
1 49 1
1 65 1
1 97 1
1 145 1
1 161 1
1 289 1
1 337 1
1 353 1
2 2 1
2 50 1
2 66 1
2 98 1
2 146 1
2 162 1
2 290 1
2 338 1
2 354 1
3 3 1
3 51 1
3 67 1
3 99 1
3 147 1
3 163 1
3 291 1
3 339 1
3 355 1
4 4 1
4 52 1
4 68 1
4 100 1
4 148 1
4 164 1
4 292 1
4 340 1
4 356 1
5 5 1
5 53 1
5 69 1
5 101 1
5 149 1
5 165 1
5 293 1
5 341 1
5 357 1
6 6 1
6 54 1
6 70 1
6 102 1
6 150 1
6 166 1
6 294 1
6 342 1
6 358 1
7 7 1
7 55 1
7 71 1
7 103 1
7 151 1
7 167 1
7 295 1
7 343 1
7 359 1
8 8 1
8 56 1
8 72 1
8 104 1
8 152 1
8 168 1
8 296 1
8 344 1
8 360 1
9 9 1
9 57 1
9 73 1
9 105 1
9 153 1
9 169 1
9 297 1
9 345 1
9 361 1
10 10 1
10 58 1
10 74 1
10 106 1
10 154 1
10 170 1
10 298 1
10 346 1
10 362 1
11 11 1
11 59 1
11 75 1
11 107 1
11 155 1
11 171 1
11 299 1
11 347 1
11 363 1
12 12 1
12 60 1
12 76 1
12 108 1
12 156 1
12 172 1
12 300 1
12 348 1
12 364 1
13 13 1
13 61 1
13 77 1
13 109 1
13 157 1
13 173 1
13 301 1
13 349 1
13 365 1
14 14 1
14 62 1
14 78 1
14 110 1
14 158 1
14 174 1
14 302 1
14 350 1
14 366 1
15 15 1
15 63 1
15 79 1
15 111 1
15 159 1
15 175 1
15 303 1
15 351 1
15 367 1
16 16 1
16 64 1
16 80 1
16 112 1
16 160 1
16 176 1
16 304 1
16 352 1
16 368 1
17 17 1
17 49 1
17 81 1
17 113 1
17 145 1
17 177 1
17 305 1
17 337 1
17 369 1
18 18 1
18 50 1
18 82 1
18 114 1
18 146 1
18 178 1
18 306 1
18 338 1
18 370 1
19 19 1
19 51 1
19 83 1
19 115 1
19 147 1
19 179 1
19 307 1
19 339 1
19 371 1
20 20 1
20 52 1
20 84 1
20 116 1
20 148 1
20 180 1
20 308 1
20 340 1
20 372 1
21 21 1
21 53 1
21 85 1
21 117 1
21 149 1
21 181 1
21 309 1
21 341 1
21 373 1
22 22 1
22 54 1
22 86 1
22 118 1
22 150 1
22 182 1
22 310 1
22 342 1
22 374 1
23 23 1
23 55 1
23 87 1
23 119 1
23 151 1
23 183 1
23 311 1
23 343 1
23 375 1
24 24 1
24 56 1
24 88 1
24 120 1
24 152 1
24 184 1
24 312 1
24 344 1
24 376 1
25 25 1
25 57 1
25 89 1
25 121 1
25 153 1
25 185 1
25 313 1
25 345 1
25 377 1
26 26 1
26 58 1
26 90 1
26 122 1
26 154 1
26 186 1
26 314 1
26 346 1
26 378 1
27 27 1
27 59 1
27 91 1
27 123 1
27 155 1
27 187 1
27 315 1
27 347 1
27 379 1
28 28 1
28 60 1
28 92 1
28 124 1
28 156 1
28 188 1
28 316 1
28 348 1
28 380 1
29 29 1
29 61 1
29 93 1
29 125 1
29 157 1
29 189 1
29 317 1
29 349 1
29 381 1
30 30 1
30 62 1
30 94 1
30 126 1
30 158 1
30 190 1
30 318 1
30 350 1
30 382 1
31 31 1
31 63 1
31 95 1
31 127 1
31 159 1
31 191 1
31 319 1
31 351 1
31 383 1
32 32 1
32 64 1
32 96 1
32 128 1
32 160 1
32 192 1
32 320 1
32 352 1
32 384 1
33 33 1
33 65 1
33 81 1
33 129 1
33 161 1
33 177 1
33 321 1
33 353 1
33 369 1
34 34 1
34 66 1
34 82 1
34 130 1
34 162 1
34 178 1
34 322 1
34 354 1
34 370 1
35 35 1
35 67 1
35 83 1
35 131 1
35 163 1
35 179 1
35 323 1
35 355 1
35 371 1
36 36 1
36 68 1
36 84 1
36 132 1
36 164 1
36 180 1
36 324 1
36 356 1
36 372 1
37 37 1
37 69 1
37 85 1
37 133 1
37 165 1
37 181 1
37 325 1
37 357 1
37 373 1
38 38 1
38 70 1
38 86 1
38 134 1
38 166 1
38 182 1
38 326 1
38 358 1
38 374 1
39 39 1
39 71 1
39 87 1
39 135 1
39 167 1
39 183 1
39 327 1
39 359 1
39 375 1
40 40 1
40 72 1
40 88 1
40 136 1
40 168 1
40 184 1
40 328 1
40 360 1
40 376 1
41 41 1
41 73 1
41 89 1
41 137 1
41 169 1
41 185 1
41 329 1
41 361 1
41 377 1
42 42 1
42 74 1
42 90 1
42 138 1
42 170 1
42 186 1
42 330 1
42 362 1
42 378 1
43 43 1
43 75 1
43 91 1
43 139 1
43 171 1
43 187 1
43 331 1
43 363 1
43 379 1
44 44 1
44 76 1
44 92 1
44 140 1
44 172 1
44 188 1
44 332 1
44 364 1
44 380 1
45 45 1
45 77 1
45 93 1
45 141 1
45 173 1
45 189 1
45 333 1
45 365 1
45 381 1
46 46 1
46 78 1
46 94 1
46 142 1
46 174 1
46 190 1
46 334 1
46 366 1
46 382 1
47 47 1
47 79 1
47 95 1
47 143 1
47 175 1
47 191 1
47 335 1
47 367 1
47 383 1
48 48 1
48 80 1
48 96 1
48 144 1
48 176 1
48 192 1
48 336 1
48 368 1
48 384 1
49 1 1
49 49 1
49 65 1
49 193 1
49 241 1
49 257 1
49 385 1
49 433 1
49 449 1
50 2 1
50 50 1
50 66 1
50 194 1
50 242 1
50 258 1
50 386 1
50 434 1
50 450 1
51 3 1
51 51 1
51 67 1
51 195 1
51 243 1
51 259 1
51 387 1
51 435 1
51 451 1
52 4 1
52 52 1
52 68 1
52 196 1
52 244 1
52 260 1
52 388 1
52 436 1
52 452 1
53 5 1
53 53 1
53 69 1
53 197 1
53 245 1
53 261 1
53 389 1
53 437 1
53 453 1
54 6 1
54 54 1
54 70 1
54 198 1
54 246 1
54 262 1
54 390 1
54 438 1
54 454 1
55 7 1
55 55 1
55 71 1
55 199 1
55 247 1
55 263 1
55 391 1
55 439 1
55 455 1
56 8 1
56 56 1
56 72 1
56 200 1
56 248 1
56 264 1
56 392 1
56 440 1
56 456 1
57 9 1
57 57 1
57 73 1
57 201 1
57 249 1
57 265 1
57 393 1
57 441 1
57 457 1
58 10 1
58 58 1
58 74 1
58 202 1
58 250 1
58 266 1
58 394 1
58 442 1
58 458 1
59 11 1
59 59 1
59 75 1
59 203 1
59 251 1
59 267 1
59 395 1
59 443 1
59 459 1
60 12 1
60 60 1
60 76 1
60 204 1
60 252 1
60 268 1
60 396 1
60 444 1
60 460 1
61 13 1
61 61 1
61 77 1
61 205 1
61 253 1
61 269 1
61 397 1
61 445 1
61 461 1
62 14 1
62 62 1
62 78 1
62 206 1
62 254 1
62 270 1
62 398 1
62 446 1
62 462 1
63 15 1
63 63 1
63 79 1
63 207 1
63 255 1
63 271 1
63 399 1
63 447 1
63 463 1
64 16 1
64 64 1
64 80 1
64 208 1
64 256 1
64 272 1
64 400 1
64 448 1
64 464 1
65 17 1
65 49 1
65 81 1
65 209 1
65 241 1
65 273 1
65 401 1
65 433 1
65 465 1
66 18 1
66 50 1
66 82 1
66 210 1
66 242 1
66 274 1
66 402 1
66 434 1
66 466 1
67 19 1
67 51 1
67 83 1
67 211 1
67 243 1
67 275 1
67 403 1
67 435 1
67 467 1
68 20 1
68 52 1
68 84 1
68 212 1
68 244 1
68 276 1
68 404 1
68 436 1
68 468 1
69 21 1
69 53 1
69 85 1
69 213 1
69 245 1
69 277 1
69 405 1
69 437 1
69 469 1
70 22 1
70 54 1
70 86 1
70 214 1
70 246 1
70 278 1
70 406 1
70 438 1
70 470 1
71 23 1
71 55 1
71 87 1
71 215 1
71 247 1
71 279 1
71 407 1
71 439 1
71 471 1
72 24 1
72 56 1
72 88 1
72 216 1
72 248 1
72 280 1
72 408 1
72 440 1
72 472 1
73 25 1
73 57 1
73 89 1
73 217 1
73 249 1
73 281 1
73 409 1
73 441 1
73 473 1
74 26 1
74 58 1
74 90 1
74 218 1
74 250 1
74 282 1
74 410 1
74 442 1
74 474 1
75 27 1
75 59 1
75 91 1
75 219 1
75 251 1
75 283 1
75 411 1
75 443 1
75 475 1
76 28 1
76 60 1
76 92 1
76 220 1
76 252 1
76 284 1
76 412 1
76 444 1
76 476 1
77 29 1
77 61 1
77 93 1
77 221 1
77 253 1
77 285 1
77 413 1
77 445 1
77 477 1
78 30 1
78 62 1
78 94 1
78 222 1
78 254 1
78 286 1
78 414 1
78 446 1
78 478 1
79 31 1
79 63 1
79 95 1
79 223 1
79 255 1
79 287 1
79 415 1
79 447 1
79 479 1
80 32 1
80 64 1
80 96 1
80 224 1
80 256 1
80 288 1
80 416 1
80 448 1
80 480 1
81 33 1
81 65 1
81 81 1
81 225 1
81 257 1
81 273 1
81 417 1
81 449 1
81 465 1
82 34 1
82 66 1
82 82 1
82 226 1
82 258 1
82 274 1
82 418 1
82 450 1
82 466 1
83 35 1
83 67 1
83 83 1
83 227 1
83 259 1
83 275 1
83 419 1
83 451 1
83 467 1
84 36 1
84 68 1
84 84 1
84 228 1
84 260 1
84 276 1
84 420 1
84 452 1
84 468 1
85 37 1
85 69 1
85 85 1
85 229 1
85 261 1
85 277 1
85 421 1
85 453 1
85 469 1
86 38 1
86 70 1
86 86 1
86 230 1
86 262 1
86 278 1
86 422 1
86 454 1
86 470 1
87 39 1
87 71 1
87 87 1
87 231 1
87 263 1
87 279 1
87 423 1
87 455 1
87 471 1
88 40 1
88 72 1
88 88 1
88 232 1
88 264 1
88 280 1
88 424 1
88 456 1
88 472 1
89 41 1
89 73 1
89 89 1
89 233 1
89 265 1
89 281 1
89 425 1
89 457 1
89 473 1
90 42 1
90 74 1
90 90 1
90 234 1
90 266 1
90 282 1
90 426 1
90 458 1
90 474 1
91 43 1
91 75 1
91 91 1
91 235 1
91 267 1
91 283 1
91 427 1
91 459 1
91 475 1
92 44 1
92 76 1
92 92 1
92 236 1
92 268 1
92 284 1
92 428 1
92 460 1
92 476 1
93 45 1
93 77 1
93 93 1
93 237 1
93 269 1
93 285 1
93 429 1
93 461 1
93 477 1
94 46 1
94 78 1
94 94 1
94 238 1
94 270 1
94 286 1
94 430 1
94 462 1
94 478 1
95 47 1
95 79 1
95 95 1
95 239 1
95 271 1
95 287 1
95 431 1
95 463 1
95 479 1
96 48 1
96 80 1
96 96 1
96 240 1
96 272 1
96 288 1
96 432 1
96 464 1
96 480 1
97 97 1
97 145 1
97 161 1
97 193 1
97 241 1
97 257 1
97 481 1
97 529 1
97 545 1
98 98 1
98 146 1
98 162 1
98 194 1
98 242 1
98 258 1
98 482 1
98 530 1
98 546 1
99 99 1
99 147 1
99 163 1
99 195 1
99 243 1
99 259 1
99 483 1
99 531 1
99 547 1
100 100 1
100 148 1
100 164 1
100 196 1
100 244 1
100 260 1
100 484 1
100 532 1
100 548 1
101 101 1
101 149 1
101 165 1
101 197 1
101 245 1
101 261 1
101 485 1
101 533 1
101 549 1
102 102 1
102 150 1
102 166 1
102 198 1
102 246 1
102 262 1
102 486 1
102 534 1
102 550 1
103 103 1
103 151 1
103 167 1
103 199 1
103 247 1
103 263 1
103 487 1
103 535 1
103 551 1
104 104 1
104 152 1
104 168 1
104 200 1
104 248 1
104 264 1
104 488 1
104 536 1
104 552 1
105 105 1
105 153 1
105 169 1
105 201 1
105 249 1
105 265 1
105 489 1
105 537 1
105 553 1
106 106 1
106 154 1
106 170 1
106 202 1
106 250 1
106 266 1
106 490 1
106 538 1
106 554 1
107 107 1
107 155 1
107 171 1
107 203 1
107 251 1
107 267 1
107 491 1
107 539 1
107 555 1
108 108 1
108 156 1
108 172 1
108 204 1
108 252 1
108 268 1
108 492 1
108 540 1
108 556 1
109 109 1
109 157 1
109 173 1
109 205 1
109 253 1
109 269 1
109 493 1
109 541 1
109 557 1
110 110 1
110 158 1
110 174 1
110 206 1
110 254 1
110 270 1
110 494 1
110 542 1
110 558 1
111 111 1
111 159 1
111 175 1
111 207 1
111 255 1
111 271 1
111 495 1
111 543 1
111 559 1
112 112 1
112 160 1
112 176 1
112 208 1
112 256 1
112 272 1
112 496 1
112 544 1
112 560 1
113 113 1
113 145 1
113 177 1
113 209 1
113 241 1
113 273 1
113 497 1
113 529 1
113 561 1
114 114 1
114 146 1
114 178 1
114 210 1
114 242 1
114 274 1
114 498 1
114 530 1
114 562 1
115 115 1
115 147 1
115 179 1
115 211 1
115 243 1
115 275 1
115 499 1
115 531 1
115 563 1
116 116 1
116 148 1
116 180 1
116 212 1
116 244 1
116 276 1
116 500 1
116 532 1
116 564 1
117 117 1
117 149 1
117 181 1
117 213 1
117 245 1
117 277 1
117 501 1
117 533 1
117 565 1
118 118 1
118 150 1
118 182 1
118 214 1
118 246 1
118 278 1
118 502 1
118 534 1
118 566 1
119 119 1
119 151 1
119 183 1
119 215 1
119 247 1
119 279 1
119 503 1
119 535 1
119 567 1
120 120 1
120 152 1
120 184 1
120 216 1
120 248 1
120 280 1
120 504 1
120 536 1
120 568 1
121 121 1
121 153 1
121 185 1
121 217 1
121 249 1
121 281 1
121 505 1
121 537 1
121 569 1
122 122 1
122 154 1
122 186 1
122 218 1
122 250 1
122 282 1
122 506 1
122 538 1
122 570 1
123 123 1
123 155 1
123 187 1
123 219 1
123 251 1
123 283 1
123 507 1
123 539 1
123 571 1
124 124 1
124 156 1
124 188 1
124 220 1
124 252 1
124 284 1
124 508 1
124 540 1
124 572 1
125 125 1
125 157 1
125 189 1
125 221 1
125 253 1
125 285 1
125 509 1
125 541 1
125 573 1
126 126 1
126 158 1
126 190 1
126 222 1
126 254 1
126 286 1
126 510 1
126 542 1
126 574 1
127 127 1
127 159 1
127 191 1
127 223 1
127 255 1
127 287 1
127 511 1
127 543 1
127 575 1
128 128 1
128 160 1
128 192 1
128 224 1
128 256 1
128 288 1
128 512 1
128 544 1
128 576 1
129 129 1
129 161 1
129 177 1
129 225 1
129 257 1
129 273 1
129 513 1
129 545 1
129 561 1
130 130 1
130 162 1
130 178 1
130 226 1
130 258 1
130 274 1
130 514 1
130 546 1
130 562 1
131 131 1
131 163 1
131 179 1
131 227 1
131 259 1
131 275 1
131 515 1
131 547 1
131 563 1
132 132 1
132 164 1
132 180 1
132 228 1
132 260 1
132 276 1
132 516 1
132 548 1
132 564 1
133 133 1
133 165 1
133 181 1
133 229 1
133 261 1
133 277 1
133 517 1
133 549 1
133 565 1
134 134 1
134 166 1
134 182 1
134 230 1
134 262 1
134 278 1
134 518 1
134 550 1
134 566 1
135 135 1
135 167 1
135 183 1
135 231 1
135 263 1
135 279 1
135 519 1
135 551 1
135 567 1
136 136 1
136 168 1
136 184 1
136 232 1
136 264 1
136 280 1
136 520 1
136 552 1
136 568 1
137 137 1
137 169 1
137 185 1
137 233 1
137 265 1
137 281 1
137 521 1
137 553 1
137 569 1
138 138 1
138 170 1
138 186 1
138 234 1
138 266 1
138 282 1
138 522 1
138 554 1
138 570 1
139 139 1
139 171 1
139 187 1
139 235 1
139 267 1
139 283 1
139 523 1
139 555 1
139 571 1
140 140 1
140 172 1
140 188 1
140 236 1
140 268 1
140 284 1
140 524 1
140 556 1
140 572 1
141 141 1
141 173 1
141 189 1
141 237 1
141 269 1
141 285 1
141 525 1
141 557 1
141 573 1
142 142 1
142 174 1
142 190 1
142 238 1
142 270 1
142 286 1
142 526 1
142 558 1
142 574 1
143 143 1
143 175 1
143 191 1
143 239 1
143 271 1
143 287 1
143 527 1
143 559 1
143 575 1
144 144 1
144 176 1
144 192 1
144 240 1
144 272 1
144 288 1
144 528 1
144 560 1
144 576 1
145 1 1
145 59 1
145 86 1
145 103 1
145 146 1
145 181 1
145 495 1
145 538 1
145 562 1
146 2 1
146 62 1
146 84 1
146 105 1
146 147 1
146 184 1
146 496 1
146 541 1
146 563 1
147 3 1
147 63 1
147 87 1
147 108 1
147 150 1
147 186 1
147 481 1
147 539 1
147 566 1
148 4 1
148 49 1
148 92 1
148 104 1
148 151 1
148 187 1
148 483 1
148 543 1
148 567 1
149 5 1
149 52 1
149 93 1
149 110 1
149 152 1
149 177 1
149 489 1
149 531 1
149 568 1
150 6 1
150 64 1
150 89 1
150 101 1
150 148 1
150 189 1
150 482 1
150 542 1
150 564 1
151 7 1
151 50 1
151 85 1
151 106 1
151 153 1
151 190 1
151 486 1
151 544 1
151 569 1
152 8 1
152 55 1
152 91 1
152 111 1
152 154 1
152 178 1
152 492 1
152 534 1
152 570 1
153 9 1
153 51 1
153 88 1
153 109 1
153 156 1
153 191 1
153 484 1
153 529 1
153 572 1
154 10 1
154 57 1
154 94 1
154 112 1
154 157 1
154 179 1
154 485 1
154 532 1
154 573 1
155 11 1
155 53 1
155 96 1
155 98 1
155 158 1
155 180 1
155 490 1
155 537 1
155 574 1
156 12 1
156 54 1
156 90 1
156 107 1
156 149 1
156 192 1
156 487 1
156 530 1
156 565 1
157 13 1
157 60 1
157 95 1
157 97 1
157 155 1
157 182 1
157 488 1
157 535 1
157 571 1
158 14 1
158 56 1
158 81 1
158 99 1
158 159 1
158 183 1
158 493 1
158 540 1
158 575 1
159 15 1
159 58 1
159 82 1
159 102 1
159 160 1
159 185 1
159 491 1
159 533 1
159 576 1
160 16 1
160 61 1
160 83 1
160 100 1
160 145 1
160 188 1
160 494 1
160 536 1
160 561 1
161 31 1
161 43 1
161 86 1
161 118 1
161 130 1
161 181 1
161 507 1
161 522 1
161 562 1
162 32 1
162 46 1
162 84 1
162 116 1
162 131 1
162 184 1
162 510 1
162 525 1
162 563 1
163 17 1
163 47 1
163 87 1
163 119 1
163 134 1
163 186 1
163 511 1
163 523 1
163 566 1
164 19 1
164 33 1
164 92 1
164 124 1
164 135 1
164 187 1
164 497 1
164 527 1
164 567 1
165 25 1
165 36 1
165 93 1
165 125 1
165 136 1
165 177 1
165 500 1
165 515 1
165 568 1
166 18 1
166 48 1
166 89 1
166 121 1
166 132 1
166 189 1
166 512 1
166 526 1
166 564 1
167 22 1
167 34 1
167 85 1
167 117 1
167 137 1
167 190 1
167 498 1
167 528 1
167 569 1
168 28 1
168 39 1
168 91 1
168 123 1
168 138 1
168 178 1
168 503 1
168 518 1
168 570 1
169 20 1
169 35 1
169 88 1
169 120 1
169 140 1
169 191 1
169 499 1
169 513 1
169 572 1
170 21 1
170 41 1
170 94 1
170 126 1
170 141 1
170 179 1
170 505 1
170 516 1
170 573 1
171 26 1
171 37 1
171 96 1
171 128 1
171 142 1
171 180 1
171 501 1
171 521 1
171 574 1
172 23 1
172 38 1
172 90 1
172 122 1
172 133 1
172 192 1
172 502 1
172 514 1
172 565 1
173 24 1
173 44 1
173 95 1
173 127 1
173 139 1
173 182 1
173 508 1
173 519 1
173 571 1
174 29 1
174 40 1
174 81 1
174 113 1
174 143 1
174 183 1
174 504 1
174 524 1
174 575 1
175 27 1
175 42 1
175 82 1
175 114 1
175 144 1
175 185 1
175 506 1
175 517 1
175 576 1
176 30 1
176 45 1
176 83 1
176 115 1
176 129 1
176 188 1
176 509 1
176 520 1
176 561 1
177 31 1
177 59 1
177 76 1
177 118 1
177 146 1
177 171 1
177 507 1
177 538 1
177 551 1
178 32 1
178 62 1
178 69 1
178 116 1
178 147 1
178 174 1
178 510 1
178 541 1
178 553 1
179 17 1
179 63 1
179 72 1
179 119 1
179 150 1
179 175 1
179 511 1
179 539 1
179 556 1
180 19 1
180 49 1
180 77 1
180 124 1
180 151 1
180 161 1
180 497 1
180 543 1
180 552 1
181 25 1
181 52 1
181 80 1
181 125 1
181 152 1
181 164 1
181 500 1
181 531 1
181 558 1
182 18 1
182 64 1
182 74 1
182 121 1
182 148 1
182 176 1
182 512 1
182 542 1
182 549 1
183 22 1
183 50 1
183 75 1
183 117 1
183 153 1
183 162 1
183 498 1
183 544 1
183 554 1
184 28 1
184 55 1
184 65 1
184 123 1
184 154 1
184 167 1
184 503 1
184 534 1
184 559 1
185 20 1
185 51 1
185 78 1
185 120 1
185 156 1
185 163 1
185 499 1
185 529 1
185 557 1
186 21 1
186 57 1
186 66 1
186 126 1
186 157 1
186 169 1
186 505 1
186 532 1
186 560 1
187 26 1
187 53 1
187 70 1
187 128 1
187 158 1
187 165 1
187 501 1
187 537 1
187 546 1
188 23 1
188 54 1
188 79 1
188 122 1
188 149 1
188 166 1
188 502 1
188 530 1
188 555 1
189 24 1
189 60 1
189 67 1
189 127 1
189 155 1
189 172 1
189 508 1
189 535 1
189 545 1
190 29 1
190 56 1
190 68 1
190 113 1
190 159 1
190 168 1
190 504 1
190 540 1
190 547 1
191 27 1
191 58 1
191 71 1
191 114 1
191 160 1
191 170 1
191 506 1
191 533 1
191 550 1
192 30 1
192 61 1
192 73 1
192 115 1
192 145 1
192 173 1
192 509 1
192 536 1
192 548 1
193 1 1
193 59 1
193 86 1
193 299 1
193 341 1
193 384 1
193 397 1
193 444 1
193 479 1
194 2 1
194 62 1
194 84 1
194 302 1
194 344 1
194 369 1
194 395 1
194 437 1
194 480 1
195 3 1
195 63 1
195 87 1
195 303 1
195 346 1
195 370 1
195 398 1
195 440 1
195 465 1
196 4 1
196 49 1
196 92 1
196 289 1
196 347 1
196 374 1
196 400 1
196 445 1
196 467 1
197 5 1
197 52 1
197 93 1
197 292 1
197 337 1
197 380 1
197 390 1
197 448 1
197 473 1
198 6 1
198 64 1
198 89 1
198 304 1
198 349 1
198 371 1
198 399 1
198 442 1
198 466 1
199 7 1
199 50 1
199 85 1
199 290 1
199 350 1
199 372 1
199 385 1
199 443 1
199 470 1
200 8 1
200 55 1
200 91 1
200 295 1
200 338 1
200 373 1
200 388 1
200 433 1
200 476 1
201 9 1
201 51 1
201 88 1
201 291 1
201 351 1
201 375 1
201 386 1
201 446 1
201 468 1
202 10 1
202 57 1
202 94 1
202 297 1
202 339 1
202 376 1
202 391 1
202 434 1
202 469 1
203 11 1
203 53 1
203 96 1
203 293 1
203 340 1
203 381 1
203 396 1
203 438 1
203 474 1
204 12 1
204 54 1
204 90 1
204 294 1
204 352 1
204 377 1
204 387 1
204 447 1
204 471 1
205 13 1
205 60 1
205 95 1
205 300 1
205 342 1
205 378 1
205 393 1
205 435 1
205 472 1
206 14 1
206 56 1
206 81 1
206 296 1
206 343 1
206 379 1
206 389 1
206 436 1
206 477 1
207 15 1
207 58 1
207 82 1
207 298 1
207 345 1
207 382 1
207 392 1
207 439 1
207 475 1
208 16 1
208 61 1
208 83 1
208 301 1
208 348 1
208 383 1
208 394 1
208 441 1
208 478 1
209 31 1
209 43 1
209 86 1
209 314 1
209 325 1
209 384 1
209 408 1
209 428 1
209 479 1
210 32 1
210 46 1
210 84 1
210 317 1
210 328 1
210 369 1
210 410 1
210 421 1
210 480 1
211 17 1
211 47 1
211 87 1
211 315 1
211 330 1
211 370 1
211 413 1
211 424 1
211 465 1
212 19 1
212 33 1
212 92 1
212 319 1
212 331 1
212 374 1
212 414 1
212 429 1
212 467 1
213 25 1
213 36 1
213 93 1
213 307 1
213 321 1
213 380 1
213 402 1
213 432 1
213 473 1
214 18 1
214 48 1
214 89 1
214 318 1
214 333 1
214 371 1
214 411 1
214 426 1
214 466 1
215 22 1
215 34 1
215 85 1
215 320 1
215 334 1
215 372 1
215 415 1
215 427 1
215 470 1
216 28 1
216 39 1
216 91 1
216 310 1
216 322 1
216 373 1
216 403 1
216 417 1
216 476 1
217 20 1
217 35 1
217 88 1
217 305 1
217 335 1
217 375 1
217 416 1
217 430 1
217 468 1
218 21 1
218 41 1
218 94 1
218 308 1
218 323 1
218 376 1
218 406 1
218 418 1
218 469 1
219 26 1
219 37 1
219 96 1
219 313 1
219 324 1
219 381 1
219 407 1
219 422 1
219 474 1
220 23 1
220 38 1
220 90 1
220 306 1
220 336 1
220 377 1
220 401 1
220 431 1
220 471 1
221 24 1
221 44 1
221 95 1
221 311 1
221 326 1
221 378 1
221 404 1
221 419 1
221 472 1
222 29 1
222 40 1
222 81 1
222 316 1
222 327 1
222 379 1
222 409 1
222 420 1
222 477 1
223 27 1
223 42 1
223 82 1
223 309 1
223 329 1
223 382 1
223 412 1
223 423 1
223 475 1
224 30 1
224 45 1
224 83 1
224 312 1
224 332 1
224 383 1
224 405 1
224 425 1
224 478 1
225 31 1
225 59 1
225 76 1
225 314 1
225 341 1
225 358 1
225 408 1
225 444 1
225 451 1
226 32 1
226 62 1
226 69 1
226 317 1
226 344 1
226 356 1
226 410 1
226 437 1
226 454 1
227 17 1
227 63 1
227 72 1
227 315 1
227 346 1
227 359 1
227 413 1
227 440 1
227 452 1
228 19 1
228 49 1
228 77 1
228 319 1
228 347 1
228 364 1
228 414 1
228 445 1
228 457 1
229 25 1
229 52 1
229 80 1
229 307 1
229 337 1
229 365 1
229 402 1
229 448 1
229 458 1
230 18 1
230 64 1
230 74 1
230 318 1
230 349 1
230 361 1
230 411 1
230 442 1
230 455 1
231 22 1
231 50 1
231 75 1
231 320 1
231 350 1
231 357 1
231 415 1
231 443 1
231 460 1
232 28 1
232 55 1
232 65 1
232 310 1
232 338 1
232 363 1
232 403 1
232 433 1
232 461 1
233 20 1
233 51 1
233 78 1
233 305 1
233 351 1
233 360 1
233 416 1
233 446 1
233 453 1
234 21 1
234 57 1
234 66 1
234 308 1
234 339 1
234 366 1
234 406 1
234 434 1
234 459 1
235 26 1
235 53 1
235 70 1
235 313 1
235 340 1
235 368 1
235 407 1
235 438 1
235 463 1
236 23 1
236 54 1
236 79 1
236 306 1
236 352 1
236 362 1
236 401 1
236 447 1
236 456 1
237 24 1
237 60 1
237 67 1
237 311 1
237 342 1
237 367 1
237 404 1
237 435 1
237 462 1
238 29 1
238 56 1
238 68 1
238 316 1
238 343 1
238 353 1
238 409 1
238 436 1
238 464 1
239 27 1
239 58 1
239 71 1
239 309 1
239 345 1
239 354 1
239 412 1
239 439 1
239 449 1
240 30 1
240 61 1
240 73 1
240 312 1
240 348 1
240 355 1
240 405 1
240 441 1
240 450 1
241 103 1
241 146 1
241 181 1
241 201 1
241 243 1
241 280 1
241 299 1
241 341 1
241 384 1
242 105 1
242 147 1
242 184 1
242 204 1
242 246 1
242 282 1
242 302 1
242 344 1
242 369 1
243 108 1
243 150 1
243 186 1
243 197 1
243 244 1
243 285 1
243 303 1
243 346 1
243 370 1
244 104 1
244 151 1
244 187 1
244 202 1
244 249 1
244 286 1
244 289 1
244 347 1
244 374 1
245 110 1
245 152 1
245 177 1
245 207 1
245 250 1
245 274 1
245 292 1
245 337 1
245 380 1
246 101 1
246 148 1
246 189 1
246 200 1
246 247 1
246 283 1
246 304 1
246 349 1
246 371 1
247 106 1
247 153 1
247 190 1
247 205 1
247 252 1
247 287 1
247 290 1
247 350 1
247 372 1
248 111 1
248 154 1
248 178 1
248 208 1
248 253 1
248 275 1
248 295 1
248 338 1
248 373 1
249 109 1
249 156 1
249 191 1
249 203 1
249 245 1
249 288 1
249 291 1
249 351 1
249 375 1
250 112 1
250 157 1
250 179 1
250 193 1
250 251 1
250 278 1
250 297 1
250 339 1
250 376 1
251 98 1
251 158 1
251 180 1
251 195 1
251 255 1
251 279 1
251 293 1
251 340 1
251 381 1
252 107 1
252 149 1
252 192 1
252 206 1
252 248 1
252 273 1
252 294 1
252 352 1
252 377 1
253 97 1
253 155 1
253 182 1
253 194 1
253 254 1
253 276 1
253 300 1
253 342 1
253 378 1
254 99 1
254 159 1
254 183 1
254 198 1
254 256 1
254 281 1
254 296 1
254 343 1
254 379 1
255 102 1
255 160 1
255 185 1
255 196 1
255 241 1
255 284 1
255 298 1
255 345 1
255 382 1
256 100 1
256 145 1
256 188 1
256 199 1
256 242 1
256 277 1
256 301 1
256 348 1
256 383 1
257 118 1
257 130 1
257 181 1
257 212 1
257 227 1
257 280 1
257 314 1
257 325 1
257 384 1
258 116 1
258 131 1
258 184 1
258 215 1
258 230 1
258 282 1
258 317 1
258 328 1
258 369 1
259 119 1
259 134 1
259 186 1
259 217 1
259 228 1
259 285 1
259 315 1
259 330 1
259 370 1
260 124 1
260 135 1
260 187 1
260 213 1
260 233 1
260 286 1
260 319 1
260 331 1
260 374 1
261 125 1
261 136 1
261 177 1
261 219 1
261 234 1
261 274 1
261 307 1
261 321 1
261 380 1
262 121 1
262 132 1
262 189 1
262 220 1
262 231 1
262 283 1
262 318 1
262 333 1
262 371 1
263 117 1
263 137 1
263 190 1
263 216 1
263 236 1
263 287 1
263 320 1
263 334 1
263 372 1
264 123 1
264 138 1
264 178 1
264 222 1
264 237 1
264 275 1
264 310 1
264 322 1
264 373 1
265 120 1
265 140 1
265 191 1
265 218 1
265 229 1
265 288 1
265 305 1
265 335 1
265 375 1
266 126 1
266 141 1
266 179 1
266 223 1
266 235 1
266 278 1
266 308 1
266 323 1
266 376 1
267 128 1
267 142 1
267 180 1
267 209 1
267 239 1
267 279 1
267 313 1
267 324 1
267 381 1
268 122 1
268 133 1
268 192 1
268 221 1
268 232 1
268 273 1
268 306 1
268 336 1
268 377 1
269 127 1
269 139 1
269 182 1
269 224 1
269 238 1
269 276 1
269 311 1
269 326 1
269 378 1
270 113 1
270 143 1
270 183 1
270 210 1
270 240 1
270 281 1
270 316 1
270 327 1
270 379 1
271 114 1
271 144 1
271 185 1
271 211 1
271 225 1
271 284 1
271 309 1
271 329 1
271 382 1
272 115 1
272 129 1
272 188 1
272 214 1
272 226 1
272 277 1
272 312 1
272 332 1
272 383 1
273 118 1
273 146 1
273 171 1
273 212 1
273 243 1
273 270 1
273 314 1
273 341 1
273 358 1
274 116 1
274 147 1
274 174 1
274 215 1
274 246 1
274 271 1
274 317 1
274 344 1
274 356 1
275 119 1
275 150 1
275 175 1
275 217 1
275 244 1
275 272 1
275 315 1
275 346 1
275 359 1
276 124 1
276 151 1
276 161 1
276 213 1
276 249 1
276 258 1
276 319 1
276 347 1
276 364 1
277 125 1
277 152 1
277 164 1
277 219 1
277 250 1
277 263 1
277 307 1
277 337 1
277 365 1
278 121 1
278 148 1
278 176 1
278 220 1
278 247 1
278 257 1
278 318 1
278 349 1
278 361 1
279 117 1
279 153 1
279 162 1
279 216 1
279 252 1
279 259 1
279 320 1
279 350 1
279 357 1
280 123 1
280 154 1
280 167 1
280 222 1
280 253 1
280 265 1
280 310 1
280 338 1
280 363 1
281 120 1
281 156 1
281 163 1
281 218 1
281 245 1
281 262 1
281 305 1
281 351 1
281 360 1
282 126 1
282 157 1
282 169 1
282 223 1
282 251 1
282 268 1
282 308 1
282 339 1
282 366 1
283 128 1
283 158 1
283 165 1
283 209 1
283 255 1
283 264 1
283 313 1
283 340 1
283 368 1
284 122 1
284 149 1
284 166 1
284 221 1
284 248 1
284 260 1
284 306 1
284 352 1
284 362 1
285 127 1
285 155 1
285 172 1
285 224 1
285 254 1
285 261 1
285 311 1
285 342 1
285 367 1
286 113 1
286 159 1
286 168 1
286 210 1
286 256 1
286 266 1
286 316 1
286 343 1
286 353 1
287 114 1
287 160 1
287 170 1
287 211 1
287 241 1
287 269 1
287 309 1
287 345 1
287 354 1
288 115 1
288 145 1
288 173 1
288 214 1
288 242 1
288 267 1
288 312 1
288 348 1
288 355 1
