%%MatrixMarket matrix coordinate integer general
144 288 1296
1 1 1
1 25 1
1 33 1
1 49 1
1 73 1
1 81 1
1 145 1
1 169 1
1 177 1
2 2 1
2 26 1
2 34 1
2 50 1
2 74 1
2 82 1
2 146 1
2 170 1
2 178 1
3 3 1
3 27 1
3 35 1
3 51 1
3 75 1
3 83 1
3 147 1
3 171 1
3 179 1
4 4 1
4 28 1
4 36 1
4 52 1
4 76 1
4 84 1
4 148 1
4 172 1
4 180 1
5 5 1
5 29 1
5 37 1
5 53 1
5 77 1
5 85 1
5 149 1
5 173 1
5 181 1
6 6 1
6 30 1
6 38 1
6 54 1
6 78 1
6 86 1
6 150 1
6 174 1
6 182 1
7 7 1
7 31 1
7 39 1
7 55 1
7 79 1
7 87 1
7 151 1
7 175 1
7 183 1
8 8 1
8 32 1
8 40 1
8 56 1
8 80 1
8 88 1
8 152 1
8 176 1
8 184 1
9 9 1
9 25 1
9 41 1
9 57 1
9 73 1
9 89 1
9 153 1
9 169 1
9 185 1
10 10 1
10 26 1
10 42 1
10 58 1
10 74 1
10 90 1
10 154 1
10 170 1
10 186 1
11 11 1
11 27 1
11 43 1
11 59 1
11 75 1
11 91 1
11 155 1
11 171 1
11 187 1
12 12 1
12 28 1
12 44 1
12 60 1
12 76 1
12 92 1
12 156 1
12 172 1
12 188 1
13 13 1
13 29 1
13 45 1
13 61 1
13 77 1
13 93 1
13 157 1
13 173 1
13 189 1
14 14 1
14 30 1
14 46 1
14 62 1
14 78 1
14 94 1
14 158 1
14 174 1
14 190 1
15 15 1
15 31 1
15 47 1
15 63 1
15 79 1
15 95 1
15 159 1
15 175 1
15 191 1
16 16 1
16 32 1
16 48 1
16 64 1
16 80 1
16 96 1
16 160 1
16 176 1
16 192 1
17 17 1
17 33 1
17 41 1
17 65 1
17 81 1
17 89 1
17 161 1
17 177 1
17 185 1
18 18 1
18 34 1
18 42 1
18 66 1
18 82 1
18 90 1
18 162 1
18 178 1
18 186 1
19 19 1
19 35 1
19 43 1
19 67 1
19 83 1
19 91 1
19 163 1
19 179 1
19 187 1
20 20 1
20 36 1
20 44 1
20 68 1
20 84 1
20 92 1
20 164 1
20 180 1
20 188 1
21 21 1
21 37 1
21 45 1
21 69 1
21 85 1
21 93 1
21 165 1
21 181 1
21 189 1
22 22 1
22 38 1
22 46 1
22 70 1
22 86 1
22 94 1
22 166 1
22 182 1
22 190 1
23 23 1
23 39 1
23 47 1
23 71 1
23 87 1
23 95 1
23 167 1
23 183 1
23 191 1
24 24 1
24 40 1
24 48 1
24 72 1
24 88 1
24 96 1
24 168 1
24 184 1
24 192 1
25 1 1
25 25 1
25 33 1
25 97 1
25 121 1
25 129 1
25 193 1
25 217 1
25 225 1
26 2 1
26 26 1
26 34 1
26 98 1
26 122 1
26 130 1
26 194 1
26 218 1
26 226 1
27 3 1
27 27 1
27 35 1
27 99 1
27 123 1
27 131 1
27 195 1
27 219 1
27 227 1
28 4 1
28 28 1
28 36 1
28 100 1
28 124 1
28 132 1
28 196 1
28 220 1
28 228 1
29 5 1
29 29 1
29 37 1
29 101 1
29 125 1
29 133 1
29 197 1
29 221 1
29 229 1
30 6 1
30 30 1
30 38 1
30 102 1
30 126 1
30 134 1
30 198 1
30 222 1
30 230 1
31 7 1
31 31 1
31 39 1
31 103 1
31 127 1
31 135 1
31 199 1
31 223 1
31 231 1
32 8 1
32 32 1
32 40 1
32 104 1
32 128 1
32 136 1
32 200 1
32 224 1
32 232 1
33 9 1
33 25 1
33 41 1
33 105 1
33 121 1
33 137 1
33 201 1
33 217 1
33 233 1
34 10 1
34 26 1
34 42 1
34 106 1
34 122 1
34 138 1
34 202 1
34 218 1
34 234 1
35 11 1
35 27 1
35 43 1
35 107 1
35 123 1
35 139 1
35 203 1
35 219 1
35 235 1
36 12 1
36 28 1
36 44 1
36 108 1
36 124 1
36 140 1
36 204 1
36 220 1
36 236 1
37 13 1
37 29 1
37 45 1
37 109 1
37 125 1
37 141 1
37 205 1
37 221 1
37 237 1
38 14 1
38 30 1
38 46 1
38 110 1
38 126 1
38 142 1
38 206 1
38 222 1
38 238 1
39 15 1
39 31 1
39 47 1
39 111 1
39 127 1
39 143 1
39 207 1
39 223 1
39 239 1
40 16 1
40 32 1
40 48 1
40 112 1
40 128 1
40 144 1
40 208 1
40 224 1
40 240 1
41 17 1
41 33 1
41 41 1
41 113 1
41 129 1
41 137 1
41 209 1
41 225 1
41 233 1
42 18 1
42 34 1
42 42 1
42 114 1
42 130 1
42 138 1
42 210 1
42 226 1
42 234 1
43 19 1
43 35 1
43 43 1
43 115 1
43 131 1
43 139 1
43 211 1
43 227 1
43 235 1
44 20 1
44 36 1
44 44 1
44 116 1
44 132 1
44 140 1
44 212 1
44 228 1
44 236 1
45 21 1
45 37 1
45 45 1
45 117 1
45 133 1
45 141 1
45 213 1
45 229 1
45 237 1
46 22 1
46 38 1
46 46 1
46 118 1
46 134 1
46 142 1
46 214 1
46 230 1
46 238 1
47 23 1
47 39 1
47 47 1
47 119 1
47 135 1
47 143 1
47 215 1
47 231 1
47 239 1
48 24 1
48 40 1
48 48 1
48 120 1
48 136 1
48 144 1
48 216 1
48 232 1
48 240 1
49 49 1
49 73 1
49 81 1
49 97 1
49 121 1
49 129 1
49 241 1
49 265 1
49 273 1
50 50 1
50 74 1
50 82 1
50 98 1
50 122 1
50 130 1
50 242 1
50 266 1
50 274 1
51 51 1
51 75 1
51 83 1
51 99 1
51 123 1
51 131 1
51 243 1
51 267 1
51 275 1
52 52 1
52 76 1
52 84 1
52 100 1
52 124 1
52 132 1
52 244 1
52 268 1
52 276 1
53 53 1
53 77 1
53 85 1
53 101 1
53 125 1
53 133 1
53 245 1
53 269 1
53 277 1
54 54 1
54 78 1
54 86 1
54 102 1
54 126 1
54 134 1
54 246 1
54 270 1
54 278 1
55 55 1
55 79 1
55 87 1
55 103 1
55 127 1
55 135 1
55 247 1
55 271 1
55 279 1
56 56 1
56 80 1
56 88 1
56 104 1
56 128 1
56 136 1
56 248 1
56 272 1
56 280 1
57 57 1
57 73 1
57 89 1
57 105 1
57 121 1
57 137 1
57 249 1
57 265 1
57 281 1
58 58 1
58 74 1
58 90 1
58 106 1
58 122 1
58 138 1
58 250 1
58 266 1
58 282 1
59 59 1
59 75 1
59 91 1
59 107 1
59 123 1
59 139 1
59 251 1
59 267 1
59 283 1
60 60 1
60 76 1
60 92 1
60 108 1
60 124 1
60 140 1
60 252 1
60 268 1
60 284 1
61 61 1
61 77 1
61 93 1
61 109 1
61 125 1
61 141 1
61 253 1
61 269 1
61 285 1
62 62 1
62 78 1
62 94 1
62 110 1
62 126 1
62 142 1
62 254 1
62 270 1
62 286 1
63 63 1
63 79 1
63 95 1
63 111 1
63 127 1
63 143 1
63 255 1
63 271 1
63 287 1
64 64 1
64 80 1
64 96 1
64 112 1
64 128 1
64 144 1
64 256 1
64 272 1
64 288 1
65 65 1
65 81 1
65 89 1
65 113 1
65 129 1
65 137 1
65 257 1
65 273 1
65 281 1
66 66 1
66 82 1
66 90 1
66 114 1
66 130 1
66 138 1
66 258 1
66 274 1
66 282 1
67 67 1
67 83 1
67 91 1
67 115 1
67 131 1
67 139 1
67 259 1
67 275 1
67 283 1
68 68 1
68 84 1
68 92 1
68 116 1
68 132 1
68 140 1
68 260 1
68 276 1
68 284 1
69 69 1
69 85 1
69 93 1
69 117 1
69 133 1
69 141 1
69 261 1
69 277 1
69 285 1
70 70 1
70 86 1
70 94 1
70 118 1
70 134 1
70 142 1
70 262 1
70 278 1
70 286 1
71 71 1
71 87 1
71 95 1
71 119 1
71 135 1
71 143 1
71 263 1
71 279 1
71 287 1
72 72 1
72 88 1
72 96 1
72 120 1
72 136 1
72 144 1
72 264 1
72 280 1
72 288 1
73 1 1
73 17 1
73 35 1
73 50 1
73 66 1
73 85 1
73 100 1
73 116 1
73 135 1
74 2 1
74 18 1
74 37 1
74 49 1
74 65 1
74 83 1
74 102 1
74 118 1
74 136 1
75 3 1
75 19 1
75 33 1
75 53 1
75 69 1
75 82 1
75 103 1
75 119 1
75 132 1
76 4 1
76 20 1
76 39 1
76 54 1
76 70 1
76 88 1
76 97 1
76 113 1
76 131 1
77 5 1
77 21 1
77 34 1
77 51 1
77 67 1
77 81 1
77 104 1
77 120 1
77 134 1
78 6 1
78 22 1
78 40 1
78 52 1
78 68 1
78 87 1
78 98 1
78 114 1
78 133 1
79 7 1
79 23 1
79 36 1
79 56 1
79 72 1
79 86 1
79 99 1
79 115 1
79 129 1
80 8 1
80 24 1
80 38 1
80 55 1
80 71 1
80 84 1
80 101 1
80 117 1
80 130 1
81 9 1
81 17 1
81 48 1
81 58 1
81 66 1
81 95 1
81 108 1
81 116 1
81 141 1
82 10 1
82 18 1
82 47 1
82 57 1
82 65 1
82 96 1
82 110 1
82 118 1
82 139 1
83 11 1
83 19 1
83 46 1
83 61 1
83 69 1
83 92 1
83 111 1
83 119 1
83 138 1
84 12 1
84 20 1
84 45 1
84 62 1
84 70 1
84 91 1
84 105 1
84 113 1
84 144 1
85 13 1
85 21 1
85 44 1
85 59 1
85 67 1
85 94 1
85 112 1
85 120 1
85 137 1
86 14 1
86 22 1
86 43 1
86 60 1
86 68 1
86 93 1
86 106 1
86 114 1
86 143 1
87 15 1
87 23 1
87 42 1
87 64 1
87 72 1
87 89 1
87 107 1
87 115 1
87 142 1
88 16 1
88 24 1
88 41 1
88 63 1
88 71 1
88 90 1
88 109 1
88 117 1
88 140 1
89 26 1
89 35 1
89 48 1
89 73 1
89 85 1
89 95 1
89 126 1
89 135 1
89 141 1
90 25 1
90 37 1
90 47 1
90 74 1
90 83 1
90 96 1
90 124 1
90 136 1
90 139 1
91 29 1
91 33 1
91 46 1
91 75 1
91 82 1
91 92 1
91 128 1
91 132 1
91 138 1
92 30 1
92 39 1
92 45 1
92 76 1
92 88 1
92 91 1
92 122 1
92 131 1
92 144 1
93 27 1
93 34 1
93 44 1
93 77 1
93 81 1
93 94 1
93 127 1
93 134 1
93 137 1
94 28 1
94 40 1
94 43 1
94 78 1
94 87 1
94 93 1
94 121 1
94 133 1
94 143 1
95 32 1
95 36 1
95 42 1
95 79 1
95 86 1
95 89 1
95 125 1
95 129 1
95 142 1
96 31 1
96 38 1
96 41 1
96 80 1
96 84 1
96 90 1
96 123 1
96 130 1
96 140 1
97 1 1
97 17 1
97 35 1
97 149 1
97 165 1
97 178 1
97 198 1
97 214 1
97 232 1
98 2 1
98 18 1
98 37 1
98 147 1
98 163 1
98 177 1
98 196 1
98 212 1
98 231 1
99 3 1
99 19 1
99 33 1
99 146 1
99 162 1
99 181 1
99 200 1
99 216 1
99 230 1
100 4 1
100 20 1
100 39 1
100 152 1
100 168 1
100 182 1
100 194 1
100 210 1
100 229 1
101 5 1
101 21 1
101 34 1
101 145 1
101 161 1
101 179 1
101 199 1
101 215 1
101 228 1
102 6 1
102 22 1
102 40 1
102 151 1
102 167 1
102 180 1
102 193 1
102 209 1
102 227 1
103 7 1
103 23 1
103 36 1
103 150 1
103 166 1
103 184 1
103 197 1
103 213 1
103 226 1
104 8 1
104 24 1
104 38 1
104 148 1
104 164 1
104 183 1
104 195 1
104 211 1
104 225 1
105 9 1
105 17 1
105 48 1
105 157 1
105 165 1
105 188 1
105 206 1
105 214 1
105 235 1
106 10 1
106 18 1
106 47 1
106 155 1
106 163 1
106 190 1
106 204 1
106 212 1
106 237 1
107 11 1
107 19 1
107 46 1
107 154 1
107 162 1
107 191 1
107 208 1
107 216 1
107 233 1
108 12 1
108 20 1
108 45 1
108 160 1
108 168 1
108 185 1
108 202 1
108 210 1
108 239 1
109 13 1
109 21 1
109 44 1
109 153 1
109 161 1
109 192 1
109 207 1
109 215 1
109 234 1
110 14 1
110 22 1
110 43 1
110 159 1
110 167 1
110 186 1
110 201 1
110 209 1
110 240 1
111 15 1
111 23 1
111 42 1
111 158 1
111 166 1
111 187 1
111 205 1
111 213 1
111 236 1
112 16 1
112 24 1
112 41 1
112 156 1
112 164 1
112 189 1
112 203 1
112 211 1
112 238 1
113 26 1
113 35 1
113 48 1
113 171 1
113 178 1
113 188 1
113 220 1
113 232 1
113 235 1
114 25 1
114 37 1
114 47 1
114 173 1
114 177 1
114 190 1
114 222 1
114 231 1
114 237 1
115 29 1
115 33 1
115 46 1
115 169 1
115 181 1
115 191 1
115 223 1
115 230 1
115 233 1
116 30 1
116 39 1
116 45 1
116 175 1
116 182 1
116 185 1
116 217 1
116 229 1
116 239 1
117 27 1
117 34 1
117 44 1
117 170 1
117 179 1
117 192 1
117 224 1
117 228 1
117 234 1
118 28 1
118 40 1
118 43 1
118 176 1
118 180 1
118 186 1
118 218 1
118 227 1
118 240 1
119 32 1
119 36 1
119 42 1
119 172 1
119 184 1
119 187 1
119 219 1
119 226 1
119 236 1
120 31 1
120 38 1
120 41 1
120 174 1
120 183 1
120 189 1
120 221 1
120 225 1
120 238 1
121 50 1
121 66 1
121 85 1
121 149 1
121 165 1
121 178 1
121 247 1
121 263 1
121 276 1
122 49 1
122 65 1
122 83 1
122 147 1
122 163 1
122 177 1
122 248 1
122 264 1
122 278 1
123 53 1
123 69 1
123 82 1
123 146 1
123 162 1
123 181 1
123 244 1
123 260 1
123 279 1
124 54 1
124 70 1
124 88 1
124 152 1
124 168 1
124 182 1
124 243 1
124 259 1
124 273 1
125 51 1
125 67 1
125 81 1
125 145 1
125 161 1
125 179 1
125 246 1
125 262 1
125 280 1
126 52 1
126 68 1
126 87 1
126 151 1
126 167 1
126 180 1
126 245 1
126 261 1
126 274 1
127 56 1
127 72 1
127 86 1
127 150 1
127 166 1
127 184 1
127 241 1
127 257 1
127 275 1
128 55 1
128 71 1
128 84 1
128 148 1
128 164 1
128 183 1
128 242 1
128 258 1
128 277 1
129 58 1
129 66 1
129 95 1
129 157 1
129 165 1
129 188 1
129 255 1
129 263 1
129 282 1
130 57 1
130 65 1
130 96 1
130 155 1
130 163 1
130 190 1
130 256 1
130 264 1
130 281 1
131 61 1
131 69 1
131 92 1
131 154 1
131 162 1
131 191 1
131 252 1
131 260 1
131 285 1
132 62 1
132 70 1
132 91 1
132 160 1
132 168 1
132 185 1
132 251 1
132 259 1
132 286 1
133 59 1
133 67 1
133 94 1
133 153 1
133 161 1
133 192 1
133 254 1
133 262 1
133 283 1
134 60 1
134 68 1
134 93 1
134 159 1
134 167 1
134 186 1
134 253 1
134 261 1
134 284 1
135 64 1
135 72 1
135 89 1
135 158 1
135 166 1
135 187 1
135 249 1
135 257 1
135 288 1
136 63 1
136 71 1
136 90 1
136 156 1
136 164 1
136 189 1
136 250 1
136 258 1
136 287 1
137 73 1
137 85 1
137 95 1
137 171 1
137 178 1
137 188 1
137 272 1
137 276 1
137 282 1
138 74 1
138 83 1
138 96 1
138 173 1
138 177 1
138 190 1
138 271 1
138 278 1
138 281 1
139 75 1
139 82 1
139 92 1
139 169 1
139 181 1
139 191 1
139 270 1
139 279 1
139 285 1
140 76 1
140 88 1
140 91 1
140 175 1
140 182 1
140 185 1
140 269 1
140 273 1
140 286 1
141 77 1
141 81 1
141 94 1
141 170 1
141 179 1
141 192 1
141 268 1
141 280 1
141 283 1
142 78 1
142 87 1
142 93 1
142 176 1
142 180 1
142 186 1
142 267 1
142 274 1
142 284 1
143 79 1
143 86 1
143 89 1
143 172 1
143 184 1
143 187 1
143 266 1
143 275 1
143 288 1
144 80 1
144 84 1
144 90 1
144 174 1
144 183 1
144 189 1
144 265 1
144 277 1
144 287 1
