%%MatrixMarket matrix coordinate integer general
144 288 1296
1 1 1
1 9 1
1 17 1
1 145 1
1 153 1
1 161 1
1 193 1
1 201 1
1 209 1
2 2 1
2 10 1
2 18 1
2 146 1
2 154 1
2 162 1
2 194 1
2 202 1
2 210 1
3 3 1
3 11 1
3 19 1
3 147 1
3 155 1
3 163 1
3 195 1
3 203 1
3 211 1
4 4 1
4 12 1
4 20 1
4 148 1
4 156 1
4 164 1
4 196 1
4 204 1
4 212 1
5 5 1
5 13 1
5 21 1
5 149 1
5 157 1
5 165 1
5 197 1
5 205 1
5 213 1
6 6 1
6 14 1
6 22 1
6 150 1
6 158 1
6 166 1
6 198 1
6 206 1
6 214 1
7 7 1
7 15 1
7 23 1
7 151 1
7 159 1
7 167 1
7 199 1
7 207 1
7 215 1
8 8 1
8 16 1
8 24 1
8 152 1
8 160 1
8 168 1
8 200 1
8 208 1
8 216 1
9 1 1
9 26 1
9 35 1
9 145 1
9 170 1
9 179 1
9 193 1
9 218 1
9 227 1
10 2 1
10 25 1
10 37 1
10 146 1
10 169 1
10 181 1
10 194 1
10 217 1
10 229 1
11 3 1
11 29 1
11 33 1
11 147 1
11 173 1
11 177 1
11 195 1
11 221 1
11 225 1
12 4 1
12 30 1
12 39 1
12 148 1
12 174 1
12 183 1
12 196 1
12 222 1
12 231 1
13 5 1
13 27 1
13 34 1
13 149 1
13 171 1
13 178 1
13 197 1
13 219 1
13 226 1
14 6 1
14 28 1
14 40 1
14 150 1
14 172 1
14 184 1
14 198 1
14 220 1
14 232 1
15 7 1
15 32 1
15 36 1
15 151 1
15 176 1
15 180 1
15 199 1
15 224 1
15 228 1
16 8 1
16 31 1
16 38 1
16 152 1
16 175 1
16 182 1
16 200 1
16 223 1
16 230 1
17 9 1
17 26 1
17 48 1
17 153 1
17 170 1
17 192 1
17 201 1
17 218 1
17 240 1
18 10 1
18 25 1
18 47 1
18 154 1
18 169 1
18 191 1
18 202 1
18 217 1
18 239 1
19 11 1
19 29 1
19 46 1
19 155 1
19 173 1
19 190 1
19 203 1
19 221 1
19 238 1
20 12 1
20 30 1
20 45 1
20 156 1
20 174 1
20 189 1
20 204 1
20 222 1
20 237 1
21 13 1
21 27 1
21 44 1
21 157 1
21 171 1
21 188 1
21 205 1
21 219 1
21 236 1
22 14 1
22 28 1
22 43 1
22 158 1
22 172 1
22 187 1
22 206 1
22 220 1
22 235 1
23 15 1
23 32 1
23 42 1
23 159 1
23 176 1
23 186 1
23 207 1
23 224 1
23 234 1
24 16 1
24 31 1
24 41 1
24 160 1
24 175 1
24 185 1
24 208 1
24 223 1
24 233 1
25 49 1
25 57 1
25 65 1
25 145 1
25 153 1
25 161 1
25 241 1
25 249 1
25 257 1
26 50 1
26 58 1
26 66 1
26 146 1
26 154 1
26 162 1
26 242 1
26 250 1
26 258 1
27 51 1
27 59 1
27 67 1
27 147 1
27 155 1
27 163 1
27 243 1
27 251 1
27 259 1
28 52 1
28 60 1
28 68 1
28 148 1
28 156 1
28 164 1
28 244 1
28 252 1
28 260 1
29 53 1
29 61 1
29 69 1
29 149 1
29 157 1
29 165 1
29 245 1
29 253 1
29 261 1
30 54 1
30 62 1
30 70 1
30 150 1
30 158 1
30 166 1
30 246 1
30 254 1
30 262 1
31 55 1
31 63 1
31 71 1
31 151 1
31 159 1
31 167 1
31 247 1
31 255 1
31 263 1
32 56 1
32 64 1
32 72 1
32 152 1
32 160 1
32 168 1
32 248 1
32 256 1
32 264 1
33 49 1
33 74 1
33 83 1
33 145 1
33 170 1
33 179 1
33 241 1
33 266 1
33 275 1
34 50 1
34 73 1
34 85 1
34 146 1
34 169 1
34 181 1
34 242 1
34 265 1
34 277 1
35 51 1
35 77 1
35 81 1
35 147 1
35 173 1
35 177 1
35 243 1
35 269 1
35 273 1
36 52 1
36 78 1
36 87 1
36 148 1
36 174 1
36 183 1
36 244 1
36 270 1
36 279 1
37 53 1
37 75 1
37 82 1
37 149 1
37 171 1
37 178 1
37 245 1
37 267 1
37 274 1
38 54 1
38 76 1
38 88 1
38 150 1
38 172 1
38 184 1
38 246 1
38 268 1
38 280 1
39 55 1
39 80 1
39 84 1
39 151 1
39 176 1
39 180 1
39 247 1
39 272 1
39 276 1
40 56 1
40 79 1
40 86 1
40 152 1
40 175 1
40 182 1
40 248 1
40 271 1
40 278 1
41 57 1
41 74 1
41 96 1
41 153 1
41 170 1
41 192 1
41 249 1
41 266 1
41 288 1
42 58 1
42 73 1
42 95 1
42 154 1
42 169 1
42 191 1
42 250 1
42 265 1
42 287 1
43 59 1
43 77 1
43 94 1
43 155 1
43 173 1
43 190 1
43 251 1
43 269 1
43 286 1
44 60 1
44 78 1
44 93 1
44 156 1
44 174 1
44 189 1
44 252 1
44 270 1
44 285 1
45 61 1
45 75 1
45 92 1
45 157 1
45 171 1
45 188 1
45 253 1
45 267 1
45 284 1
46 62 1
46 76 1
46 91 1
46 158 1
46 172 1
46 187 1
46 254 1
46 268 1
46 283 1
47 63 1
47 80 1
47 90 1
47 159 1
47 176 1
47 186 1
47 255 1
47 272 1
47 282 1
48 64 1
48 79 1
48 89 1
48 160 1
48 175 1
48 185 1
48 256 1
48 271 1
48 281 1
49 97 1
49 105 1
49 113 1
49 193 1
49 201 1
49 209 1
49 241 1
49 249 1
49 257 1
50 98 1
50 106 1
50 114 1
50 194 1
50 202 1
50 210 1
50 242 1
50 250 1
50 258 1
51 99 1
51 107 1
51 115 1
51 195 1
51 203 1
51 211 1
51 243 1
51 251 1
51 259 1
52 100 1
52 108 1
52 116 1
52 196 1
52 204 1
52 212 1
52 244 1
52 252 1
52 260 1
53 101 1
53 109 1
53 117 1
53 197 1
53 205 1
53 213 1
53 245 1
53 253 1
53 261 1
54 102 1
54 110 1
54 118 1
54 198 1
54 206 1
54 214 1
54 246 1
54 254 1
54 262 1
55 103 1
55 111 1
55 119 1
55 199 1
55 207 1
55 215 1
55 247 1
55 255 1
55 263 1
56 104 1
56 112 1
56 120 1
56 200 1
56 208 1
56 216 1
56 248 1
56 256 1
56 264 1
57 97 1
57 122 1
57 131 1
57 193 1
57 218 1
57 227 1
57 241 1
57 266 1
57 275 1
58 98 1
58 121 1
58 133 1
58 194 1
58 217 1
58 229 1
58 242 1
58 265 1
58 277 1
59 99 1
59 125 1
59 129 1
59 195 1
59 221 1
59 225 1
59 243 1
59 269 1
59 273 1
60 100 1
60 126 1
60 135 1
60 196 1
60 222 1
60 231 1
60 244 1
60 270 1
60 279 1
61 101 1
61 123 1
61 130 1
61 197 1
61 219 1
61 226 1
61 245 1
61 267 1
61 274 1
62 102 1
62 124 1
62 136 1
62 198 1
62 220 1
62 232 1
62 246 1
62 268 1
62 280 1
63 103 1
63 128 1
63 132 1
63 199 1
63 224 1
63 228 1
63 247 1
63 272 1
63 276 1
64 104 1
64 127 1
64 134 1
64 200 1
64 223 1
64 230 1
64 248 1
64 271 1
64 278 1
65 105 1
65 122 1
65 144 1
65 201 1
65 218 1
65 240 1
65 249 1
65 266 1
65 288 1
66 106 1
66 121 1
66 143 1
66 202 1
66 217 1
66 239 1
66 250 1
66 265 1
66 287 1
67 107 1
67 125 1
67 142 1
67 203 1
67 221 1
67 238 1
67 251 1
67 269 1
67 286 1
68 108 1
68 126 1
68 141 1
68 204 1
68 222 1
68 237 1
68 252 1
68 270 1
68 285 1
69 109 1
69 123 1
69 140 1
69 205 1
69 219 1
69 236 1
69 253 1
69 267 1
69 284 1
70 110 1
70 124 1
70 139 1
70 206 1
70 220 1
70 235 1
70 254 1
70 268 1
70 283 1
71 111 1
71 128 1
71 138 1
71 207 1
71 224 1
71 234 1
71 255 1
71 272 1
71 282 1
72 112 1
72 127 1
72 137 1
72 208 1
72 223 1
72 233 1
72 256 1
72 271 1
72 281 1
73 1 1
73 9 1
73 25 1
73 100 1
73 108 1
73 124 1
73 198 1
73 206 1
73 222 1
74 2 1
74 10 1
74 26 1
74 102 1
74 110 1
74 126 1
74 196 1
74 204 1
74 220 1
75 3 1
75 11 1
75 27 1
75 103 1
75 111 1
75 127 1
75 200 1
75 208 1
75 224 1
76 4 1
76 12 1
76 28 1
76 97 1
76 105 1
76 121 1
76 194 1
76 202 1
76 218 1
77 5 1
77 13 1
77 29 1
77 104 1
77 112 1
77 128 1
77 199 1
77 207 1
77 223 1
78 6 1
78 14 1
78 30 1
78 98 1
78 106 1
78 122 1
78 193 1
78 201 1
78 217 1
79 7 1
79 15 1
79 31 1
79 99 1
79 107 1
79 123 1
79 197 1
79 205 1
79 221 1
80 8 1
80 16 1
80 32 1
80 101 1
80 109 1
80 125 1
80 195 1
80 203 1
80 219 1
81 1 1
81 17 1
81 33 1
81 100 1
81 116 1
81 132 1
81 198 1
81 214 1
81 230 1
82 2 1
82 18 1
82 34 1
82 102 1
82 118 1
82 134 1
82 196 1
82 212 1
82 228 1
83 3 1
83 19 1
83 35 1
83 103 1
83 119 1
83 135 1
83 200 1
83 216 1
83 232 1
84 4 1
84 20 1
84 36 1
84 97 1
84 113 1
84 129 1
84 194 1
84 210 1
84 226 1
85 5 1
85 21 1
85 37 1
85 104 1
85 120 1
85 136 1
85 199 1
85 215 1
85 231 1
86 6 1
86 22 1
86 38 1
86 98 1
86 114 1
86 130 1
86 193 1
86 209 1
86 225 1
87 7 1
87 23 1
87 39 1
87 99 1
87 115 1
87 131 1
87 197 1
87 213 1
87 229 1
88 8 1
88 24 1
88 40 1
88 101 1
88 117 1
88 133 1
88 195 1
88 211 1
88 227 1
89 9 1
89 17 1
89 41 1
89 108 1
89 116 1
89 140 1
89 206 1
89 214 1
89 238 1
90 10 1
90 18 1
90 42 1
90 110 1
90 118 1
90 142 1
90 204 1
90 212 1
90 236 1
91 11 1
91 19 1
91 43 1
91 111 1
91 119 1
91 143 1
91 208 1
91 216 1
91 240 1
92 12 1
92 20 1
92 44 1
92 105 1
92 113 1
92 137 1
92 202 1
92 210 1
92 234 1
93 13 1
93 21 1
93 45 1
93 112 1
93 120 1
93 144 1
93 207 1
93 215 1
93 239 1
94 14 1
94 22 1
94 46 1
94 106 1
94 114 1
94 138 1
94 201 1
94 209 1
94 233 1
95 15 1
95 23 1
95 47 1
95 107 1
95 115 1
95 139 1
95 205 1
95 213 1
95 237 1
96 16 1
96 24 1
96 48 1
96 109 1
96 117 1
96 141 1
96 203 1
96 211 1
96 235 1
97 50 1
97 58 1
97 74 1
97 100 1
97 108 1
97 124 1
97 247 1
97 255 1
97 271 1
98 49 1
98 57 1
98 73 1
98 102 1
98 110 1
98 126 1
98 248 1
98 256 1
98 272 1
99 53 1
99 61 1
99 77 1
99 103 1
99 111 1
99 127 1
99 244 1
99 252 1
99 268 1
100 54 1
100 62 1
100 78 1
100 97 1
100 105 1
100 121 1
100 243 1
100 251 1
100 267 1
101 51 1
101 59 1
101 75 1
101 104 1
101 112 1
101 128 1
101 246 1
101 254 1
101 270 1
102 52 1
102 60 1
102 76 1
102 98 1
102 106 1
102 122 1
102 245 1
102 253 1
102 269 1
103 56 1
103 64 1
103 80 1
103 99 1
103 107 1
103 123 1
103 241 1
103 249 1
103 265 1
104 55 1
104 63 1
104 79 1
104 101 1
104 109 1
104 125 1
104 242 1
104 250 1
104 266 1
105 50 1
105 66 1
105 82 1
105 100 1
105 116 1
105 132 1
105 247 1
105 263 1
105 279 1
106 49 1
106 65 1
106 81 1
106 102 1
106 118 1
106 134 1
106 248 1
106 264 1
106 280 1
107 53 1
107 69 1
107 85 1
107 103 1
107 119 1
107 135 1
107 244 1
107 260 1
107 276 1
108 54 1
108 70 1
108 86 1
108 97 1
108 113 1
108 129 1
108 243 1
108 259 1
108 275 1
109 51 1
109 67 1
109 83 1
109 104 1
109 120 1
109 136 1
109 246 1
109 262 1
109 278 1
110 52 1
110 68 1
110 84 1
110 98 1
110 114 1
110 130 1
110 245 1
110 261 1
110 277 1
111 56 1
111 72 1
111 88 1
111 99 1
111 115 1
111 131 1
111 241 1
111 257 1
111 273 1
112 55 1
112 71 1
112 87 1
112 101 1
112 117 1
112 133 1
112 242 1
112 258 1
112 274 1
113 58 1
113 66 1
113 90 1
113 108 1
113 116 1
113 140 1
113 255 1
113 263 1
113 287 1
114 57 1
114 65 1
114 89 1
114 110 1
114 118 1
114 142 1
114 256 1
114 264 1
114 288 1
115 61 1
115 69 1
115 93 1
115 111 1
115 119 1
115 143 1
115 252 1
115 260 1
115 284 1
116 62 1
116 70 1
116 94 1
116 105 1
116 113 1
116 137 1
116 251 1
116 259 1
116 283 1
117 59 1
117 67 1
117 91 1
117 112 1
117 120 1
117 144 1
117 254 1
117 262 1
117 286 1
118 60 1
118 68 1
118 92 1
118 106 1
118 114 1
118 138 1
118 253 1
118 261 1
118 285 1
119 64 1
119 72 1
119 96 1
119 107 1
119 115 1
119 139 1
119 249 1
119 257 1
119 281 1
120 63 1
120 71 1
120 95 1
120 109 1
120 117 1
120 141 1
120 250 1
120 258 1
120 282 1
121 149 1
121 157 1
121 173 1
121 198 1
121 206 1
121 222 1
121 247 1
121 255 1
121 271 1
122 147 1
122 155 1
122 171 1
122 196 1
122 204 1
122 220 1
122 248 1
122 256 1
122 272 1
123 146 1
123 154 1
123 170 1
123 200 1
123 208 1
123 224 1
123 244 1
123 252 1
123 268 1
124 152 1
124 160 1
124 176 1
124 194 1
124 202 1
124 218 1
124 243 1
124 251 1
124 267 1
125 145 1
125 153 1
125 169 1
125 199 1
125 207 1
125 223 1
125 246 1
125 254 1
125 270 1
126 151 1
126 159 1
126 175 1
126 193 1
126 201 1
126 217 1
126 245 1
126 253 1
126 269 1
127 150 1
127 158 1
127 174 1
127 197 1
127 205 1
127 221 1
127 241 1
127 249 1
127 265 1
128 148 1
128 156 1
128 172 1
128 195 1
128 203 1
128 219 1
128 242 1
128 250 1
128 266 1
129 149 1
129 165 1
129 181 1
129 198 1
129 214 1
129 230 1
129 247 1
129 263 1
129 279 1
130 147 1
130 163 1
130 179 1
130 196 1
130 212 1
130 228 1
130 248 1
130 264 1
130 280 1
131 146 1
131 162 1
131 178 1
131 200 1
131 216 1
131 232 1
131 244 1
131 260 1
131 276 1
132 152 1
132 168 1
132 184 1
132 194 1
132 210 1
132 226 1
132 243 1
132 259 1
132 275 1
133 145 1
133 161 1
133 177 1
133 199 1
133 215 1
133 231 1
133 246 1
133 262 1
133 278 1
134 151 1
134 167 1
134 183 1
134 193 1
134 209 1
134 225 1
134 245 1
134 261 1
134 277 1
135 150 1
135 166 1
135 182 1
135 197 1
135 213 1
135 229 1
135 241 1
135 257 1
135 273 1
136 148 1
136 164 1
136 180 1
136 195 1
136 211 1
136 227 1
136 242 1
136 258 1
136 274 1
137 157 1
137 165 1
137 189 1
137 206 1
137 214 1
137 238 1
137 255 1
137 263 1
137 287 1
138 155 1
138 163 1
138 187 1
138 204 1
138 212 1
138 236 1
138 256 1
138 264 1
138 288 1
139 154 1
139 162 1
139 186 1
139 208 1
139 216 1
139 240 1
139 252 1
139 260 1
139 284 1
140 160 1
140 168 1
140 192 1
140 202 1
140 210 1
140 234 1
140 251 1
140 259 1
140 283 1
141 153 1
141 161 1
141 185 1
141 207 1
141 215 1
141 239 1
141 254 1
141 262 1
141 286 1
142 159 1
142 167 1
142 191 1
142 201 1
142 209 1
142 233 1
142 253 1
142 261 1
142 285 1
143 158 1
143 166 1
143 190 1
143 205 1
143 213 1
143 237 1
143 249 1
143 257 1
143 281 1
144 156 1
144 164 1
144 188 1
144 203 1
144 211 1
144 235 1
144 250 1
144 258 1
144 282 1
