%%MatrixMarket matrix coordinate integer general
288 576 2592
1 1 1
1 32 1
1 47 1
1 289 1
1 320 1
1 335 1
1 385 1
1 416 1
1 431 1
2 2 1
2 17 1
2 48 1
2 290 1
2 305 1
2 336 1
2 386 1
2 401 1
2 432 1
3 3 1
3 18 1
3 33 1
3 291 1
3 306 1
3 321 1
3 387 1
3 402 1
3 417 1
4 4 1
4 22 1
4 35 1
4 292 1
4 310 1
4 323 1
4 388 1
4 406 1
4 419 1
5 5 1
5 28 1
5 41 1
5 293 1
5 316 1
5 329 1
5 389 1
5 412 1
5 425 1
6 6 1
6 19 1
6 34 1
6 294 1
6 307 1
6 322 1
6 390 1
6 403 1
6 418 1
7 7 1
7 20 1
7 38 1
7 295 1
7 308 1
7 326 1
7 391 1
7 404 1
7 422 1
8 8 1
8 21 1
8 44 1
8 296 1
8 309 1
8 332 1
8 392 1
8 405 1
8 428 1
9 9 1
9 23 1
9 36 1
9 297 1
9 311 1
9 324 1
9 393 1
9 407 1
9 420 1
10 10 1
10 24 1
10 37 1
10 298 1
10 312 1
10 325 1
10 394 1
10 408 1
10 421 1
11 11 1
11 29 1
11 42 1
11 299 1
11 317 1
11 330 1
11 395 1
11 413 1
11 426 1
12 12 1
12 25 1
12 39 1
12 300 1
12 313 1
12 327 1
12 396 1
12 409 1
12 423 1
13 13 1
13 26 1
13 40 1
13 301 1
13 314 1
13 328 1
13 397 1
13 410 1
13 424 1
14 14 1
14 27 1
14 45 1
14 302 1
14 315 1
14 333 1
14 398 1
14 411 1
14 429 1
15 15 1
15 30 1
15 43 1
15 303 1
15 318 1
15 331 1
15 399 1
15 414 1
15 427 1
16 16 1
16 31 1
16 46 1
16 304 1
16 319 1
16 334 1
16 400 1
16 415 1
16 430 1
17 1 1
17 78 1
17 89 1
17 289 1
17 366 1
17 377 1
17 385 1
17 462 1
17 473 1
18 2 1
18 79 1
18 92 1
18 290 1
18 367 1
18 380 1
18 386 1
18 463 1
18 476 1
19 3 1
19 80 1
19 85 1
19 291 1
19 368 1
19 373 1
19 387 1
19 464 1
19 469 1
20 4 1
20 66 1
20 90 1
20 292 1
20 354 1
20 378 1
20 388 1
20 450 1
20 474 1
21 5 1
21 71 1
21 95 1
21 293 1
21 359 1
21 383 1
21 389 1
21 455 1
21 479 1
22 6 1
22 65 1
22 88 1
22 294 1
22 353 1
22 376 1
22 390 1
22 449 1
22 472 1
23 7 1
23 67 1
23 93 1
23 295 1
23 355 1
23 381 1
23 391 1
23 451 1
23 477 1
24 8 1
24 73 1
24 96 1
24 296 1
24 361 1
24 384 1
24 392 1
24 457 1
24 480 1
25 9 1
25 70 1
25 91 1
25 297 1
25 358 1
25 379 1
25 393 1
25 454 1
25 475 1
26 10 1
26 76 1
26 81 1
26 298 1
26 364 1
26 369 1
26 394 1
26 460 1
26 465 1
27 11 1
27 72 1
27 83 1
27 299 1
27 360 1
27 371 1
27 395 1
27 456 1
27 467 1
28 12 1
28 68 1
28 94 1
28 300 1
28 356 1
28 382 1
28 396 1
28 452 1
28 478 1
29 13 1
29 69 1
29 82 1
29 301 1
29 357 1
29 370 1
29 397 1
29 453 1
29 466 1
30 14 1
30 74 1
30 86 1
30 302 1
30 362 1
30 374 1
30 398 1
30 458 1
30 470 1
31 15 1
31 77 1
31 84 1
31 303 1
31 365 1
31 372 1
31 399 1
31 461 1
31 468 1
32 16 1
32 75 1
32 87 1
32 304 1
32 363 1
32 375 1
32 400 1
32 459 1
32 471 1
33 32 1
33 59 1
33 89 1
33 320 1
33 347 1
33 377 1
33 416 1
33 443 1
33 473 1
34 17 1
34 62 1
34 92 1
34 305 1
34 350 1
34 380 1
34 401 1
34 446 1
34 476 1
35 18 1
35 63 1
35 85 1
35 306 1
35 351 1
35 373 1
35 402 1
35 447 1
35 469 1
36 22 1
36 49 1
36 90 1
36 310 1
36 337 1
36 378 1
36 406 1
36 433 1
36 474 1
37 28 1
37 52 1
37 95 1
37 316 1
37 340 1
37 383 1
37 412 1
37 436 1
37 479 1
38 19 1
38 64 1
38 88 1
38 307 1
38 352 1
38 376 1
38 403 1
38 448 1
38 472 1
39 20 1
39 50 1
39 93 1
39 308 1
39 338 1
39 381 1
39 404 1
39 434 1
39 477 1
40 21 1
40 55 1
40 96 1
40 309 1
40 343 1
40 384 1
40 405 1
40 439 1
40 480 1
41 23 1
41 51 1
41 91 1
41 311 1
41 339 1
41 379 1
41 407 1
41 435 1
41 475 1
42 24 1
42 57 1
42 81 1
42 312 1
42 345 1
42 369 1
42 408 1
42 441 1
42 465 1
43 29 1
43 53 1
43 83 1
43 317 1
43 341 1
43 371 1
43 413 1
43 437 1
43 467 1
44 25 1
44 54 1
44 94 1
44 313 1
44 342 1
44 382 1
44 409 1
44 438 1
44 478 1
45 26 1
45 60 1
45 82 1
45 314 1
45 348 1
45 370 1
45 410 1
45 444 1
45 466 1
46 27 1
46 56 1
46 86 1
46 315 1
46 344 1
46 374 1
46 411 1
46 440 1
46 470 1
47 30 1
47 58 1
47 84 1
47 318 1
47 346 1
47 372 1
47 414 1
47 442 1
47 468 1
48 31 1
48 61 1
48 87 1
48 319 1
48 349 1
48 375 1
48 415 1
48 445 1
48 471 1
49 97 1
49 128 1
49 143 1
49 289 1
49 320 1
49 335 1
49 481 1
49 512 1
49 527 1
50 98 1
50 113 1
50 144 1
50 290 1
50 305 1
50 336 1
50 482 1
50 497 1
50 528 1
51 99 1
51 114 1
51 129 1
51 291 1
51 306 1
51 321 1
51 483 1
51 498 1
51 513 1
52 100 1
52 118 1
52 131 1
52 292 1
52 310 1
52 323 1
52 484 1
52 502 1
52 515 1
53 101 1
53 124 1
53 137 1
53 293 1
53 316 1
53 329 1
53 485 1
53 508 1
53 521 1
54 102 1
54 115 1
54 130 1
54 294 1
54 307 1
54 322 1
54 486 1
54 499 1
54 514 1
55 103 1
55 116 1
55 134 1
55 295 1
55 308 1
55 326 1
55 487 1
55 500 1
55 518 1
56 104 1
56 117 1
56 140 1
56 296 1
56 309 1
56 332 1
56 488 1
56 501 1
56 524 1
57 105 1
57 119 1
57 132 1
57 297 1
57 311 1
57 324 1
57 489 1
57 503 1
57 516 1
58 106 1
58 120 1
58 133 1
58 298 1
58 312 1
58 325 1
58 490 1
58 504 1
58 517 1
59 107 1
59 125 1
59 138 1
59 299 1
59 317 1
59 330 1
59 491 1
59 509 1
59 522 1
60 108 1
60 121 1
60 135 1
60 300 1
60 313 1
60 327 1
60 492 1
60 505 1
60 519 1
61 109 1
61 122 1
61 136 1
61 301 1
61 314 1
61 328 1
61 493 1
61 506 1
61 520 1
62 110 1
62 123 1
62 141 1
62 302 1
62 315 1
62 333 1
62 494 1
62 507 1
62 525 1
63 111 1
63 126 1
63 139 1
63 303 1
63 318 1
63 331 1
63 495 1
63 510 1
63 523 1
64 112 1
64 127 1
64 142 1
64 304 1
64 319 1
64 334 1
64 496 1
64 511 1
64 526 1
65 97 1
65 174 1
65 185 1
65 289 1
65 366 1
65 377 1
65 481 1
65 558 1
65 569 1
66 98 1
66 175 1
66 188 1
66 290 1
66 367 1
66 380 1
66 482 1
66 559 1
66 572 1
67 99 1
67 176 1
67 181 1
67 291 1
67 368 1
67 373 1
67 483 1
67 560 1
67 565 1
68 100 1
68 162 1
68 186 1
68 292 1
68 354 1
68 378 1
68 484 1
68 546 1
68 570 1
69 101 1
69 167 1
69 191 1
69 293 1
69 359 1
69 383 1
69 485 1
69 551 1
69 575 1
70 102 1
70 161 1
70 184 1
70 294 1
70 353 1
70 376 1
70 486 1
70 545 1
70 568 1
71 103 1
71 163 1
71 189 1
71 295 1
71 355 1
71 381 1
71 487 1
71 547 1
71 573 1
72 104 1
72 169 1
72 192 1
72 296 1
72 361 1
72 384 1
72 488 1
72 553 1
72 576 1
73 105 1
73 166 1
73 187 1
73 297 1
73 358 1
73 379 1
73 489 1
73 550 1
73 571 1
74 106 1
74 172 1
74 177 1
74 298 1
74 364 1
74 369 1
74 490 1
74 556 1
74 561 1
75 107 1
75 168 1
75 179 1
75 299 1
75 360 1
75 371 1
75 491 1
75 552 1
75 563 1
76 108 1
76 164 1
76 190 1
76 300 1
76 356 1
76 382 1
76 492 1
76 548 1
76 574 1
77 109 1
77 165 1
77 178 1
77 301 1
77 357 1
77 370 1
77 493 1
77 549 1
77 562 1
78 110 1
78 170 1
78 182 1
78 302 1
78 362 1
78 374 1
78 494 1
78 554 1
78 566 1
79 111 1
79 173 1
79 180 1
79 303 1
79 365 1
79 372 1
79 495 1
79 557 1
79 564 1
80 112 1
80 171 1
80 183 1
80 304 1
80 363 1
80 375 1
80 496 1
80 555 1
80 567 1
81 128 1
81 155 1
81 185 1
81 320 1
81 347 1
81 377 1
81 512 1
81 539 1
81 569 1
82 113 1
82 158 1
82 188 1
82 305 1
82 350 1
82 380 1
82 497 1
82 542 1
82 572 1
83 114 1
83 159 1
83 181 1
83 306 1
83 351 1
83 373 1
83 498 1
83 543 1
83 565 1
84 118 1
84 145 1
84 186 1
84 310 1
84 337 1
84 378 1
84 502 1
84 529 1
84 570 1
85 124 1
85 148 1
85 191 1
85 316 1
85 340 1
85 383 1
85 508 1
85 532 1
85 575 1
86 115 1
86 160 1
86 184 1
86 307 1
86 352 1
86 376 1
86 499 1
86 544 1
86 568 1
87 116 1
87 146 1
87 189 1
87 308 1
87 338 1
87 381 1
87 500 1
87 530 1
87 573 1
88 117 1
88 151 1
88 192 1
88 309 1
88 343 1
88 384 1
88 501 1
88 535 1
88 576 1
89 119 1
89 147 1
89 187 1
89 311 1
89 339 1
89 379 1
89 503 1
89 531 1
89 571 1
90 120 1
90 153 1
90 177 1
90 312 1
90 345 1
90 369 1
90 504 1
90 537 1
90 561 1
91 125 1
91 149 1
91 179 1
91 317 1
91 341 1
91 371 1
91 509 1
91 533 1
91 563 1
92 121 1
92 150 1
92 190 1
92 313 1
92 342 1
92 382 1
92 505 1
92 534 1
92 574 1
93 122 1
93 156 1
93 178 1
93 314 1
93 348 1
93 370 1
93 506 1
93 540 1
93 562 1
94 123 1
94 152 1
94 182 1
94 315 1
94 344 1
94 374 1
94 507 1
94 536 1
94 566 1
95 126 1
95 154 1
95 180 1
95 318 1
95 346 1
95 372 1
95 510 1
95 538 1
95 564 1
96 127 1
96 157 1
96 183 1
96 319 1
96 349 1
96 375 1
96 511 1
96 541 1
96 567 1
97 193 1
97 224 1
97 239 1
97 385 1
97 416 1
97 431 1
97 481 1
97 512 1
97 527 1
98 194 1
98 209 1
98 240 1
98 386 1
98 401 1
98 432 1
98 482 1
98 497 1
98 528 1
99 195 1
99 210 1
99 225 1
99 387 1
99 402 1
99 417 1
99 483 1
99 498 1
99 513 1
100 196 1
100 214 1
100 227 1
100 388 1
100 406 1
100 419 1
100 484 1
100 502 1
100 515 1
101 197 1
101 220 1
101 233 1
101 389 1
101 412 1
101 425 1
101 485 1
101 508 1
101 521 1
102 198 1
102 211 1
102 226 1
102 390 1
102 403 1
102 418 1
102 486 1
102 499 1
102 514 1
103 199 1
103 212 1
103 230 1
103 391 1
103 404 1
103 422 1
103 487 1
103 500 1
103 518 1
104 200 1
104 213 1
104 236 1
104 392 1
104 405 1
104 428 1
104 488 1
104 501 1
104 524 1
105 201 1
105 215 1
105 228 1
105 393 1
105 407 1
105 420 1
105 489 1
105 503 1
105 516 1
106 202 1
106 216 1
106 229 1
106 394 1
106 408 1
106 421 1
106 490 1
106 504 1
106 517 1
107 203 1
107 221 1
107 234 1
107 395 1
107 413 1
107 426 1
107 491 1
107 509 1
107 522 1
108 204 1
108 217 1
108 231 1
108 396 1
108 409 1
108 423 1
108 492 1
108 505 1
108 519 1
109 205 1
109 218 1
109 232 1
109 397 1
109 410 1
109 424 1
109 493 1
109 506 1
109 520 1
110 206 1
110 219 1
110 237 1
110 398 1
110 411 1
110 429 1
110 494 1
110 507 1
110 525 1
111 207 1
111 222 1
111 235 1
111 399 1
111 414 1
111 427 1
111 495 1
111 510 1
111 523 1
112 208 1
112 223 1
112 238 1
112 400 1
112 415 1
112 430 1
112 496 1
112 511 1
112 526 1
113 193 1
113 270 1
113 281 1
113 385 1
113 462 1
113 473 1
113 481 1
113 558 1
113 569 1
114 194 1
114 271 1
114 284 1
114 386 1
114 463 1
114 476 1
114 482 1
114 559 1
114 572 1
115 195 1
115 272 1
115 277 1
115 387 1
115 464 1
115 469 1
115 483 1
115 560 1
115 565 1
116 196 1
116 258 1
116 282 1
116 388 1
116 450 1
116 474 1
116 484 1
116 546 1
116 570 1
117 197 1
117 263 1
117 287 1
117 389 1
117 455 1
117 479 1
117 485 1
117 551 1
117 575 1
118 198 1
118 257 1
118 280 1
118 390 1
118 449 1
118 472 1
118 486 1
118 545 1
118 568 1
119 199 1
119 259 1
119 285 1
119 391 1
119 451 1
119 477 1
119 487 1
119 547 1
119 573 1
120 200 1
120 265 1
120 288 1
120 392 1
120 457 1
120 480 1
120 488 1
120 553 1
120 576 1
121 201 1
121 262 1
121 283 1
121 393 1
121 454 1
121 475 1
121 489 1
121 550 1
121 571 1
122 202 1
122 268 1
122 273 1
122 394 1
122 460 1
122 465 1
122 490 1
122 556 1
122 561 1
123 203 1
123 264 1
123 275 1
123 395 1
123 456 1
123 467 1
123 491 1
123 552 1
123 563 1
124 204 1
124 260 1
124 286 1
124 396 1
124 452 1
124 478 1
124 492 1
124 548 1
124 574 1
125 205 1
125 261 1
125 274 1
125 397 1
125 453 1
125 466 1
125 493 1
125 549 1
125 562 1
126 206 1
126 266 1
126 278 1
126 398 1
126 458 1
126 470 1
126 494 1
126 554 1
126 566 1
127 207 1
127 269 1
127 276 1
127 399 1
127 461 1
127 468 1
127 495 1
127 557 1
127 564 1
128 208 1
128 267 1
128 279 1
128 400 1
128 459 1
128 471 1
128 496 1
128 555 1
128 567 1
129 224 1
129 251 1
129 281 1
129 416 1
129 443 1
129 473 1
129 512 1
129 539 1
129 569 1
130 209 1
130 254 1
130 284 1
130 401 1
130 446 1
130 476 1
130 497 1
130 542 1
130 572 1
131 210 1
131 255 1
131 277 1
131 402 1
131 447 1
131 469 1
131 498 1
131 543 1
131 565 1
132 214 1
132 241 1
132 282 1
132 406 1
132 433 1
132 474 1
132 502 1
132 529 1
132 570 1
133 220 1
133 244 1
133 287 1
133 412 1
133 436 1
133 479 1
133 508 1
133 532 1
133 575 1
134 211 1
134 256 1
134 280 1
134 403 1
134 448 1
134 472 1
134 499 1
134 544 1
134 568 1
135 212 1
135 242 1
135 285 1
135 404 1
135 434 1
135 477 1
135 500 1
135 530 1
135 573 1
136 213 1
136 247 1
136 288 1
136 405 1
136 439 1
136 480 1
136 501 1
136 535 1
136 576 1
137 215 1
137 243 1
137 283 1
137 407 1
137 435 1
137 475 1
137 503 1
137 531 1
137 571 1
138 216 1
138 249 1
138 273 1
138 408 1
138 441 1
138 465 1
138 504 1
138 537 1
138 561 1
139 221 1
139 245 1
139 275 1
139 413 1
139 437 1
139 467 1
139 509 1
139 533 1
139 563 1
140 217 1
140 246 1
140 286 1
140 409 1
140 438 1
140 478 1
140 505 1
140 534 1
140 574 1
141 218 1
141 252 1
141 274 1
141 410 1
141 444 1
141 466 1
141 506 1
141 540 1
141 562 1
142 219 1
142 248 1
142 278 1
142 411 1
142 440 1
142 470 1
142 507 1
142 536 1
142 566 1
143 222 1
143 250 1
143 276 1
143 414 1
143 442 1
143 468 1
143 510 1
143 538 1
143 564 1
144 223 1
144 253 1
144 279 1
144 415 1
144 445 1
144 471 1
144 511 1
144 541 1
144 567 1
145 1 1
145 17 1
145 49 1
145 397 1
145 413 1
145 445 1
145 496 1
145 512 1
145 544 1
146 2 1
146 18 1
146 50 1
146 395 1
146 411 1
146 443 1
146 481 1
146 497 1
146 529 1
147 3 1
147 19 1
147 51 1
147 398 1
147 414 1
147 446 1
147 482 1
147 498 1
147 530 1
148 4 1
148 20 1
148 52 1
148 400 1
148 416 1
148 448 1
148 486 1
148 502 1
148 534 1
149 5 1
149 21 1
149 53 1
149 390 1
149 406 1
149 438 1
149 492 1
149 508 1
149 540 1
150 6 1
150 22 1
150 54 1
150 399 1
150 415 1
150 447 1
150 483 1
150 499 1
150 531 1
151 7 1
151 23 1
151 55 1
151 385 1
151 401 1
151 433 1
151 484 1
151 500 1
151 532 1
152 8 1
152 24 1
152 56 1
152 388 1
152 404 1
152 436 1
152 485 1
152 501 1
152 533 1
153 9 1
153 25 1
153 57 1
153 386 1
153 402 1
153 434 1
153 487 1
153 503 1
153 535 1
154 10 1
154 26 1
154 58 1
154 391 1
154 407 1
154 439 1
154 488 1
154 504 1
154 536 1
155 11 1
155 27 1
155 59 1
155 396 1
155 412 1
155 444 1
155 493 1
155 509 1
155 541 1
156 12 1
156 28 1
156 60 1
156 387 1
156 403 1
156 435 1
156 489 1
156 505 1
156 537 1
157 13 1
157 29 1
157 61 1
157 393 1
157 409 1
157 441 1
157 490 1
157 506 1
157 538 1
158 14 1
158 30 1
158 62 1
158 389 1
158 405 1
158 437 1
158 491 1
158 507 1
158 539 1
159 15 1
159 31 1
159 63 1
159 392 1
159 408 1
159 440 1
159 494 1
159 510 1
159 542 1
160 16 1
160 32 1
160 64 1
160 394 1
160 410 1
160 442 1
160 495 1
160 511 1
160 543 1
161 1 1
161 33 1
161 65 1
161 397 1
161 429 1
161 461 1
161 496 1
161 528 1
161 560 1
162 2 1
162 34 1
162 66 1
162 395 1
162 427 1
162 459 1
162 481 1
162 513 1
162 545 1
163 3 1
163 35 1
163 67 1
163 398 1
163 430 1
163 462 1
163 482 1
163 514 1
163 546 1
164 4 1
164 36 1
164 68 1
164 400 1
164 432 1
164 464 1
164 486 1
164 518 1
164 550 1
165 5 1
165 37 1
165 69 1
165 390 1
165 422 1
165 454 1
165 492 1
165 524 1
165 556 1
166 6 1
166 38 1
166 70 1
166 399 1
166 431 1
166 463 1
166 483 1
166 515 1
166 547 1
167 7 1
167 39 1
167 71 1
167 385 1
167 417 1
167 449 1
167 484 1
167 516 1
167 548 1
168 8 1
168 40 1
168 72 1
168 388 1
168 420 1
168 452 1
168 485 1
168 517 1
168 549 1
169 9 1
169 41 1
169 73 1
169 386 1
169 418 1
169 450 1
169 487 1
169 519 1
169 551 1
170 10 1
170 42 1
170 74 1
170 391 1
170 423 1
170 455 1
170 488 1
170 520 1
170 552 1
171 11 1
171 43 1
171 75 1
171 396 1
171 428 1
171 460 1
171 493 1
171 525 1
171 557 1
172 12 1
172 44 1
172 76 1
172 387 1
172 419 1
172 451 1
172 489 1
172 521 1
172 553 1
173 13 1
173 45 1
173 77 1
173 393 1
173 425 1
173 457 1
173 490 1
173 522 1
173 554 1
174 14 1
174 46 1
174 78 1
174 389 1
174 421 1
174 453 1
174 491 1
174 523 1
174 555 1
175 15 1
175 47 1
175 79 1
175 392 1
175 424 1
175 456 1
175 494 1
175 526 1
175 558 1
176 16 1
176 48 1
176 80 1
176 394 1
176 426 1
176 458 1
176 495 1
176 527 1
176 559 1
177 17 1
177 33 1
177 81 1
177 413 1
177 429 1
177 477 1
177 512 1
177 528 1
177 576 1
178 18 1
178 34 1
178 82 1
178 411 1
178 427 1
178 475 1
178 497 1
178 513 1
178 561 1
179 19 1
179 35 1
179 83 1
179 414 1
179 430 1
179 478 1
179 498 1
179 514 1
179 562 1
180 20 1
180 36 1
180 84 1
180 416 1
180 432 1
180 480 1
180 502 1
180 518 1
180 566 1
181 21 1
181 37 1
181 85 1
181 406 1
181 422 1
181 470 1
181 508 1
181 524 1
181 572 1
182 22 1
182 38 1
182 86 1
182 415 1
182 431 1
182 479 1
182 499 1
182 515 1
182 563 1
183 23 1
183 39 1
183 87 1
183 401 1
183 417 1
183 465 1
183 500 1
183 516 1
183 564 1
184 24 1
184 40 1
184 88 1
184 404 1
184 420 1
184 468 1
184 501 1
184 517 1
184 565 1
185 25 1
185 41 1
185 89 1
185 402 1
185 418 1
185 466 1
185 503 1
185 519 1
185 567 1
186 26 1
186 42 1
186 90 1
186 407 1
186 423 1
186 471 1
186 504 1
186 520 1
186 568 1
187 27 1
187 43 1
187 91 1
187 412 1
187 428 1
187 476 1
187 509 1
187 525 1
187 573 1
188 28 1
188 44 1
188 92 1
188 403 1
188 419 1
188 467 1
188 505 1
188 521 1
188 569 1
189 29 1
189 45 1
189 93 1
189 409 1
189 425 1
189 473 1
189 506 1
189 522 1
189 570 1
190 30 1
190 46 1
190 94 1
190 405 1
190 421 1
190 469 1
190 507 1
190 523 1
190 571 1
191 31 1
191 47 1
191 95 1
191 408 1
191 424 1
191 472 1
191 510 1
191 526 1
191 574 1
192 32 1
192 48 1
192 96 1
192 410 1
192 426 1
192 474 1
192 511 1
192 527 1
192 575 1
193 98 1
193 114 1
193 146 1
193 198 1
193 214 1
193 246 1
193 496 1
193 512 1
193 544 1
194 99 1
194 115 1
194 147 1
194 196 1
194 212 1
194 244 1
194 481 1
194 497 1
194 529 1
195 102 1
195 118 1
195 150 1
195 199 1
195 215 1
195 247 1
195 482 1
195 498 1
195 530 1
196 103 1
196 119 1
196 151 1
196 204 1
196 220 1
196 252 1
196 486 1
196 502 1
196 534 1
197 104 1
197 120 1
197 152 1
197 205 1
197 221 1
197 253 1
197 492 1
197 508 1
197 540 1
198 100 1
198 116 1
198 148 1
198 201 1
198 217 1
198 249 1
198 483 1
198 499 1
198 531 1
199 105 1
199 121 1
199 153 1
199 197 1
199 213 1
199 245 1
199 484 1
199 500 1
199 532 1
200 106 1
200 122 1
200 154 1
200 203 1
200 219 1
200 251 1
200 485 1
200 501 1
200 533 1
201 108 1
201 124 1
201 156 1
201 200 1
201 216 1
201 248 1
201 487 1
201 503 1
201 535 1
202 109 1
202 125 1
202 157 1
202 206 1
202 222 1
202 254 1
202 488 1
202 504 1
202 536 1
203 110 1
203 126 1
203 158 1
203 208 1
203 224 1
203 256 1
203 493 1
203 509 1
203 541 1
204 101 1
204 117 1
204 149 1
204 202 1
204 218 1
204 250 1
204 489 1
204 505 1
204 537 1
205 107 1
205 123 1
205 155 1
205 207 1
205 223 1
205 255 1
205 490 1
205 506 1
205 538 1
206 111 1
206 127 1
206 159 1
206 193 1
206 209 1
206 241 1
206 491 1
206 507 1
206 539 1
207 112 1
207 128 1
207 160 1
207 194 1
207 210 1
207 242 1
207 494 1
207 510 1
207 542 1
208 97 1
208 113 1
208 145 1
208 195 1
208 211 1
208 243 1
208 495 1
208 511 1
208 543 1
209 98 1
209 130 1
209 162 1
209 198 1
209 230 1
209 262 1
209 496 1
209 528 1
209 560 1
210 99 1
210 131 1
210 163 1
210 196 1
210 228 1
210 260 1
210 481 1
210 513 1
210 545 1
211 102 1
211 134 1
211 166 1
211 199 1
211 231 1
211 263 1
211 482 1
211 514 1
211 546 1
212 103 1
212 135 1
212 167 1
212 204 1
212 236 1
212 268 1
212 486 1
212 518 1
212 550 1
213 104 1
213 136 1
213 168 1
213 205 1
213 237 1
213 269 1
213 492 1
213 524 1
213 556 1
214 100 1
214 132 1
214 164 1
214 201 1
214 233 1
214 265 1
214 483 1
214 515 1
214 547 1
215 105 1
215 137 1
215 169 1
215 197 1
215 229 1
215 261 1
215 484 1
215 516 1
215 548 1
216 106 1
216 138 1
216 170 1
216 203 1
216 235 1
216 267 1
216 485 1
216 517 1
216 549 1
217 108 1
217 140 1
217 172 1
217 200 1
217 232 1
217 264 1
217 487 1
217 519 1
217 551 1
218 109 1
218 141 1
218 173 1
218 206 1
218 238 1
218 270 1
218 488 1
218 520 1
218 552 1
219 110 1
219 142 1
219 174 1
219 208 1
219 240 1
219 272 1
219 493 1
219 525 1
219 557 1
220 101 1
220 133 1
220 165 1
220 202 1
220 234 1
220 266 1
220 489 1
220 521 1
220 553 1
221 107 1
221 139 1
221 171 1
221 207 1
221 239 1
221 271 1
221 490 1
221 522 1
221 554 1
222 111 1
222 143 1
222 175 1
222 193 1
222 225 1
222 257 1
222 491 1
222 523 1
222 555 1
223 112 1
223 144 1
223 176 1
223 194 1
223 226 1
223 258 1
223 494 1
223 526 1
223 558 1
224 97 1
224 129 1
224 161 1
224 195 1
224 227 1
224 259 1
224 495 1
224 527 1
224 559 1
225 114 1
225 130 1
225 178 1
225 214 1
225 230 1
225 278 1
225 512 1
225 528 1
225 576 1
226 115 1
226 131 1
226 179 1
226 212 1
226 228 1
226 276 1
226 497 1
226 513 1
226 561 1
227 118 1
227 134 1
227 182 1
227 215 1
227 231 1
227 279 1
227 498 1
227 514 1
227 562 1
228 119 1
228 135 1
228 183 1
228 220 1
228 236 1
228 284 1
228 502 1
228 518 1
228 566 1
229 120 1
229 136 1
229 184 1
229 221 1
229 237 1
229 285 1
229 508 1
229 524 1
229 572 1
230 116 1
230 132 1
230 180 1
230 217 1
230 233 1
230 281 1
230 499 1
230 515 1
230 563 1
231 121 1
231 137 1
231 185 1
231 213 1
231 229 1
231 277 1
231 500 1
231 516 1
231 564 1
232 122 1
232 138 1
232 186 1
232 219 1
232 235 1
232 283 1
232 501 1
232 517 1
232 565 1
233 124 1
233 140 1
233 188 1
233 216 1
233 232 1
233 280 1
233 503 1
233 519 1
233 567 1
234 125 1
234 141 1
234 189 1
234 222 1
234 238 1
234 286 1
234 504 1
234 520 1
234 568 1
235 126 1
235 142 1
235 190 1
235 224 1
235 240 1
235 288 1
235 509 1
235 525 1
235 573 1
236 117 1
236 133 1
236 181 1
236 218 1
236 234 1
236 282 1
236 505 1
236 521 1
236 569 1
237 123 1
237 139 1
237 187 1
237 223 1
237 239 1
237 287 1
237 506 1
237 522 1
237 570 1
238 127 1
238 143 1
238 191 1
238 209 1
238 225 1
238 273 1
238 507 1
238 523 1
238 571 1
239 128 1
239 144 1
239 192 1
239 210 1
239 226 1
239 274 1
239 510 1
239 526 1
239 574 1
240 113 1
240 129 1
240 177 1
240 211 1
240 227 1
240 275 1
240 511 1
240 527 1
240 575 1
241 198 1
241 214 1
241 246 1
241 297 1
241 313 1
241 345 1
241 397 1
241 413 1
241 445 1
242 196 1
242 212 1
242 244 1
242 300 1
242 316 1
242 348 1
242 395 1
242 411 1
242 443 1
243 199 1
243 215 1
243 247 1
243 293 1
243 309 1
243 341 1
243 398 1
243 414 1
243 446 1
244 204 1
244 220 1
244 252 1
244 298 1
244 314 1
244 346 1
244 400 1
244 416 1
244 448 1
245 205 1
245 221 1
245 253 1
245 303 1
245 319 1
245 351 1
245 390 1
245 406 1
245 438 1
246 201 1
246 217 1
246 249 1
246 296 1
246 312 1
246 344 1
246 399 1
246 415 1
246 447 1
247 197 1
247 213 1
247 245 1
247 301 1
247 317 1
247 349 1
247 385 1
247 401 1
247 433 1
248 203 1
248 219 1
248 251 1
248 304 1
248 320 1
248 352 1
248 388 1
248 404 1
248 436 1
249 200 1
249 216 1
249 248 1
249 299 1
249 315 1
249 347 1
249 386 1
249 402 1
249 434 1
250 206 1
250 222 1
250 254 1
250 289 1
250 305 1
250 337 1
250 391 1
250 407 1
250 439 1
251 208 1
251 224 1
251 256 1
251 291 1
251 307 1
251 339 1
251 396 1
251 412 1
251 444 1
252 202 1
252 218 1
252 250 1
252 302 1
252 318 1
252 350 1
252 387 1
252 403 1
252 435 1
253 207 1
253 223 1
253 255 1
253 290 1
253 306 1
253 338 1
253 393 1
253 409 1
253 441 1
254 193 1
254 209 1
254 241 1
254 294 1
254 310 1
254 342 1
254 389 1
254 405 1
254 437 1
255 194 1
255 210 1
255 242 1
255 292 1
255 308 1
255 340 1
255 392 1
255 408 1
255 440 1
256 195 1
256 211 1
256 243 1
256 295 1
256 311 1
256 343 1
256 394 1
256 410 1
256 442 1
257 198 1
257 230 1
257 262 1
257 297 1
257 329 1
257 361 1
257 397 1
257 429 1
257 461 1
258 196 1
258 228 1
258 260 1
258 300 1
258 332 1
258 364 1
258 395 1
258 427 1
258 459 1
259 199 1
259 231 1
259 263 1
259 293 1
259 325 1
259 357 1
259 398 1
259 430 1
259 462 1
260 204 1
260 236 1
260 268 1
260 298 1
260 330 1
260 362 1
260 400 1
260 432 1
260 464 1
261 205 1
261 237 1
261 269 1
261 303 1
261 335 1
261 367 1
261 390 1
261 422 1
261 454 1
262 201 1
262 233 1
262 265 1
262 296 1
262 328 1
262 360 1
262 399 1
262 431 1
262 463 1
263 197 1
263 229 1
263 261 1
263 301 1
263 333 1
263 365 1
263 385 1
263 417 1
263 449 1
264 203 1
264 235 1
264 267 1
264 304 1
264 336 1
264 368 1
264 388 1
264 420 1
264 452 1
265 200 1
265 232 1
265 264 1
265 299 1
265 331 1
265 363 1
265 386 1
265 418 1
265 450 1
266 206 1
266 238 1
266 270 1
266 289 1
266 321 1
266 353 1
266 391 1
266 423 1
266 455 1
267 208 1
267 240 1
267 272 1
267 291 1
267 323 1
267 355 1
267 396 1
267 428 1
267 460 1
268 202 1
268 234 1
268 266 1
268 302 1
268 334 1
268 366 1
268 387 1
268 419 1
268 451 1
269 207 1
269 239 1
269 271 1
269 290 1
269 322 1
269 354 1
269 393 1
269 425 1
269 457 1
270 193 1
270 225 1
270 257 1
270 294 1
270 326 1
270 358 1
270 389 1
270 421 1
270 453 1
271 194 1
271 226 1
271 258 1
271 292 1
271 324 1
271 356 1
271 392 1
271 424 1
271 456 1
272 195 1
272 227 1
272 259 1
272 295 1
272 327 1
272 359 1
272 394 1
272 426 1
272 458 1
273 214 1
273 230 1
273 278 1
273 313 1
273 329 1
273 377 1
273 413 1
273 429 1
273 477 1
274 212 1
274 228 1
274 276 1
274 316 1
274 332 1
274 380 1
274 411 1
274 427 1
274 475 1
275 215 1
275 231 1
275 279 1
275 309 1
275 325 1
275 373 1
275 414 1
275 430 1
275 478 1
276 220 1
276 236 1
276 284 1
276 314 1
276 330 1
276 378 1
276 416 1
276 432 1
276 480 1
277 221 1
277 237 1
277 285 1
277 319 1
277 335 1
277 383 1
277 406 1
277 422 1
277 470 1
278 217 1
278 233 1
278 281 1
278 312 1
278 328 1
278 376 1
278 415 1
278 431 1
278 479 1
279 213 1
279 229 1
279 277 1
279 317 1
279 333 1
279 381 1
279 401 1
279 417 1
279 465 1
280 219 1
280 235 1
280 283 1
280 320 1
280 336 1
280 384 1
280 404 1
280 420 1
280 468 1
281 216 1
281 232 1
281 280 1
281 315 1
281 331 1
281 379 1
281 402 1
281 418 1
281 466 1
282 222 1
282 238 1
282 286 1
282 305 1
282 321 1
282 369 1
282 407 1
282 423 1
282 471 1
283 224 1
283 240 1
283 288 1
283 307 1
283 323 1
283 371 1
283 412 1
283 428 1
283 476 1
284 218 1
284 234 1
284 282 1
284 318 1
284 334 1
284 382 1
284 403 1
284 419 1
284 467 1
285 223 1
285 239 1
285 287 1
285 306 1
285 322 1
285 370 1
285 409 1
285 425 1
285 473 1
286 209 1
286 225 1
286 273 1
286 310 1
286 326 1
286 374 1
286 405 1
286 421 1
286 469 1
287 210 1
287 226 1
287 274 1
287 308 1
287 324 1
287 372 1
287 408 1
287 424 1
287 472 1
288 211 1
288 227 1
288 275 1
288 311 1
288 327 1
288 375 1
288 410 1
288 426 1
288 474 1
