%%MatrixMarket matrix coordinate integer general
288 576 2592
1 1 1
1 23 1
1 42 1
1 289 1
1 311 1
1 330 1
1 385 1
1 407 1
1 426 1
2 2 1
2 17 1
2 45 1
2 290 1
2 305 1
2 333 1
2 386 1
2 401 1
2 429 1
3 3 1
3 28 1
3 33 1
3 291 1
3 316 1
3 321 1
3 387 1
3 412 1
3 417 1
4 4 1
4 18 1
4 47 1
4 292 1
4 306 1
4 335 1
4 388 1
4 402 1
4 431 1
5 5 1
5 30 1
5 35 1
5 293 1
5 318 1
5 323 1
5 389 1
5 414 1
5 419 1
6 6 1
6 19 1
6 34 1
6 294 1
6 307 1
6 322 1
6 390 1
6 403 1
6 418 1
7 7 1
7 20 1
7 48 1
7 295 1
7 308 1
7 336 1
7 391 1
7 404 1
7 432 1
8 8 1
8 21 1
8 38 1
8 296 1
8 309 1
8 326 1
8 392 1
8 405 1
8 422 1
9 9 1
9 22 1
9 36 1
9 297 1
9 310 1
9 324 1
9 393 1
9 406 1
9 420 1
10 10 1
10 32 1
10 37 1
10 298 1
10 320 1
10 325 1
10 394 1
10 416 1
10 421 1
11 11 1
11 24 1
11 41 1
11 299 1
11 312 1
11 329 1
11 395 1
11 408 1
11 425 1
12 12 1
12 25 1
12 39 1
12 300 1
12 313 1
12 327 1
12 396 1
12 409 1
12 423 1
13 13 1
13 26 1
13 40 1
13 301 1
13 314 1
13 328 1
13 397 1
13 410 1
13 424 1
14 14 1
14 27 1
14 44 1
14 302 1
14 315 1
14 332 1
14 398 1
14 411 1
14 428 1
15 15 1
15 29 1
15 43 1
15 303 1
15 317 1
15 331 1
15 399 1
15 413 1
15 427 1
16 16 1
16 31 1
16 46 1
16 304 1
16 319 1
16 334 1
16 400 1
16 415 1
16 430 1
17 1 1
17 52 1
17 67 1
17 289 1
17 340 1
17 355 1
17 385 1
17 436 1
17 451 1
18 2 1
18 55 1
18 70 1
18 290 1
18 343 1
18 358 1
18 386 1
18 439 1
18 454 1
19 3 1
19 57 1
19 69 1
19 291 1
19 345 1
19 357 1
19 387 1
19 441 1
19 453 1
20 4 1
20 49 1
20 73 1
20 292 1
20 337 1
20 361 1
20 388 1
20 433 1
20 457 1
21 5 1
21 59 1
21 74 1
21 293 1
21 347 1
21 362 1
21 389 1
21 443 1
21 458 1
22 6 1
22 60 1
22 72 1
22 294 1
22 348 1
22 360 1
22 390 1
22 444 1
22 456 1
23 7 1
23 50 1
23 76 1
23 295 1
23 338 1
23 364 1
23 391 1
23 434 1
23 460 1
24 8 1
24 62 1
24 77 1
24 296 1
24 350 1
24 365 1
24 392 1
24 446 1
24 461 1
25 9 1
25 51 1
25 75 1
25 297 1
25 339 1
25 363 1
25 393 1
25 435 1
25 459 1
26 10 1
26 63 1
26 65 1
26 298 1
26 351 1
26 353 1
26 394 1
26 447 1
26 449 1
27 11 1
27 53 1
27 79 1
27 299 1
27 341 1
27 367 1
27 395 1
27 437 1
27 463 1
28 12 1
28 54 1
28 78 1
28 300 1
28 342 1
28 366 1
28 396 1
28 438 1
28 462 1
29 13 1
29 64 1
29 66 1
29 301 1
29 352 1
29 354 1
29 397 1
29 448 1
29 450 1
30 14 1
30 56 1
30 80 1
30 302 1
30 344 1
30 368 1
30 398 1
30 440 1
30 464 1
31 15 1
31 58 1
31 68 1
31 303 1
31 346 1
31 356 1
31 399 1
31 442 1
31 452 1
32 16 1
32 61 1
32 71 1
32 304 1
32 349 1
32 359 1
32 400 1
32 445 1
32 455 1
33 23 1
33 52 1
33 88 1
33 311 1
33 340 1
33 376 1
33 407 1
33 436 1
33 472 1
34 17 1
34 55 1
34 91 1
34 305 1
34 343 1
34 379 1
34 401 1
34 439 1
34 475 1
35 28 1
35 57 1
35 93 1
35 316 1
35 345 1
35 381 1
35 412 1
35 441 1
35 477 1
36 18 1
36 49 1
36 94 1
36 306 1
36 337 1
36 382 1
36 402 1
36 433 1
36 478 1
37 30 1
37 59 1
37 82 1
37 318 1
37 347 1
37 370 1
37 414 1
37 443 1
37 466 1
38 19 1
38 60 1
38 95 1
38 307 1
38 348 1
38 383 1
38 403 1
38 444 1
38 479 1
39 20 1
39 50 1
39 85 1
39 308 1
39 338 1
39 373 1
39 404 1
39 434 1
39 469 1
40 21 1
40 62 1
40 84 1
40 309 1
40 350 1
40 372 1
40 405 1
40 446 1
40 468 1
41 22 1
41 51 1
41 96 1
41 310 1
41 339 1
41 384 1
41 406 1
41 435 1
41 480 1
42 32 1
42 63 1
42 86 1
42 320 1
42 351 1
42 374 1
42 416 1
42 447 1
42 470 1
43 24 1
43 53 1
43 87 1
43 312 1
43 341 1
43 375 1
43 408 1
43 437 1
43 471 1
44 25 1
44 54 1
44 90 1
44 313 1
44 342 1
44 378 1
44 409 1
44 438 1
44 474 1
45 26 1
45 64 1
45 89 1
45 314 1
45 352 1
45 377 1
45 410 1
45 448 1
45 473 1
46 27 1
46 56 1
46 81 1
46 315 1
46 344 1
46 369 1
46 411 1
46 440 1
46 465 1
47 29 1
47 58 1
47 92 1
47 317 1
47 346 1
47 380 1
47 413 1
47 442 1
47 476 1
48 31 1
48 61 1
48 83 1
48 319 1
48 349 1
48 371 1
48 415 1
48 445 1
48 467 1
49 97 1
49 119 1
49 138 1
49 289 1
49 311 1
49 330 1
49 481 1
49 503 1
49 522 1
50 98 1
50 113 1
50 141 1
50 290 1
50 305 1
50 333 1
50 482 1
50 497 1
50 525 1
51 99 1
51 124 1
51 129 1
51 291 1
51 316 1
51 321 1
51 483 1
51 508 1
51 513 1
52 100 1
52 114 1
52 143 1
52 292 1
52 306 1
52 335 1
52 484 1
52 498 1
52 527 1
53 101 1
53 126 1
53 131 1
53 293 1
53 318 1
53 323 1
53 485 1
53 510 1
53 515 1
54 102 1
54 115 1
54 130 1
54 294 1
54 307 1
54 322 1
54 486 1
54 499 1
54 514 1
55 103 1
55 116 1
55 144 1
55 295 1
55 308 1
55 336 1
55 487 1
55 500 1
55 528 1
56 104 1
56 117 1
56 134 1
56 296 1
56 309 1
56 326 1
56 488 1
56 501 1
56 518 1
57 105 1
57 118 1
57 132 1
57 297 1
57 310 1
57 324 1
57 489 1
57 502 1
57 516 1
58 106 1
58 128 1
58 133 1
58 298 1
58 320 1
58 325 1
58 490 1
58 512 1
58 517 1
59 107 1
59 120 1
59 137 1
59 299 1
59 312 1
59 329 1
59 491 1
59 504 1
59 521 1
60 108 1
60 121 1
60 135 1
60 300 1
60 313 1
60 327 1
60 492 1
60 505 1
60 519 1
61 109 1
61 122 1
61 136 1
61 301 1
61 314 1
61 328 1
61 493 1
61 506 1
61 520 1
62 110 1
62 123 1
62 140 1
62 302 1
62 315 1
62 332 1
62 494 1
62 507 1
62 524 1
63 111 1
63 125 1
63 139 1
63 303 1
63 317 1
63 331 1
63 495 1
63 509 1
63 523 1
64 112 1
64 127 1
64 142 1
64 304 1
64 319 1
64 334 1
64 496 1
64 511 1
64 526 1
65 97 1
65 148 1
65 163 1
65 289 1
65 340 1
65 355 1
65 481 1
65 532 1
65 547 1
66 98 1
66 151 1
66 166 1
66 290 1
66 343 1
66 358 1
66 482 1
66 535 1
66 550 1
67 99 1
67 153 1
67 165 1
67 291 1
67 345 1
67 357 1
67 483 1
67 537 1
67 549 1
68 100 1
68 145 1
68 169 1
68 292 1
68 337 1
68 361 1
68 484 1
68 529 1
68 553 1
69 101 1
69 155 1
69 170 1
69 293 1
69 347 1
69 362 1
69 485 1
69 539 1
69 554 1
70 102 1
70 156 1
70 168 1
70 294 1
70 348 1
70 360 1
70 486 1
70 540 1
70 552 1
71 103 1
71 146 1
71 172 1
71 295 1
71 338 1
71 364 1
71 487 1
71 530 1
71 556 1
72 104 1
72 158 1
72 173 1
72 296 1
72 350 1
72 365 1
72 488 1
72 542 1
72 557 1
73 105 1
73 147 1
73 171 1
73 297 1
73 339 1
73 363 1
73 489 1
73 531 1
73 555 1
74 106 1
74 159 1
74 161 1
74 298 1
74 351 1
74 353 1
74 490 1
74 543 1
74 545 1
75 107 1
75 149 1
75 175 1
75 299 1
75 341 1
75 367 1
75 491 1
75 533 1
75 559 1
76 108 1
76 150 1
76 174 1
76 300 1
76 342 1
76 366 1
76 492 1
76 534 1
76 558 1
77 109 1
77 160 1
77 162 1
77 301 1
77 352 1
77 354 1
77 493 1
77 544 1
77 546 1
78 110 1
78 152 1
78 176 1
78 302 1
78 344 1
78 368 1
78 494 1
78 536 1
78 560 1
79 111 1
79 154 1
79 164 1
79 303 1
79 346 1
79 356 1
79 495 1
79 538 1
79 548 1
80 112 1
80 157 1
80 167 1
80 304 1
80 349 1
80 359 1
80 496 1
80 541 1
80 551 1
81 119 1
81 148 1
81 184 1
81 311 1
81 340 1
81 376 1
81 503 1
81 532 1
81 568 1
82 113 1
82 151 1
82 187 1
82 305 1
82 343 1
82 379 1
82 497 1
82 535 1
82 571 1
83 124 1
83 153 1
83 189 1
83 316 1
83 345 1
83 381 1
83 508 1
83 537 1
83 573 1
84 114 1
84 145 1
84 190 1
84 306 1
84 337 1
84 382 1
84 498 1
84 529 1
84 574 1
85 126 1
85 155 1
85 178 1
85 318 1
85 347 1
85 370 1
85 510 1
85 539 1
85 562 1
86 115 1
86 156 1
86 191 1
86 307 1
86 348 1
86 383 1
86 499 1
86 540 1
86 575 1
87 116 1
87 146 1
87 181 1
87 308 1
87 338 1
87 373 1
87 500 1
87 530 1
87 565 1
88 117 1
88 158 1
88 180 1
88 309 1
88 350 1
88 372 1
88 501 1
88 542 1
88 564 1
89 118 1
89 147 1
89 192 1
89 310 1
89 339 1
89 384 1
89 502 1
89 531 1
89 576 1
90 128 1
90 159 1
90 182 1
90 320 1
90 351 1
90 374 1
90 512 1
90 543 1
90 566 1
91 120 1
91 149 1
91 183 1
91 312 1
91 341 1
91 375 1
91 504 1
91 533 1
91 567 1
92 121 1
92 150 1
92 186 1
92 313 1
92 342 1
92 378 1
92 505 1
92 534 1
92 570 1
93 122 1
93 160 1
93 185 1
93 314 1
93 352 1
93 377 1
93 506 1
93 544 1
93 569 1
94 123 1
94 152 1
94 177 1
94 315 1
94 344 1
94 369 1
94 507 1
94 536 1
94 561 1
95 125 1
95 154 1
95 188 1
95 317 1
95 346 1
95 380 1
95 509 1
95 538 1
95 572 1
96 127 1
96 157 1
96 179 1
96 319 1
96 349 1
96 371 1
96 511 1
96 541 1
96 563 1
97 193 1
97 215 1
97 234 1
97 385 1
97 407 1
97 426 1
97 481 1
97 503 1
97 522 1
98 194 1
98 209 1
98 237 1
98 386 1
98 401 1
98 429 1
98 482 1
98 497 1
98 525 1
99 195 1
99 220 1
99 225 1
99 387 1
99 412 1
99 417 1
99 483 1
99 508 1
99 513 1
100 196 1
100 210 1
100 239 1
100 388 1
100 402 1
100 431 1
100 484 1
100 498 1
100 527 1
101 197 1
101 222 1
101 227 1
101 389 1
101 414 1
101 419 1
101 485 1
101 510 1
101 515 1
102 198 1
102 211 1
102 226 1
102 390 1
102 403 1
102 418 1
102 486 1
102 499 1
102 514 1
103 199 1
103 212 1
103 240 1
103 391 1
103 404 1
103 432 1
103 487 1
103 500 1
103 528 1
104 200 1
104 213 1
104 230 1
104 392 1
104 405 1
104 422 1
104 488 1
104 501 1
104 518 1
105 201 1
105 214 1
105 228 1
105 393 1
105 406 1
105 420 1
105 489 1
105 502 1
105 516 1
106 202 1
106 224 1
106 229 1
106 394 1
106 416 1
106 421 1
106 490 1
106 512 1
106 517 1
107 203 1
107 216 1
107 233 1
107 395 1
107 408 1
107 425 1
107 491 1
107 504 1
107 521 1
108 204 1
108 217 1
108 231 1
108 396 1
108 409 1
108 423 1
108 492 1
108 505 1
108 519 1
109 205 1
109 218 1
109 232 1
109 397 1
109 410 1
109 424 1
109 493 1
109 506 1
109 520 1
110 206 1
110 219 1
110 236 1
110 398 1
110 411 1
110 428 1
110 494 1
110 507 1
110 524 1
111 207 1
111 221 1
111 235 1
111 399 1
111 413 1
111 427 1
111 495 1
111 509 1
111 523 1
112 208 1
112 223 1
112 238 1
112 400 1
112 415 1
112 430 1
112 496 1
112 511 1
112 526 1
113 193 1
113 244 1
113 259 1
113 385 1
113 436 1
113 451 1
113 481 1
113 532 1
113 547 1
114 194 1
114 247 1
114 262 1
114 386 1
114 439 1
114 454 1
114 482 1
114 535 1
114 550 1
115 195 1
115 249 1
115 261 1
115 387 1
115 441 1
115 453 1
115 483 1
115 537 1
115 549 1
116 196 1
116 241 1
116 265 1
116 388 1
116 433 1
116 457 1
116 484 1
116 529 1
116 553 1
117 197 1
117 251 1
117 266 1
117 389 1
117 443 1
117 458 1
117 485 1
117 539 1
117 554 1
118 198 1
118 252 1
118 264 1
118 390 1
118 444 1
118 456 1
118 486 1
118 540 1
118 552 1
119 199 1
119 242 1
119 268 1
119 391 1
119 434 1
119 460 1
119 487 1
119 530 1
119 556 1
120 200 1
120 254 1
120 269 1
120 392 1
120 446 1
120 461 1
120 488 1
120 542 1
120 557 1
121 201 1
121 243 1
121 267 1
121 393 1
121 435 1
121 459 1
121 489 1
121 531 1
121 555 1
122 202 1
122 255 1
122 257 1
122 394 1
122 447 1
122 449 1
122 490 1
122 543 1
122 545 1
123 203 1
123 245 1
123 271 1
123 395 1
123 437 1
123 463 1
123 491 1
123 533 1
123 559 1
124 204 1
124 246 1
124 270 1
124 396 1
124 438 1
124 462 1
124 492 1
124 534 1
124 558 1
125 205 1
125 256 1
125 258 1
125 397 1
125 448 1
125 450 1
125 493 1
125 544 1
125 546 1
126 206 1
126 248 1
126 272 1
126 398 1
126 440 1
126 464 1
126 494 1
126 536 1
126 560 1
127 207 1
127 250 1
127 260 1
127 399 1
127 442 1
127 452 1
127 495 1
127 538 1
127 548 1
128 208 1
128 253 1
128 263 1
128 400 1
128 445 1
128 455 1
128 496 1
128 541 1
128 551 1
129 215 1
129 244 1
129 280 1
129 407 1
129 436 1
129 472 1
129 503 1
129 532 1
129 568 1
130 209 1
130 247 1
130 283 1
130 401 1
130 439 1
130 475 1
130 497 1
130 535 1
130 571 1
131 220 1
131 249 1
131 285 1
131 412 1
131 441 1
131 477 1
131 508 1
131 537 1
131 573 1
132 210 1
132 241 1
132 286 1
132 402 1
132 433 1
132 478 1
132 498 1
132 529 1
132 574 1
133 222 1
133 251 1
133 274 1
133 414 1
133 443 1
133 466 1
133 510 1
133 539 1
133 562 1
134 211 1
134 252 1
134 287 1
134 403 1
134 444 1
134 479 1
134 499 1
134 540 1
134 575 1
135 212 1
135 242 1
135 277 1
135 404 1
135 434 1
135 469 1
135 500 1
135 530 1
135 565 1
136 213 1
136 254 1
136 276 1
136 405 1
136 446 1
136 468 1
136 501 1
136 542 1
136 564 1
137 214 1
137 243 1
137 288 1
137 406 1
137 435 1
137 480 1
137 502 1
137 531 1
137 576 1
138 224 1
138 255 1
138 278 1
138 416 1
138 447 1
138 470 1
138 512 1
138 543 1
138 566 1
139 216 1
139 245 1
139 279 1
139 408 1
139 437 1
139 471 1
139 504 1
139 533 1
139 567 1
140 217 1
140 246 1
140 282 1
140 409 1
140 438 1
140 474 1
140 505 1
140 534 1
140 570 1
141 218 1
141 256 1
141 281 1
141 410 1
141 448 1
141 473 1
141 506 1
141 544 1
141 569 1
142 219 1
142 248 1
142 273 1
142 411 1
142 440 1
142 465 1
142 507 1
142 536 1
142 561 1
143 221 1
143 250 1
143 284 1
143 413 1
143 442 1
143 476 1
143 509 1
143 538 1
143 572 1
144 223 1
144 253 1
144 275 1
144 415 1
144 445 1
144 467 1
144 511 1
144 541 1
144 563 1
145 1 1
145 17 1
145 49 1
145 396 1
145 412 1
145 444 1
145 495 1
145 511 1
145 543 1
146 2 1
146 18 1
146 50 1
146 387 1
146 403 1
146 435 1
146 496 1
146 512 1
146 544 1
147 3 1
147 19 1
147 51 1
147 398 1
147 414 1
147 446 1
147 484 1
147 500 1
147 532 1
148 4 1
148 20 1
148 52 1
148 390 1
148 406 1
148 438 1
148 490 1
148 506 1
148 538 1
149 5 1
149 21 1
149 53 1
149 400 1
149 416 1
149 448 1
149 489 1
149 505 1
149 537 1
150 6 1
150 22 1
150 54 1
150 389 1
150 405 1
150 437 1
150 487 1
150 503 1
150 535 1
151 7 1
151 23 1
151 55 1
151 393 1
151 409 1
151 441 1
151 493 1
151 509 1
151 541 1
152 8 1
152 24 1
152 56 1
152 394 1
152 410 1
152 442 1
152 492 1
152 508 1
152 540 1
153 9 1
153 25 1
153 57 1
153 392 1
153 408 1
153 440 1
153 481 1
153 497 1
153 529 1
154 10 1
154 26 1
154 58 1
154 391 1
154 407 1
154 439 1
154 491 1
154 507 1
154 539 1
155 11 1
155 27 1
155 59 1
155 397 1
155 413 1
155 445 1
155 483 1
155 499 1
155 531 1
156 12 1
156 28 1
156 60 1
156 395 1
156 411 1
156 443 1
156 482 1
156 498 1
156 530 1
157 13 1
157 29 1
157 61 1
157 385 1
157 401 1
157 433 1
157 494 1
157 510 1
157 542 1
158 14 1
158 30 1
158 62 1
158 399 1
158 415 1
158 447 1
158 486 1
158 502 1
158 534 1
159 15 1
159 31 1
159 63 1
159 386 1
159 402 1
159 434 1
159 485 1
159 501 1
159 533 1
160 16 1
160 32 1
160 64 1
160 388 1
160 404 1
160 436 1
160 488 1
160 504 1
160 536 1
161 1 1
161 33 1
161 65 1
161 396 1
161 428 1
161 460 1
161 495 1
161 527 1
161 559 1
162 2 1
162 34 1
162 66 1
162 387 1
162 419 1
162 451 1
162 496 1
162 528 1
162 560 1
163 3 1
163 35 1
163 67 1
163 398 1
163 430 1
163 462 1
163 484 1
163 516 1
163 548 1
164 4 1
164 36 1
164 68 1
164 390 1
164 422 1
164 454 1
164 490 1
164 522 1
164 554 1
165 5 1
165 37 1
165 69 1
165 400 1
165 432 1
165 464 1
165 489 1
165 521 1
165 553 1
166 6 1
166 38 1
166 70 1
166 389 1
166 421 1
166 453 1
166 487 1
166 519 1
166 551 1
167 7 1
167 39 1
167 71 1
167 393 1
167 425 1
167 457 1
167 493 1
167 525 1
167 557 1
168 8 1
168 40 1
168 72 1
168 394 1
168 426 1
168 458 1
168 492 1
168 524 1
168 556 1
169 9 1
169 41 1
169 73 1
169 392 1
169 424 1
169 456 1
169 481 1
169 513 1
169 545 1
170 10 1
170 42 1
170 74 1
170 391 1
170 423 1
170 455 1
170 491 1
170 523 1
170 555 1
171 11 1
171 43 1
171 75 1
171 397 1
171 429 1
171 461 1
171 483 1
171 515 1
171 547 1
172 12 1
172 44 1
172 76 1
172 395 1
172 427 1
172 459 1
172 482 1
172 514 1
172 546 1
173 13 1
173 45 1
173 77 1
173 385 1
173 417 1
173 449 1
173 494 1
173 526 1
173 558 1
174 14 1
174 46 1
174 78 1
174 399 1
174 431 1
174 463 1
174 486 1
174 518 1
174 550 1
175 15 1
175 47 1
175 79 1
175 386 1
175 418 1
175 450 1
175 485 1
175 517 1
175 549 1
176 16 1
176 48 1
176 80 1
176 388 1
176 420 1
176 452 1
176 488 1
176 520 1
176 552 1
177 17 1
177 33 1
177 81 1
177 412 1
177 428 1
177 476 1
177 511 1
177 527 1
177 575 1
178 18 1
178 34 1
178 82 1
178 403 1
178 419 1
178 467 1
178 512 1
178 528 1
178 576 1
179 19 1
179 35 1
179 83 1
179 414 1
179 430 1
179 478 1
179 500 1
179 516 1
179 564 1
180 20 1
180 36 1
180 84 1
180 406 1
180 422 1
180 470 1
180 506 1
180 522 1
180 570 1
181 21 1
181 37 1
181 85 1
181 416 1
181 432 1
181 480 1
181 505 1
181 521 1
181 569 1
182 22 1
182 38 1
182 86 1
182 405 1
182 421 1
182 469 1
182 503 1
182 519 1
182 567 1
183 23 1
183 39 1
183 87 1
183 409 1
183 425 1
183 473 1
183 509 1
183 525 1
183 573 1
184 24 1
184 40 1
184 88 1
184 410 1
184 426 1
184 474 1
184 508 1
184 524 1
184 572 1
185 25 1
185 41 1
185 89 1
185 408 1
185 424 1
185 472 1
185 497 1
185 513 1
185 561 1
186 26 1
186 42 1
186 90 1
186 407 1
186 423 1
186 471 1
186 507 1
186 523 1
186 571 1
187 27 1
187 43 1
187 91 1
187 413 1
187 429 1
187 477 1
187 499 1
187 515 1
187 563 1
188 28 1
188 44 1
188 92 1
188 411 1
188 427 1
188 475 1
188 498 1
188 514 1
188 562 1
189 29 1
189 45 1
189 93 1
189 401 1
189 417 1
189 465 1
189 510 1
189 526 1
189 574 1
190 30 1
190 46 1
190 94 1
190 415 1
190 431 1
190 479 1
190 502 1
190 518 1
190 566 1
191 31 1
191 47 1
191 95 1
191 402 1
191 418 1
191 466 1
191 501 1
191 517 1
191 565 1
192 32 1
192 48 1
192 96 1
192 404 1
192 420 1
192 468 1
192 504 1
192 520 1
192 568 1
193 97 1
193 113 1
193 145 1
193 195 1
193 211 1
193 243 1
193 396 1
193 412 1
193 444 1
194 98 1
194 114 1
194 146 1
194 198 1
194 214 1
194 246 1
194 387 1
194 403 1
194 435 1
195 99 1
195 115 1
195 147 1
195 197 1
195 213 1
195 245 1
195 398 1
195 414 1
195 446 1
196 100 1
196 116 1
196 148 1
196 201 1
196 217 1
196 249 1
196 390 1
196 406 1
196 438 1
197 101 1
197 117 1
197 149 1
197 202 1
197 218 1
197 250 1
197 400 1
197 416 1
197 448 1
198 102 1
198 118 1
198 150 1
198 200 1
198 216 1
198 248 1
198 389 1
198 405 1
198 437 1
199 103 1
199 119 1
199 151 1
199 204 1
199 220 1
199 252 1
199 393 1
199 409 1
199 441 1
200 104 1
200 120 1
200 152 1
200 205 1
200 221 1
200 253 1
200 394 1
200 410 1
200 442 1
201 105 1
201 121 1
201 153 1
201 203 1
201 219 1
201 251 1
201 392 1
201 408 1
201 440 1
202 106 1
202 122 1
202 154 1
202 193 1
202 209 1
202 241 1
202 391 1
202 407 1
202 439 1
203 107 1
203 123 1
203 155 1
203 207 1
203 223 1
203 255 1
203 397 1
203 413 1
203 445 1
204 108 1
204 124 1
204 156 1
204 206 1
204 222 1
204 254 1
204 395 1
204 411 1
204 443 1
205 109 1
205 125 1
205 157 1
205 194 1
205 210 1
205 242 1
205 385 1
205 401 1
205 433 1
206 110 1
206 126 1
206 158 1
206 208 1
206 224 1
206 256 1
206 399 1
206 415 1
206 447 1
207 111 1
207 127 1
207 159 1
207 196 1
207 212 1
207 244 1
207 386 1
207 402 1
207 434 1
208 112 1
208 128 1
208 160 1
208 199 1
208 215 1
208 247 1
208 388 1
208 404 1
208 436 1
209 97 1
209 129 1
209 161 1
209 195 1
209 227 1
209 259 1
209 396 1
209 428 1
209 460 1
210 98 1
210 130 1
210 162 1
210 198 1
210 230 1
210 262 1
210 387 1
210 419 1
210 451 1
211 99 1
211 131 1
211 163 1
211 197 1
211 229 1
211 261 1
211 398 1
211 430 1
211 462 1
212 100 1
212 132 1
212 164 1
212 201 1
212 233 1
212 265 1
212 390 1
212 422 1
212 454 1
213 101 1
213 133 1
213 165 1
213 202 1
213 234 1
213 266 1
213 400 1
213 432 1
213 464 1
214 102 1
214 134 1
214 166 1
214 200 1
214 232 1
214 264 1
214 389 1
214 421 1
214 453 1
215 103 1
215 135 1
215 167 1
215 204 1
215 236 1
215 268 1
215 393 1
215 425 1
215 457 1
216 104 1
216 136 1
216 168 1
216 205 1
216 237 1
216 269 1
216 394 1
216 426 1
216 458 1
217 105 1
217 137 1
217 169 1
217 203 1
217 235 1
217 267 1
217 392 1
217 424 1
217 456 1
218 106 1
218 138 1
218 170 1
218 193 1
218 225 1
218 257 1
218 391 1
218 423 1
218 455 1
219 107 1
219 139 1
219 171 1
219 207 1
219 239 1
219 271 1
219 397 1
219 429 1
219 461 1
220 108 1
220 140 1
220 172 1
220 206 1
220 238 1
220 270 1
220 395 1
220 427 1
220 459 1
221 109 1
221 141 1
221 173 1
221 194 1
221 226 1
221 258 1
221 385 1
221 417 1
221 449 1
222 110 1
222 142 1
222 174 1
222 208 1
222 240 1
222 272 1
222 399 1
222 431 1
222 463 1
223 111 1
223 143 1
223 175 1
223 196 1
223 228 1
223 260 1
223 386 1
223 418 1
223 450 1
224 112 1
224 144 1
224 176 1
224 199 1
224 231 1
224 263 1
224 388 1
224 420 1
224 452 1
225 113 1
225 129 1
225 177 1
225 211 1
225 227 1
225 275 1
225 412 1
225 428 1
225 476 1
226 114 1
226 130 1
226 178 1
226 214 1
226 230 1
226 278 1
226 403 1
226 419 1
226 467 1
227 115 1
227 131 1
227 179 1
227 213 1
227 229 1
227 277 1
227 414 1
227 430 1
227 478 1
228 116 1
228 132 1
228 180 1
228 217 1
228 233 1
228 281 1
228 406 1
228 422 1
228 470 1
229 117 1
229 133 1
229 181 1
229 218 1
229 234 1
229 282 1
229 416 1
229 432 1
229 480 1
230 118 1
230 134 1
230 182 1
230 216 1
230 232 1
230 280 1
230 405 1
230 421 1
230 469 1
231 119 1
231 135 1
231 183 1
231 220 1
231 236 1
231 284 1
231 409 1
231 425 1
231 473 1
232 120 1
232 136 1
232 184 1
232 221 1
232 237 1
232 285 1
232 410 1
232 426 1
232 474 1
233 121 1
233 137 1
233 185 1
233 219 1
233 235 1
233 283 1
233 408 1
233 424 1
233 472 1
234 122 1
234 138 1
234 186 1
234 209 1
234 225 1
234 273 1
234 407 1
234 423 1
234 471 1
235 123 1
235 139 1
235 187 1
235 223 1
235 239 1
235 287 1
235 413 1
235 429 1
235 477 1
236 124 1
236 140 1
236 188 1
236 222 1
236 238 1
236 286 1
236 411 1
236 427 1
236 475 1
237 125 1
237 141 1
237 189 1
237 210 1
237 226 1
237 274 1
237 401 1
237 417 1
237 465 1
238 126 1
238 142 1
238 190 1
238 224 1
238 240 1
238 288 1
238 415 1
238 431 1
238 479 1
239 127 1
239 143 1
239 191 1
239 212 1
239 228 1
239 276 1
239 402 1
239 418 1
239 466 1
240 128 1
240 144 1
240 192 1
240 215 1
240 231 1
240 279 1
240 404 1
240 420 1
240 468 1
241 97 1
241 113 1
241 145 1
241 294 1
241 310 1
241 342 1
241 495 1
241 511 1
241 543 1
242 98 1
242 114 1
242 146 1
242 297 1
242 313 1
242 345 1
242 496 1
242 512 1
242 544 1
243 99 1
243 115 1
243 147 1
243 296 1
243 312 1
243 344 1
243 484 1
243 500 1
243 532 1
244 100 1
244 116 1
244 148 1
244 300 1
244 316 1
244 348 1
244 490 1
244 506 1
244 538 1
245 101 1
245 117 1
245 149 1
245 301 1
245 317 1
245 349 1
245 489 1
245 505 1
245 537 1
246 102 1
246 118 1
246 150 1
246 299 1
246 315 1
246 347 1
246 487 1
246 503 1
246 535 1
247 103 1
247 119 1
247 151 1
247 291 1
247 307 1
247 339 1
247 493 1
247 509 1
247 541 1
248 104 1
248 120 1
248 152 1
248 303 1
248 319 1
248 351 1
248 492 1
248 508 1
248 540 1
249 105 1
249 121 1
249 153 1
249 302 1
249 318 1
249 350 1
249 481 1
249 497 1
249 529 1
250 106 1
250 122 1
250 154 1
250 290 1
250 306 1
250 338 1
250 491 1
250 507 1
250 539 1
251 107 1
251 123 1
251 155 1
251 304 1
251 320 1
251 352 1
251 483 1
251 499 1
251 531 1
252 108 1
252 124 1
252 156 1
252 293 1
252 309 1
252 341 1
252 482 1
252 498 1
252 530 1
253 109 1
253 125 1
253 157 1
253 292 1
253 308 1
253 340 1
253 494 1
253 510 1
253 542 1
254 110 1
254 126 1
254 158 1
254 298 1
254 314 1
254 346 1
254 486 1
254 502 1
254 534 1
255 111 1
255 127 1
255 159 1
255 295 1
255 311 1
255 343 1
255 485 1
255 501 1
255 533 1
256 112 1
256 128 1
256 160 1
256 289 1
256 305 1
256 337 1
256 488 1
256 504 1
256 536 1
257 97 1
257 129 1
257 161 1
257 294 1
257 326 1
257 358 1
257 495 1
257 527 1
257 559 1
258 98 1
258 130 1
258 162 1
258 297 1
258 329 1
258 361 1
258 496 1
258 528 1
258 560 1
259 99 1
259 131 1
259 163 1
259 296 1
259 328 1
259 360 1
259 484 1
259 516 1
259 548 1
260 100 1
260 132 1
260 164 1
260 300 1
260 332 1
260 364 1
260 490 1
260 522 1
260 554 1
261 101 1
261 133 1
261 165 1
261 301 1
261 333 1
261 365 1
261 489 1
261 521 1
261 553 1
262 102 1
262 134 1
262 166 1
262 299 1
262 331 1
262 363 1
262 487 1
262 519 1
262 551 1
263 103 1
263 135 1
263 167 1
263 291 1
263 323 1
263 355 1
263 493 1
263 525 1
263 557 1
264 104 1
264 136 1
264 168 1
264 303 1
264 335 1
264 367 1
264 492 1
264 524 1
264 556 1
265 105 1
265 137 1
265 169 1
265 302 1
265 334 1
265 366 1
265 481 1
265 513 1
265 545 1
266 106 1
266 138 1
266 170 1
266 290 1
266 322 1
266 354 1
266 491 1
266 523 1
266 555 1
267 107 1
267 139 1
267 171 1
267 304 1
267 336 1
267 368 1
267 483 1
267 515 1
267 547 1
268 108 1
268 140 1
268 172 1
268 293 1
268 325 1
268 357 1
268 482 1
268 514 1
268 546 1
269 109 1
269 141 1
269 173 1
269 292 1
269 324 1
269 356 1
269 494 1
269 526 1
269 558 1
270 110 1
270 142 1
270 174 1
270 298 1
270 330 1
270 362 1
270 486 1
270 518 1
270 550 1
271 111 1
271 143 1
271 175 1
271 295 1
271 327 1
271 359 1
271 485 1
271 517 1
271 549 1
272 112 1
272 144 1
272 176 1
272 289 1
272 321 1
272 353 1
272 488 1
272 520 1
272 552 1
273 113 1
273 129 1
273 177 1
273 310 1
273 326 1
273 374 1
273 511 1
273 527 1
273 575 1
274 114 1
274 130 1
274 178 1
274 313 1
274 329 1
274 377 1
274 512 1
274 528 1
274 576 1
275 115 1
275 131 1
275 179 1
275 312 1
275 328 1
275 376 1
275 500 1
275 516 1
275 564 1
276 116 1
276 132 1
276 180 1
276 316 1
276 332 1
276 380 1
276 506 1
276 522 1
276 570 1
277 117 1
277 133 1
277 181 1
277 317 1
277 333 1
277 381 1
277 505 1
277 521 1
277 569 1
278 118 1
278 134 1
278 182 1
278 315 1
278 331 1
278 379 1
278 503 1
278 519 1
278 567 1
279 119 1
279 135 1
279 183 1
279 307 1
279 323 1
279 371 1
279 509 1
279 525 1
279 573 1
280 120 1
280 136 1
280 184 1
280 319 1
280 335 1
280 383 1
280 508 1
280 524 1
280 572 1
281 121 1
281 137 1
281 185 1
281 318 1
281 334 1
281 382 1
281 497 1
281 513 1
281 561 1
282 122 1
282 138 1
282 186 1
282 306 1
282 322 1
282 370 1
282 507 1
282 523 1
282 571 1
283 123 1
283 139 1
283 187 1
283 320 1
283 336 1
283 384 1
283 499 1
283 515 1
283 563 1
284 124 1
284 140 1
284 188 1
284 309 1
284 325 1
284 373 1
284 498 1
284 514 1
284 562 1
285 125 1
285 141 1
285 189 1
285 308 1
285 324 1
285 372 1
285 510 1
285 526 1
285 574 1
286 126 1
286 142 1
286 190 1
286 314 1
286 330 1
286 378 1
286 502 1
286 518 1
286 566 1
287 127 1
287 143 1
287 191 1
287 311 1
287 327 1
287 375 1
287 501 1
287 517 1
287 565 1
288 128 1
288 144 1
288 192 1
288 305 1
288 321 1
288 369 1
288 504 1
288 520 1
288 568 1
