%%MatrixMarket matrix coordinate integer general
192 384 3072
1 1 1
1 25 1
1 31 1
1 37 1
1 193 1
1 217 1
1 223 1
1 229 1
1 241 1
1 265 1
1 271 1
1 277 1
1 289 1
1 313 1
1 319 1
1 325 1
2 2 1
2 26 1
2 32 1
2 38 1
2 194 1
2 218 1
2 224 1
2 230 1
2 242 1
2 266 1
2 272 1
2 278 1
2 290 1
2 314 1
2 320 1
2 326 1
3 3 1
3 27 1
3 33 1
3 39 1
3 195 1
3 219 1
3 225 1
3 231 1
3 243 1
3 267 1
3 273 1
3 279 1
3 291 1
3 315 1
3 321 1
3 327 1
4 4 1
4 28 1
4 34 1
4 40 1
4 196 1
4 220 1
4 226 1
4 232 1
4 244 1
4 268 1
4 274 1
4 280 1
4 292 1
4 316 1
4 322 1
4 328 1
5 5 1
5 29 1
5 35 1
5 41 1
5 197 1
5 221 1
5 227 1
5 233 1
5 245 1
5 269 1
5 275 1
5 281 1
5 293 1
5 317 1
5 323 1
5 329 1
6 6 1
6 30 1
6 36 1
6 42 1
6 198 1
6 222 1
6 228 1
6 234 1
6 246 1
6 270 1
6 276 1
6 282 1
6 294 1
6 318 1
6 324 1
6 330 1
7 7 1
7 25 1
7 31 1
7 43 1
7 199 1
7 217 1
7 223 1
7 235 1
7 247 1
7 265 1
7 271 1
7 283 1
7 295 1
7 313 1
7 319 1
7 331 1
8 8 1
8 26 1
8 32 1
8 44 1
8 200 1
8 218 1
8 224 1
8 236 1
8 248 1
8 266 1
8 272 1
8 284 1
8 296 1
8 314 1
8 320 1
8 332 1
9 9 1
9 27 1
9 33 1
9 45 1
9 201 1
9 219 1
9 225 1
9 237 1
9 249 1
9 267 1
9 273 1
9 285 1
9 297 1
9 315 1
9 321 1
9 333 1
10 10 1
10 28 1
10 34 1
10 46 1
10 202 1
10 220 1
10 226 1
10 238 1
10 250 1
10 268 1
10 274 1
10 286 1
10 298 1
10 316 1
10 322 1
10 334 1
11 11 1
11 29 1
11 35 1
11 47 1
11 203 1
11 221 1
11 227 1
11 239 1
11 251 1
11 269 1
11 275 1
11 287 1
11 299 1
11 317 1
11 323 1
11 335 1
12 12 1
12 30 1
12 36 1
12 48 1
12 204 1
12 222 1
12 228 1
12 240 1
12 252 1
12 270 1
12 276 1
12 288 1
12 300 1
12 318 1
12 324 1
12 336 1
13 13 1
13 25 1
13 37 1
13 43 1
13 205 1
13 217 1
13 229 1
13 235 1
13 253 1
13 265 1
13 277 1
13 283 1
13 301 1
13 313 1
13 325 1
13 331 1
14 14 1
14 26 1
14 38 1
14 44 1
14 206 1
14 218 1
14 230 1
14 236 1
14 254 1
14 266 1
14 278 1
14 284 1
14 302 1
14 314 1
14 326 1
14 332 1
15 15 1
15 27 1
15 39 1
15 45 1
15 207 1
15 219 1
15 231 1
15 237 1
15 255 1
15 267 1
15 279 1
15 285 1
15 303 1
15 315 1
15 327 1
15 333 1
16 16 1
16 28 1
16 40 1
16 46 1
16 208 1
16 220 1
16 232 1
16 238 1
16 256 1
16 268 1
16 280 1
16 286 1
16 304 1
16 316 1
16 328 1
16 334 1
17 17 1
17 29 1
17 41 1
17 47 1
17 209 1
17 221 1
17 233 1
17 239 1
17 257 1
17 269 1
17 281 1
17 287 1
17 305 1
17 317 1
17 329 1
17 335 1
18 18 1
18 30 1
18 42 1
18 48 1
18 210 1
18 222 1
18 234 1
18 240 1
18 258 1
18 270 1
18 282 1
18 288 1
18 306 1
18 318 1
18 330 1
18 336 1
19 19 1
19 31 1
19 37 1
19 43 1
19 211 1
19 223 1
19 229 1
19 235 1
19 259 1
19 271 1
19 277 1
19 283 1
19 307 1
19 319 1
19 325 1
19 331 1
20 20 1
20 32 1
20 38 1
20 44 1
20 212 1
20 224 1
20 230 1
20 236 1
20 260 1
20 272 1
20 278 1
20 284 1
20 308 1
20 320 1
20 326 1
20 332 1
21 21 1
21 33 1
21 39 1
21 45 1
21 213 1
21 225 1
21 231 1
21 237 1
21 261 1
21 273 1
21 279 1
21 285 1
21 309 1
21 321 1
21 327 1
21 333 1
22 22 1
22 34 1
22 40 1
22 46 1
22 214 1
22 226 1
22 232 1
22 238 1
22 262 1
22 274 1
22 280 1
22 286 1
22 310 1
22 322 1
22 328 1
22 334 1
23 23 1
23 35 1
23 41 1
23 47 1
23 215 1
23 227 1
23 233 1
23 239 1
23 263 1
23 275 1
23 281 1
23 287 1
23 311 1
23 323 1
23 329 1
23 335 1
24 24 1
24 36 1
24 42 1
24 48 1
24 216 1
24 228 1
24 234 1
24 240 1
24 264 1
24 276 1
24 282 1
24 288 1
24 312 1
24 324 1
24 330 1
24 336 1
25 49 1
25 73 1
25 79 1
25 85 1
25 193 1
25 217 1
25 223 1
25 229 1
25 241 1
25 265 1
25 271 1
25 277 1
25 337 1
25 361 1
25 367 1
25 373 1
26 50 1
26 74 1
26 80 1
26 86 1
26 194 1
26 218 1
26 224 1
26 230 1
26 242 1
26 266 1
26 272 1
26 278 1
26 338 1
26 362 1
26 368 1
26 374 1
27 51 1
27 75 1
27 81 1
27 87 1
27 195 1
27 219 1
27 225 1
27 231 1
27 243 1
27 267 1
27 273 1
27 279 1
27 339 1
27 363 1
27 369 1
27 375 1
28 52 1
28 76 1
28 82 1
28 88 1
28 196 1
28 220 1
28 226 1
28 232 1
28 244 1
28 268 1
28 274 1
28 280 1
28 340 1
28 364 1
28 370 1
28 376 1
29 53 1
29 77 1
29 83 1
29 89 1
29 197 1
29 221 1
29 227 1
29 233 1
29 245 1
29 269 1
29 275 1
29 281 1
29 341 1
29 365 1
29 371 1
29 377 1
30 54 1
30 78 1
30 84 1
30 90 1
30 198 1
30 222 1
30 228 1
30 234 1
30 246 1
30 270 1
30 276 1
30 282 1
30 342 1
30 366 1
30 372 1
30 378 1
31 55 1
31 73 1
31 79 1
31 91 1
31 199 1
31 217 1
31 223 1
31 235 1
31 247 1
31 265 1
31 271 1
31 283 1
31 343 1
31 361 1
31 367 1
31 379 1
32 56 1
32 74 1
32 80 1
32 92 1
32 200 1
32 218 1
32 224 1
32 236 1
32 248 1
32 266 1
32 272 1
32 284 1
32 344 1
32 362 1
32 368 1
32 380 1
33 57 1
33 75 1
33 81 1
33 93 1
33 201 1
33 219 1
33 225 1
33 237 1
33 249 1
33 267 1
33 273 1
33 285 1
33 345 1
33 363 1
33 369 1
33 381 1
34 58 1
34 76 1
34 82 1
34 94 1
34 202 1
34 220 1
34 226 1
34 238 1
34 250 1
34 268 1
34 274 1
34 286 1
34 346 1
34 364 1
34 370 1
34 382 1
35 59 1
35 77 1
35 83 1
35 95 1
35 203 1
35 221 1
35 227 1
35 239 1
35 251 1
35 269 1
35 275 1
35 287 1
35 347 1
35 365 1
35 371 1
35 383 1
36 60 1
36 78 1
36 84 1
36 96 1
36 204 1
36 222 1
36 228 1
36 240 1
36 252 1
36 270 1
36 276 1
36 288 1
36 348 1
36 366 1
36 372 1
36 384 1
37 61 1
37 73 1
37 85 1
37 91 1
37 205 1
37 217 1
37 229 1
37 235 1
37 253 1
37 265 1
37 277 1
37 283 1
37 349 1
37 361 1
37 373 1
37 379 1
38 62 1
38 74 1
38 86 1
38 92 1
38 206 1
38 218 1
38 230 1
38 236 1
38 254 1
38 266 1
38 278 1
38 284 1
38 350 1
38 362 1
38 374 1
38 380 1
39 63 1
39 75 1
39 87 1
39 93 1
39 207 1
39 219 1
39 231 1
39 237 1
39 255 1
39 267 1
39 279 1
39 285 1
39 351 1
39 363 1
39 375 1
39 381 1
40 64 1
40 76 1
40 88 1
40 94 1
40 208 1
40 220 1
40 232 1
40 238 1
40 256 1
40 268 1
40 280 1
40 286 1
40 352 1
40 364 1
40 376 1
40 382 1
41 65 1
41 77 1
41 89 1
41 95 1
41 209 1
41 221 1
41 233 1
41 239 1
41 257 1
41 269 1
41 281 1
41 287 1
41 353 1
41 365 1
41 377 1
41 383 1
42 66 1
42 78 1
42 90 1
42 96 1
42 210 1
42 222 1
42 234 1
42 240 1
42 258 1
42 270 1
42 282 1
42 288 1
42 354 1
42 366 1
42 378 1
42 384 1
43 67 1
43 79 1
43 85 1
43 91 1
43 211 1
43 223 1
43 229 1
43 235 1
43 259 1
43 271 1
43 277 1
43 283 1
43 355 1
43 367 1
43 373 1
43 379 1
44 68 1
44 80 1
44 86 1
44 92 1
44 212 1
44 224 1
44 230 1
44 236 1
44 260 1
44 272 1
44 278 1
44 284 1
44 356 1
44 368 1
44 374 1
44 380 1
45 69 1
45 81 1
45 87 1
45 93 1
45 213 1
45 225 1
45 231 1
45 237 1
45 261 1
45 273 1
45 279 1
45 285 1
45 357 1
45 369 1
45 375 1
45 381 1
46 70 1
46 82 1
46 88 1
46 94 1
46 214 1
46 226 1
46 232 1
46 238 1
46 262 1
46 274 1
46 280 1
46 286 1
46 358 1
46 370 1
46 376 1
46 382 1
47 71 1
47 83 1
47 89 1
47 95 1
47 215 1
47 227 1
47 233 1
47 239 1
47 263 1
47 275 1
47 281 1
47 287 1
47 359 1
47 371 1
47 377 1
47 383 1
48 72 1
48 84 1
48 90 1
48 96 1
48 216 1
48 228 1
48 234 1
48 240 1
48 264 1
48 276 1
48 282 1
48 288 1
48 360 1
48 372 1
48 378 1
48 384 1
49 97 1
49 121 1
49 127 1
49 133 1
49 193 1
49 217 1
49 223 1
49 229 1
49 289 1
49 313 1
49 319 1
49 325 1
49 337 1
49 361 1
49 367 1
49 373 1
50 98 1
50 122 1
50 128 1
50 134 1
50 194 1
50 218 1
50 224 1
50 230 1
50 290 1
50 314 1
50 320 1
50 326 1
50 338 1
50 362 1
50 368 1
50 374 1
51 99 1
51 123 1
51 129 1
51 135 1
51 195 1
51 219 1
51 225 1
51 231 1
51 291 1
51 315 1
51 321 1
51 327 1
51 339 1
51 363 1
51 369 1
51 375 1
52 100 1
52 124 1
52 130 1
52 136 1
52 196 1
52 220 1
52 226 1
52 232 1
52 292 1
52 316 1
52 322 1
52 328 1
52 340 1
52 364 1
52 370 1
52 376 1
53 101 1
53 125 1
53 131 1
53 137 1
53 197 1
53 221 1
53 227 1
53 233 1
53 293 1
53 317 1
53 323 1
53 329 1
53 341 1
53 365 1
53 371 1
53 377 1
54 102 1
54 126 1
54 132 1
54 138 1
54 198 1
54 222 1
54 228 1
54 234 1
54 294 1
54 318 1
54 324 1
54 330 1
54 342 1
54 366 1
54 372 1
54 378 1
55 103 1
55 121 1
55 127 1
55 139 1
55 199 1
55 217 1
55 223 1
55 235 1
55 295 1
55 313 1
55 319 1
55 331 1
55 343 1
55 361 1
55 367 1
55 379 1
56 104 1
56 122 1
56 128 1
56 140 1
56 200 1
56 218 1
56 224 1
56 236 1
56 296 1
56 314 1
56 320 1
56 332 1
56 344 1
56 362 1
56 368 1
56 380 1
57 105 1
57 123 1
57 129 1
57 141 1
57 201 1
57 219 1
57 225 1
57 237 1
57 297 1
57 315 1
57 321 1
57 333 1
57 345 1
57 363 1
57 369 1
57 381 1
58 106 1
58 124 1
58 130 1
58 142 1
58 202 1
58 220 1
58 226 1
58 238 1
58 298 1
58 316 1
58 322 1
58 334 1
58 346 1
58 364 1
58 370 1
58 382 1
59 107 1
59 125 1
59 131 1
59 143 1
59 203 1
59 221 1
59 227 1
59 239 1
59 299 1
59 317 1
59 323 1
59 335 1
59 347 1
59 365 1
59 371 1
59 383 1
60 108 1
60 126 1
60 132 1
60 144 1
60 204 1
60 222 1
60 228 1
60 240 1
60 300 1
60 318 1
60 324 1
60 336 1
60 348 1
60 366 1
60 372 1
60 384 1
61 109 1
61 121 1
61 133 1
61 139 1
61 205 1
61 217 1
61 229 1
61 235 1
61 301 1
61 313 1
61 325 1
61 331 1
61 349 1
61 361 1
61 373 1
61 379 1
62 110 1
62 122 1
62 134 1
62 140 1
62 206 1
62 218 1
62 230 1
62 236 1
62 302 1
62 314 1
62 326 1
62 332 1
62 350 1
62 362 1
62 374 1
62 380 1
63 111 1
63 123 1
63 135 1
63 141 1
63 207 1
63 219 1
63 231 1
63 237 1
63 303 1
63 315 1
63 327 1
63 333 1
63 351 1
63 363 1
63 375 1
63 381 1
64 112 1
64 124 1
64 136 1
64 142 1
64 208 1
64 220 1
64 232 1
64 238 1
64 304 1
64 316 1
64 328 1
64 334 1
64 352 1
64 364 1
64 376 1
64 382 1
65 113 1
65 125 1
65 137 1
65 143 1
65 209 1
65 221 1
65 233 1
65 239 1
65 305 1
65 317 1
65 329 1
65 335 1
65 353 1
65 365 1
65 377 1
65 383 1
66 114 1
66 126 1
66 138 1
66 144 1
66 210 1
66 222 1
66 234 1
66 240 1
66 306 1
66 318 1
66 330 1
66 336 1
66 354 1
66 366 1
66 378 1
66 384 1
67 115 1
67 127 1
67 133 1
67 139 1
67 211 1
67 223 1
67 229 1
67 235 1
67 307 1
67 319 1
67 325 1
67 331 1
67 355 1
67 367 1
67 373 1
67 379 1
68 116 1
68 128 1
68 134 1
68 140 1
68 212 1
68 224 1
68 230 1
68 236 1
68 308 1
68 320 1
68 326 1
68 332 1
68 356 1
68 368 1
68 374 1
68 380 1
69 117 1
69 129 1
69 135 1
69 141 1
69 213 1
69 225 1
69 231 1
69 237 1
69 309 1
69 321 1
69 327 1
69 333 1
69 357 1
69 369 1
69 375 1
69 381 1
70 118 1
70 130 1
70 136 1
70 142 1
70 214 1
70 226 1
70 232 1
70 238 1
70 310 1
70 322 1
70 328 1
70 334 1
70 358 1
70 370 1
70 376 1
70 382 1
71 119 1
71 131 1
71 137 1
71 143 1
71 215 1
71 227 1
71 233 1
71 239 1
71 311 1
71 323 1
71 329 1
71 335 1
71 359 1
71 371 1
71 377 1
71 383 1
72 120 1
72 132 1
72 138 1
72 144 1
72 216 1
72 228 1
72 234 1
72 240 1
72 312 1
72 324 1
72 330 1
72 336 1
72 360 1
72 372 1
72 378 1
72 384 1
73 145 1
73 169 1
73 175 1
73 181 1
73 241 1
73 265 1
73 271 1
73 277 1
73 289 1
73 313 1
73 319 1
73 325 1
73 337 1
73 361 1
73 367 1
73 373 1
74 146 1
74 170 1
74 176 1
74 182 1
74 242 1
74 266 1
74 272 1
74 278 1
74 290 1
74 314 1
74 320 1
74 326 1
74 338 1
74 362 1
74 368 1
74 374 1
75 147 1
75 171 1
75 177 1
75 183 1
75 243 1
75 267 1
75 273 1
75 279 1
75 291 1
75 315 1
75 321 1
75 327 1
75 339 1
75 363 1
75 369 1
75 375 1
76 148 1
76 172 1
76 178 1
76 184 1
76 244 1
76 268 1
76 274 1
76 280 1
76 292 1
76 316 1
76 322 1
76 328 1
76 340 1
76 364 1
76 370 1
76 376 1
77 149 1
77 173 1
77 179 1
77 185 1
77 245 1
77 269 1
77 275 1
77 281 1
77 293 1
77 317 1
77 323 1
77 329 1
77 341 1
77 365 1
77 371 1
77 377 1
78 150 1
78 174 1
78 180 1
78 186 1
78 246 1
78 270 1
78 276 1
78 282 1
78 294 1
78 318 1
78 324 1
78 330 1
78 342 1
78 366 1
78 372 1
78 378 1
79 151 1
79 169 1
79 175 1
79 187 1
79 247 1
79 265 1
79 271 1
79 283 1
79 295 1
79 313 1
79 319 1
79 331 1
79 343 1
79 361 1
79 367 1
79 379 1
80 152 1
80 170 1
80 176 1
80 188 1
80 248 1
80 266 1
80 272 1
80 284 1
80 296 1
80 314 1
80 320 1
80 332 1
80 344 1
80 362 1
80 368 1
80 380 1
81 153 1
81 171 1
81 177 1
81 189 1
81 249 1
81 267 1
81 273 1
81 285 1
81 297 1
81 315 1
81 321 1
81 333 1
81 345 1
81 363 1
81 369 1
81 381 1
82 154 1
82 172 1
82 178 1
82 190 1
82 250 1
82 268 1
82 274 1
82 286 1
82 298 1
82 316 1
82 322 1
82 334 1
82 346 1
82 364 1
82 370 1
82 382 1
83 155 1
83 173 1
83 179 1
83 191 1
83 251 1
83 269 1
83 275 1
83 287 1
83 299 1
83 317 1
83 323 1
83 335 1
83 347 1
83 365 1
83 371 1
83 383 1
84 156 1
84 174 1
84 180 1
84 192 1
84 252 1
84 270 1
84 276 1
84 288 1
84 300 1
84 318 1
84 324 1
84 336 1
84 348 1
84 366 1
84 372 1
84 384 1
85 157 1
85 169 1
85 181 1
85 187 1
85 253 1
85 265 1
85 277 1
85 283 1
85 301 1
85 313 1
85 325 1
85 331 1
85 349 1
85 361 1
85 373 1
85 379 1
86 158 1
86 170 1
86 182 1
86 188 1
86 254 1
86 266 1
86 278 1
86 284 1
86 302 1
86 314 1
86 326 1
86 332 1
86 350 1
86 362 1
86 374 1
86 380 1
87 159 1
87 171 1
87 183 1
87 189 1
87 255 1
87 267 1
87 279 1
87 285 1
87 303 1
87 315 1
87 327 1
87 333 1
87 351 1
87 363 1
87 375 1
87 381 1
88 160 1
88 172 1
88 184 1
88 190 1
88 256 1
88 268 1
88 280 1
88 286 1
88 304 1
88 316 1
88 328 1
88 334 1
88 352 1
88 364 1
88 376 1
88 382 1
89 161 1
89 173 1
89 185 1
89 191 1
89 257 1
89 269 1
89 281 1
89 287 1
89 305 1
89 317 1
89 329 1
89 335 1
89 353 1
89 365 1
89 377 1
89 383 1
90 162 1
90 174 1
90 186 1
90 192 1
90 258 1
90 270 1
90 282 1
90 288 1
90 306 1
90 318 1
90 330 1
90 336 1
90 354 1
90 366 1
90 378 1
90 384 1
91 163 1
91 175 1
91 181 1
91 187 1
91 259 1
91 271 1
91 277 1
91 283 1
91 307 1
91 319 1
91 325 1
91 331 1
91 355 1
91 367 1
91 373 1
91 379 1
92 164 1
92 176 1
92 182 1
92 188 1
92 260 1
92 272 1
92 278 1
92 284 1
92 308 1
92 320 1
92 326 1
92 332 1
92 356 1
92 368 1
92 374 1
92 380 1
93 165 1
93 177 1
93 183 1
93 189 1
93 261 1
93 273 1
93 279 1
93 285 1
93 309 1
93 321 1
93 327 1
93 333 1
93 357 1
93 369 1
93 375 1
93 381 1
94 166 1
94 178 1
94 184 1
94 190 1
94 262 1
94 274 1
94 280 1
94 286 1
94 310 1
94 322 1
94 328 1
94 334 1
94 358 1
94 370 1
94 376 1
94 382 1
95 167 1
95 179 1
95 185 1
95 191 1
95 263 1
95 275 1
95 281 1
95 287 1
95 311 1
95 323 1
95 329 1
95 335 1
95 359 1
95 371 1
95 377 1
95 383 1
96 168 1
96 180 1
96 186 1
96 192 1
96 264 1
96 276 1
96 282 1
96 288 1
96 312 1
96 324 1
96 330 1
96 336 1
96 360 1
96 372 1
96 378 1
96 384 1
97 1 1
97 26 1
97 35 1
97 47 1
97 195 1
97 222 1
97 223 1
97 235 1
97 291 1
97 318 1
97 319 1
97 331 1
97 340 1
97 365 1
97 368 1
97 380 1
98 2 1
98 25 1
98 36 1
98 48 1
98 198 1
98 219 1
98 226 1
98 238 1
98 294 1
98 315 1
98 322 1
98 334 1
98 341 1
98 364 1
98 369 1
98 381 1
99 3 1
99 30 1
99 31 1
99 43 1
99 197 1
99 220 1
99 225 1
99 237 1
99 293 1
99 316 1
99 321 1
99 333 1
99 342 1
99 363 1
99 370 1
99 382 1
100 4 1
100 29 1
100 32 1
100 44 1
100 194 1
100 217 1
100 228 1
100 240 1
100 290 1
100 313 1
100 324 1
100 336 1
100 337 1
100 362 1
100 371 1
100 383 1
101 5 1
101 28 1
101 33 1
101 45 1
101 193 1
101 218 1
101 227 1
101 239 1
101 289 1
101 314 1
101 323 1
101 335 1
101 338 1
101 361 1
101 372 1
101 384 1
102 6 1
102 27 1
102 34 1
102 46 1
102 196 1
102 221 1
102 224 1
102 236 1
102 292 1
102 317 1
102 320 1
102 332 1
102 339 1
102 366 1
102 367 1
102 379 1
103 7 1
103 26 1
103 41 1
103 47 1
103 201 1
103 222 1
103 229 1
103 235 1
103 297 1
103 318 1
103 325 1
103 331 1
103 346 1
103 365 1
103 374 1
103 380 1
104 8 1
104 25 1
104 42 1
104 48 1
104 204 1
104 219 1
104 232 1
104 238 1
104 300 1
104 315 1
104 328 1
104 334 1
104 347 1
104 364 1
104 375 1
104 381 1
105 9 1
105 30 1
105 37 1
105 43 1
105 203 1
105 220 1
105 231 1
105 237 1
105 299 1
105 316 1
105 327 1
105 333 1
105 348 1
105 363 1
105 376 1
105 382 1
106 10 1
106 29 1
106 38 1
106 44 1
106 200 1
106 217 1
106 234 1
106 240 1
106 296 1
106 313 1
106 330 1
106 336 1
106 343 1
106 362 1
106 377 1
106 383 1
107 11 1
107 28 1
107 39 1
107 45 1
107 199 1
107 218 1
107 233 1
107 239 1
107 295 1
107 314 1
107 329 1
107 335 1
107 344 1
107 361 1
107 378 1
107 384 1
108 12 1
108 27 1
108 40 1
108 46 1
108 202 1
108 221 1
108 230 1
108 236 1
108 298 1
108 317 1
108 326 1
108 332 1
108 345 1
108 366 1
108 373 1
108 379 1
109 13 1
109 35 1
109 41 1
109 47 1
109 207 1
109 223 1
109 229 1
109 235 1
109 303 1
109 319 1
109 325 1
109 331 1
109 352 1
109 368 1
109 374 1
109 380 1
110 14 1
110 36 1
110 42 1
110 48 1
110 210 1
110 226 1
110 232 1
110 238 1
110 306 1
110 322 1
110 328 1
110 334 1
110 353 1
110 369 1
110 375 1
110 381 1
111 15 1
111 31 1
111 37 1
111 43 1
111 209 1
111 225 1
111 231 1
111 237 1
111 305 1
111 321 1
111 327 1
111 333 1
111 354 1
111 370 1
111 376 1
111 382 1
112 16 1
112 32 1
112 38 1
112 44 1
112 206 1
112 228 1
112 234 1
112 240 1
112 302 1
112 324 1
112 330 1
112 336 1
112 349 1
112 371 1
112 377 1
112 383 1
113 17 1
113 33 1
113 39 1
113 45 1
113 205 1
113 227 1
113 233 1
113 239 1
113 301 1
113 323 1
113 329 1
113 335 1
113 350 1
113 372 1
113 378 1
113 384 1
114 18 1
114 34 1
114 40 1
114 46 1
114 208 1
114 224 1
114 230 1
114 236 1
114 304 1
114 320 1
114 326 1
114 332 1
114 351 1
114 367 1
114 373 1
114 379 1
115 20 1
115 26 1
115 35 1
115 41 1
115 216 1
115 222 1
115 223 1
115 229 1
115 312 1
115 318 1
115 319 1
115 325 1
115 359 1
115 365 1
115 368 1
115 374 1
116 19 1
116 25 1
116 36 1
116 42 1
116 213 1
116 219 1
116 226 1
116 232 1
116 309 1
116 315 1
116 322 1
116 328 1
116 358 1
116 364 1
116 369 1
116 375 1
117 24 1
117 30 1
117 31 1
117 37 1
117 214 1
117 220 1
117 225 1
117 231 1
117 310 1
117 316 1
117 321 1
117 327 1
117 357 1
117 363 1
117 370 1
117 376 1
118 23 1
118 29 1
118 32 1
118 38 1
118 211 1
118 217 1
118 228 1
118 234 1
118 307 1
118 313 1
118 324 1
118 330 1
118 356 1
118 362 1
118 371 1
118 377 1
119 22 1
119 28 1
119 33 1
119 39 1
119 212 1
119 218 1
119 227 1
119 233 1
119 308 1
119 314 1
119 323 1
119 329 1
119 355 1
119 361 1
119 372 1
119 378 1
120 21 1
120 27 1
120 34 1
120 40 1
120 215 1
120 221 1
120 224 1
120 230 1
120 311 1
120 317 1
120 320 1
120 326 1
120 360 1
120 366 1
120 367 1
120 373 1
121 49 1
121 74 1
121 83 1
121 95 1
121 195 1
121 222 1
121 223 1
121 235 1
121 243 1
121 270 1
121 271 1
121 283 1
121 291 1
121 318 1
121 319 1
121 331 1
122 50 1
122 73 1
122 84 1
122 96 1
122 198 1
122 219 1
122 226 1
122 238 1
122 246 1
122 267 1
122 274 1
122 286 1
122 294 1
122 315 1
122 322 1
122 334 1
123 51 1
123 78 1
123 79 1
123 91 1
123 197 1
123 220 1
123 225 1
123 237 1
123 245 1
123 268 1
123 273 1
123 285 1
123 293 1
123 316 1
123 321 1
123 333 1
124 52 1
124 77 1
124 80 1
124 92 1
124 194 1
124 217 1
124 228 1
124 240 1
124 242 1
124 265 1
124 276 1
124 288 1
124 290 1
124 313 1
124 324 1
124 336 1
125 53 1
125 76 1
125 81 1
125 93 1
125 193 1
125 218 1
125 227 1
125 239 1
125 241 1
125 266 1
125 275 1
125 287 1
125 289 1
125 314 1
125 323 1
125 335 1
126 54 1
126 75 1
126 82 1
126 94 1
126 196 1
126 221 1
126 224 1
126 236 1
126 244 1
126 269 1
126 272 1
126 284 1
126 292 1
126 317 1
126 320 1
126 332 1
127 55 1
127 74 1
127 89 1
127 95 1
127 201 1
127 222 1
127 229 1
127 235 1
127 249 1
127 270 1
127 277 1
127 283 1
127 297 1
127 318 1
127 325 1
127 331 1
128 56 1
128 73 1
128 90 1
128 96 1
128 204 1
128 219 1
128 232 1
128 238 1
128 252 1
128 267 1
128 280 1
128 286 1
128 300 1
128 315 1
128 328 1
128 334 1
129 57 1
129 78 1
129 85 1
129 91 1
129 203 1
129 220 1
129 231 1
129 237 1
129 251 1
129 268 1
129 279 1
129 285 1
129 299 1
129 316 1
129 327 1
129 333 1
130 58 1
130 77 1
130 86 1
130 92 1
130 200 1
130 217 1
130 234 1
130 240 1
130 248 1
130 265 1
130 282 1
130 288 1
130 296 1
130 313 1
130 330 1
130 336 1
131 59 1
131 76 1
131 87 1
131 93 1
131 199 1
131 218 1
131 233 1
131 239 1
131 247 1
131 266 1
131 281 1
131 287 1
131 295 1
131 314 1
131 329 1
131 335 1
132 60 1
132 75 1
132 88 1
132 94 1
132 202 1
132 221 1
132 230 1
132 236 1
132 250 1
132 269 1
132 278 1
132 284 1
132 298 1
132 317 1
132 326 1
132 332 1
133 61 1
133 83 1
133 89 1
133 95 1
133 207 1
133 223 1
133 229 1
133 235 1
133 255 1
133 271 1
133 277 1
133 283 1
133 303 1
133 319 1
133 325 1
133 331 1
134 62 1
134 84 1
134 90 1
134 96 1
134 210 1
134 226 1
134 232 1
134 238 1
134 258 1
134 274 1
134 280 1
134 286 1
134 306 1
134 322 1
134 328 1
134 334 1
135 63 1
135 79 1
135 85 1
135 91 1
135 209 1
135 225 1
135 231 1
135 237 1
135 257 1
135 273 1
135 279 1
135 285 1
135 305 1
135 321 1
135 327 1
135 333 1
136 64 1
136 80 1
136 86 1
136 92 1
136 206 1
136 228 1
136 234 1
136 240 1
136 254 1
136 276 1
136 282 1
136 288 1
136 302 1
136 324 1
136 330 1
136 336 1
137 65 1
137 81 1
137 87 1
137 93 1
137 205 1
137 227 1
137 233 1
137 239 1
137 253 1
137 275 1
137 281 1
137 287 1
137 301 1
137 323 1
137 329 1
137 335 1
138 66 1
138 82 1
138 88 1
138 94 1
138 208 1
138 224 1
138 230 1
138 236 1
138 256 1
138 272 1
138 278 1
138 284 1
138 304 1
138 320 1
138 326 1
138 332 1
139 68 1
139 74 1
139 83 1
139 89 1
139 216 1
139 222 1
139 223 1
139 229 1
139 264 1
139 270 1
139 271 1
139 277 1
139 312 1
139 318 1
139 319 1
139 325 1
140 67 1
140 73 1
140 84 1
140 90 1
140 213 1
140 219 1
140 226 1
140 232 1
140 261 1
140 267 1
140 274 1
140 280 1
140 309 1
140 315 1
140 322 1
140 328 1
141 72 1
141 78 1
141 79 1
141 85 1
141 214 1
141 220 1
141 225 1
141 231 1
141 262 1
141 268 1
141 273 1
141 279 1
141 310 1
141 316 1
141 321 1
141 327 1
142 71 1
142 77 1
142 80 1
142 86 1
142 211 1
142 217 1
142 228 1
142 234 1
142 259 1
142 265 1
142 276 1
142 282 1
142 307 1
142 313 1
142 324 1
142 330 1
143 70 1
143 76 1
143 81 1
143 87 1
143 212 1
143 218 1
143 227 1
143 233 1
143 260 1
143 266 1
143 275 1
143 281 1
143 308 1
143 314 1
143 323 1
143 329 1
144 69 1
144 75 1
144 82 1
144 88 1
144 215 1
144 221 1
144 224 1
144 230 1
144 263 1
144 269 1
144 272 1
144 278 1
144 311 1
144 317 1
144 320 1
144 326 1
145 98 1
145 121 1
145 132 1
145 144 1
145 195 1
145 222 1
145 223 1
145 235 1
145 243 1
145 270 1
145 271 1
145 283 1
145 340 1
145 365 1
145 368 1
145 380 1
146 97 1
146 122 1
146 131 1
146 143 1
146 198 1
146 219 1
146 226 1
146 238 1
146 246 1
146 267 1
146 274 1
146 286 1
146 341 1
146 364 1
146 369 1
146 381 1
147 100 1
147 125 1
147 128 1
147 140 1
147 197 1
147 220 1
147 225 1
147 237 1
147 245 1
147 268 1
147 273 1
147 285 1
147 342 1
147 363 1
147 370 1
147 382 1
148 99 1
148 126 1
148 127 1
148 139 1
148 194 1
148 217 1
148 228 1
148 240 1
148 242 1
148 265 1
148 276 1
148 288 1
148 337 1
148 362 1
148 371 1
148 383 1
149 102 1
149 123 1
149 130 1
149 142 1
149 193 1
149 218 1
149 227 1
149 239 1
149 241 1
149 266 1
149 275 1
149 287 1
149 338 1
149 361 1
149 372 1
149 384 1
150 101 1
150 124 1
150 129 1
150 141 1
150 196 1
150 221 1
150 224 1
150 236 1
150 244 1
150 269 1
150 272 1
150 284 1
150 339 1
150 366 1
150 367 1
150 379 1
151 104 1
151 121 1
151 138 1
151 144 1
151 201 1
151 222 1
151 229 1
151 235 1
151 249 1
151 270 1
151 277 1
151 283 1
151 346 1
151 365 1
151 374 1
151 380 1
152 103 1
152 122 1
152 137 1
152 143 1
152 204 1
152 219 1
152 232 1
152 238 1
152 252 1
152 267 1
152 280 1
152 286 1
152 347 1
152 364 1
152 375 1
152 381 1
153 106 1
153 125 1
153 134 1
153 140 1
153 203 1
153 220 1
153 231 1
153 237 1
153 251 1
153 268 1
153 279 1
153 285 1
153 348 1
153 363 1
153 376 1
153 382 1
154 105 1
154 126 1
154 133 1
154 139 1
154 200 1
154 217 1
154 234 1
154 240 1
154 248 1
154 265 1
154 282 1
154 288 1
154 343 1
154 362 1
154 377 1
154 383 1
155 108 1
155 123 1
155 136 1
155 142 1
155 199 1
155 218 1
155 233 1
155 239 1
155 247 1
155 266 1
155 281 1
155 287 1
155 344 1
155 361 1
155 378 1
155 384 1
156 107 1
156 124 1
156 135 1
156 141 1
156 202 1
156 221 1
156 230 1
156 236 1
156 250 1
156 269 1
156 278 1
156 284 1
156 345 1
156 366 1
156 373 1
156 379 1
157 110 1
157 132 1
157 138 1
157 144 1
157 207 1
157 223 1
157 229 1
157 235 1
157 255 1
157 271 1
157 277 1
157 283 1
157 352 1
157 368 1
157 374 1
157 380 1
158 109 1
158 131 1
158 137 1
158 143 1
158 210 1
158 226 1
158 232 1
158 238 1
158 258 1
158 274 1
158 280 1
158 286 1
158 353 1
158 369 1
158 375 1
158 381 1
159 112 1
159 128 1
159 134 1
159 140 1
159 209 1
159 225 1
159 231 1
159 237 1
159 257 1
159 273 1
159 279 1
159 285 1
159 354 1
159 370 1
159 376 1
159 382 1
160 111 1
160 127 1
160 133 1
160 139 1
160 206 1
160 228 1
160 234 1
160 240 1
160 254 1
160 276 1
160 282 1
160 288 1
160 349 1
160 371 1
160 377 1
160 383 1
161 114 1
161 130 1
161 136 1
161 142 1
161 205 1
161 227 1
161 233 1
161 239 1
161 253 1
161 275 1
161 281 1
161 287 1
161 350 1
161 372 1
161 378 1
161 384 1
162 113 1
162 129 1
162 135 1
162 141 1
162 208 1
162 224 1
162 230 1
162 236 1
162 256 1
162 272 1
162 278 1
162 284 1
162 351 1
162 367 1
162 373 1
162 379 1
163 115 1
163 121 1
163 132 1
163 138 1
163 216 1
163 222 1
163 223 1
163 229 1
163 264 1
163 270 1
163 271 1
163 277 1
163 359 1
163 365 1
163 368 1
163 374 1
164 116 1
164 122 1
164 131 1
164 137 1
164 213 1
164 219 1
164 226 1
164 232 1
164 261 1
164 267 1
164 274 1
164 280 1
164 358 1
164 364 1
164 369 1
164 375 1
165 119 1
165 125 1
165 128 1
165 134 1
165 214 1
165 220 1
165 225 1
165 231 1
165 262 1
165 268 1
165 273 1
165 279 1
165 357 1
165 363 1
165 370 1
165 376 1
166 120 1
166 126 1
166 127 1
166 133 1
166 211 1
166 217 1
166 228 1
166 234 1
166 259 1
166 265 1
166 276 1
166 282 1
166 356 1
166 362 1
166 371 1
166 377 1
167 117 1
167 123 1
167 130 1
167 136 1
167 212 1
167 218 1
167 227 1
167 233 1
167 260 1
167 266 1
167 275 1
167 281 1
167 355 1
167 361 1
167 372 1
167 378 1
168 118 1
168 124 1
168 129 1
168 135 1
168 215 1
168 221 1
168 224 1
168 230 1
168 263 1
168 269 1
168 272 1
168 278 1
168 360 1
168 366 1
168 367 1
168 373 1
169 146 1
169 169 1
169 180 1
169 192 1
169 243 1
169 270 1
169 271 1
169 283 1
169 291 1
169 318 1
169 319 1
169 331 1
169 340 1
169 365 1
169 368 1
169 380 1
170 145 1
170 170 1
170 179 1
170 191 1
170 246 1
170 267 1
170 274 1
170 286 1
170 294 1
170 315 1
170 322 1
170 334 1
170 341 1
170 364 1
170 369 1
170 381 1
171 148 1
171 173 1
171 176 1
171 188 1
171 245 1
171 268 1
171 273 1
171 285 1
171 293 1
171 316 1
171 321 1
171 333 1
171 342 1
171 363 1
171 370 1
171 382 1
172 147 1
172 174 1
172 175 1
172 187 1
172 242 1
172 265 1
172 276 1
172 288 1
172 290 1
172 313 1
172 324 1
172 336 1
172 337 1
172 362 1
172 371 1
172 383 1
173 150 1
173 171 1
173 178 1
173 190 1
173 241 1
173 266 1
173 275 1
173 287 1
173 289 1
173 314 1
173 323 1
173 335 1
173 338 1
173 361 1
173 372 1
173 384 1
174 149 1
174 172 1
174 177 1
174 189 1
174 244 1
174 269 1
174 272 1
174 284 1
174 292 1
174 317 1
174 320 1
174 332 1
174 339 1
174 366 1
174 367 1
174 379 1
175 152 1
175 169 1
175 186 1
175 192 1
175 249 1
175 270 1
175 277 1
175 283 1
175 297 1
175 318 1
175 325 1
175 331 1
175 346 1
175 365 1
175 374 1
175 380 1
176 151 1
176 170 1
176 185 1
176 191 1
176 252 1
176 267 1
176 280 1
176 286 1
176 300 1
176 315 1
176 328 1
176 334 1
176 347 1
176 364 1
176 375 1
176 381 1
177 154 1
177 173 1
177 182 1
177 188 1
177 251 1
177 268 1
177 279 1
177 285 1
177 299 1
177 316 1
177 327 1
177 333 1
177 348 1
177 363 1
177 376 1
177 382 1
178 153 1
178 174 1
178 181 1
178 187 1
178 248 1
178 265 1
178 282 1
178 288 1
178 296 1
178 313 1
178 330 1
178 336 1
178 343 1
178 362 1
178 377 1
178 383 1
179 156 1
179 171 1
179 184 1
179 190 1
179 247 1
179 266 1
179 281 1
179 287 1
179 295 1
179 314 1
179 329 1
179 335 1
179 344 1
179 361 1
179 378 1
179 384 1
180 155 1
180 172 1
180 183 1
180 189 1
180 250 1
180 269 1
180 278 1
180 284 1
180 298 1
180 317 1
180 326 1
180 332 1
180 345 1
180 366 1
180 373 1
180 379 1
181 158 1
181 180 1
181 186 1
181 192 1
181 255 1
181 271 1
181 277 1
181 283 1
181 303 1
181 319 1
181 325 1
181 331 1
181 352 1
181 368 1
181 374 1
181 380 1
182 157 1
182 179 1
182 185 1
182 191 1
182 258 1
182 274 1
182 280 1
182 286 1
182 306 1
182 322 1
182 328 1
182 334 1
182 353 1
182 369 1
182 375 1
182 381 1
183 160 1
183 176 1
183 182 1
183 188 1
183 257 1
183 273 1
183 279 1
183 285 1
183 305 1
183 321 1
183 327 1
183 333 1
183 354 1
183 370 1
183 376 1
183 382 1
184 159 1
184 175 1
184 181 1
184 187 1
184 254 1
184 276 1
184 282 1
184 288 1
184 302 1
184 324 1
184 330 1
184 336 1
184 349 1
184 371 1
184 377 1
184 383 1
185 162 1
185 178 1
185 184 1
185 190 1
185 253 1
185 275 1
185 281 1
185 287 1
185 301 1
185 323 1
185 329 1
185 335 1
185 350 1
185 372 1
185 378 1
185 384 1
186 161 1
186 177 1
186 183 1
186 189 1
186 256 1
186 272 1
186 278 1
186 284 1
186 304 1
186 320 1
186 326 1
186 332 1
186 351 1
186 367 1
186 373 1
186 379 1
187 163 1
187 169 1
187 180 1
187 186 1
187 264 1
187 270 1
187 271 1
187 277 1
187 312 1
187 318 1
187 319 1
187 325 1
187 359 1
187 365 1
187 368 1
187 374 1
188 164 1
188 170 1
188 179 1
188 185 1
188 261 1
188 267 1
188 274 1
188 280 1
188 309 1
188 315 1
188 322 1
188 328 1
188 358 1
188 364 1
188 369 1
188 375 1
189 167 1
189 173 1
189 176 1
189 182 1
189 262 1
189 268 1
189 273 1
189 279 1
189 310 1
189 316 1
189 321 1
189 327 1
189 357 1
189 363 1
189 370 1
189 376 1
190 168 1
190 174 1
190 175 1
190 181 1
190 259 1
190 265 1
190 276 1
190 282 1
190 307 1
190 313 1
190 324 1
190 330 1
190 356 1
190 362 1
190 371 1
190 377 1
191 165 1
191 171 1
191 178 1
191 184 1
191 260 1
191 266 1
191 275 1
191 281 1
191 308 1
191 314 1
191 323 1
191 329 1
191 355 1
191 361 1
191 372 1
191 378 1
192 166 1
192 172 1
192 177 1
192 183 1
192 263 1
192 269 1
192 272 1
192 278 1
192 311 1
192 317 1
192 320 1
192 326 1
192 360 1
192 366 1
192 367 1
192 373 1
