%%MatrixMarket matrix coordinate integer general
306 612 2754
1 1 1
1 18 1
1 59 1
1 307 1
1 324 1
1 365 1
1 409 1
1 426 1
1 467 1
2 2 1
2 19 1
2 60 1
2 308 1
2 325 1
2 366 1
2 410 1
2 427 1
2 468 1
3 3 1
3 20 1
3 61 1
3 309 1
3 326 1
3 367 1
3 411 1
3 428 1
3 469 1
4 4 1
4 21 1
4 62 1
4 310 1
4 327 1
4 368 1
4 412 1
4 429 1
4 470 1
5 5 1
5 22 1
5 63 1
5 311 1
5 328 1
5 369 1
5 413 1
5 430 1
5 471 1
6 6 1
6 23 1
6 64 1
6 312 1
6 329 1
6 370 1
6 414 1
6 431 1
6 472 1
7 7 1
7 24 1
7 65 1
7 313 1
7 330 1
7 371 1
7 415 1
7 432 1
7 473 1
8 8 1
8 25 1
8 66 1
8 314 1
8 331 1
8 372 1
8 416 1
8 433 1
8 474 1
9 9 1
9 26 1
9 67 1
9 315 1
9 332 1
9 373 1
9 417 1
9 434 1
9 475 1
10 10 1
10 27 1
10 68 1
10 316 1
10 333 1
10 374 1
10 418 1
10 435 1
10 476 1
11 11 1
11 28 1
11 52 1
11 317 1
11 334 1
11 358 1
11 419 1
11 436 1
11 460 1
12 12 1
12 29 1
12 53 1
12 318 1
12 335 1
12 359 1
12 420 1
12 437 1
12 461 1
13 13 1
13 30 1
13 54 1
13 319 1
13 336 1
13 360 1
13 421 1
13 438 1
13 462 1
14 14 1
14 31 1
14 55 1
14 320 1
14 337 1
14 361 1
14 422 1
14 439 1
14 463 1
15 15 1
15 32 1
15 56 1
15 321 1
15 338 1
15 362 1
15 423 1
15 440 1
15 464 1
16 16 1
16 33 1
16 57 1
16 322 1
16 339 1
16 363 1
16 424 1
16 441 1
16 465 1
17 17 1
17 34 1
17 58 1
17 323 1
17 340 1
17 364 1
17 425 1
17 442 1
17 466 1
18 1 1
18 51 1
18 74 1
18 307 1
18 357 1
18 380 1
18 409 1
18 459 1
18 482 1
19 2 1
19 35 1
19 75 1
19 308 1
19 341 1
19 381 1
19 410 1
19 443 1
19 483 1
20 3 1
20 36 1
20 76 1
20 309 1
20 342 1
20 382 1
20 411 1
20 444 1
20 484 1
21 4 1
21 37 1
21 77 1
21 310 1
21 343 1
21 383 1
21 412 1
21 445 1
21 485 1
22 5 1
22 38 1
22 78 1
22 311 1
22 344 1
22 384 1
22 413 1
22 446 1
22 486 1
23 6 1
23 39 1
23 79 1
23 312 1
23 345 1
23 385 1
23 414 1
23 447 1
23 487 1
24 7 1
24 40 1
24 80 1
24 313 1
24 346 1
24 386 1
24 415 1
24 448 1
24 488 1
25 8 1
25 41 1
25 81 1
25 314 1
25 347 1
25 387 1
25 416 1
25 449 1
25 489 1
26 9 1
26 42 1
26 82 1
26 315 1
26 348 1
26 388 1
26 417 1
26 450 1
26 490 1
27 10 1
27 43 1
27 83 1
27 316 1
27 349 1
27 389 1
27 418 1
27 451 1
27 491 1
28 11 1
28 44 1
28 84 1
28 317 1
28 350 1
28 390 1
28 419 1
28 452 1
28 492 1
29 12 1
29 45 1
29 85 1
29 318 1
29 351 1
29 391 1
29 420 1
29 453 1
29 493 1
30 13 1
30 46 1
30 69 1
30 319 1
30 352 1
30 375 1
30 421 1
30 454 1
30 477 1
31 14 1
31 47 1
31 70 1
31 320 1
31 353 1
31 376 1
31 422 1
31 455 1
31 478 1
32 15 1
32 48 1
32 71 1
32 321 1
32 354 1
32 377 1
32 423 1
32 456 1
32 479 1
33 16 1
33 49 1
33 72 1
33 322 1
33 355 1
33 378 1
33 424 1
33 457 1
33 480 1
34 17 1
34 50 1
34 73 1
34 323 1
34 356 1
34 379 1
34 425 1
34 458 1
34 481 1
35 18 1
35 51 1
35 89 1
35 324 1
35 357 1
35 395 1
35 426 1
35 459 1
35 497 1
36 19 1
36 35 1
36 90 1
36 325 1
36 341 1
36 396 1
36 427 1
36 443 1
36 498 1
37 20 1
37 36 1
37 91 1
37 326 1
37 342 1
37 397 1
37 428 1
37 444 1
37 499 1
38 21 1
38 37 1
38 92 1
38 327 1
38 343 1
38 398 1
38 429 1
38 445 1
38 500 1
39 22 1
39 38 1
39 93 1
39 328 1
39 344 1
39 399 1
39 430 1
39 446 1
39 501 1
40 23 1
40 39 1
40 94 1
40 329 1
40 345 1
40 400 1
40 431 1
40 447 1
40 502 1
41 24 1
41 40 1
41 95 1
41 330 1
41 346 1
41 401 1
41 432 1
41 448 1
41 503 1
42 25 1
42 41 1
42 96 1
42 331 1
42 347 1
42 402 1
42 433 1
42 449 1
42 504 1
43 26 1
43 42 1
43 97 1
43 332 1
43 348 1
43 403 1
43 434 1
43 450 1
43 505 1
44 27 1
44 43 1
44 98 1
44 333 1
44 349 1
44 404 1
44 435 1
44 451 1
44 506 1
45 28 1
45 44 1
45 99 1
45 334 1
45 350 1
45 405 1
45 436 1
45 452 1
45 507 1
46 29 1
46 45 1
46 100 1
46 335 1
46 351 1
46 406 1
46 437 1
46 453 1
46 508 1
47 30 1
47 46 1
47 101 1
47 336 1
47 352 1
47 407 1
47 438 1
47 454 1
47 509 1
48 31 1
48 47 1
48 102 1
48 337 1
48 353 1
48 408 1
48 439 1
48 455 1
48 510 1
49 32 1
49 48 1
49 86 1
49 338 1
49 354 1
49 392 1
49 440 1
49 456 1
49 494 1
50 33 1
50 49 1
50 87 1
50 339 1
50 355 1
50 393 1
50 441 1
50 457 1
50 495 1
51 34 1
51 50 1
51 88 1
51 340 1
51 356 1
51 394 1
51 442 1
51 458 1
51 496 1
52 103 1
52 120 1
52 161 1
52 307 1
52 324 1
52 365 1
52 511 1
52 528 1
52 569 1
53 104 1
53 121 1
53 162 1
53 308 1
53 325 1
53 366 1
53 512 1
53 529 1
53 570 1
54 105 1
54 122 1
54 163 1
54 309 1
54 326 1
54 367 1
54 513 1
54 530 1
54 571 1
55 106 1
55 123 1
55 164 1
55 310 1
55 327 1
55 368 1
55 514 1
55 531 1
55 572 1
56 107 1
56 124 1
56 165 1
56 311 1
56 328 1
56 369 1
56 515 1
56 532 1
56 573 1
57 108 1
57 125 1
57 166 1
57 312 1
57 329 1
57 370 1
57 516 1
57 533 1
57 574 1
58 109 1
58 126 1
58 167 1
58 313 1
58 330 1
58 371 1
58 517 1
58 534 1
58 575 1
59 110 1
59 127 1
59 168 1
59 314 1
59 331 1
59 372 1
59 518 1
59 535 1
59 576 1
60 111 1
60 128 1
60 169 1
60 315 1
60 332 1
60 373 1
60 519 1
60 536 1
60 577 1
61 112 1
61 129 1
61 170 1
61 316 1
61 333 1
61 374 1
61 520 1
61 537 1
61 578 1
62 113 1
62 130 1
62 154 1
62 317 1
62 334 1
62 358 1
62 521 1
62 538 1
62 562 1
63 114 1
63 131 1
63 155 1
63 318 1
63 335 1
63 359 1
63 522 1
63 539 1
63 563 1
64 115 1
64 132 1
64 156 1
64 319 1
64 336 1
64 360 1
64 523 1
64 540 1
64 564 1
65 116 1
65 133 1
65 157 1
65 320 1
65 337 1
65 361 1
65 524 1
65 541 1
65 565 1
66 117 1
66 134 1
66 158 1
66 321 1
66 338 1
66 362 1
66 525 1
66 542 1
66 566 1
67 118 1
67 135 1
67 159 1
67 322 1
67 339 1
67 363 1
67 526 1
67 543 1
67 567 1
68 119 1
68 136 1
68 160 1
68 323 1
68 340 1
68 364 1
68 527 1
68 544 1
68 568 1
69 103 1
69 153 1
69 176 1
69 307 1
69 357 1
69 380 1
69 511 1
69 561 1
69 584 1
70 104 1
70 137 1
70 177 1
70 308 1
70 341 1
70 381 1
70 512 1
70 545 1
70 585 1
71 105 1
71 138 1
71 178 1
71 309 1
71 342 1
71 382 1
71 513 1
71 546 1
71 586 1
72 106 1
72 139 1
72 179 1
72 310 1
72 343 1
72 383 1
72 514 1
72 547 1
72 587 1
73 107 1
73 140 1
73 180 1
73 311 1
73 344 1
73 384 1
73 515 1
73 548 1
73 588 1
74 108 1
74 141 1
74 181 1
74 312 1
74 345 1
74 385 1
74 516 1
74 549 1
74 589 1
75 109 1
75 142 1
75 182 1
75 313 1
75 346 1
75 386 1
75 517 1
75 550 1
75 590 1
76 110 1
76 143 1
76 183 1
76 314 1
76 347 1
76 387 1
76 518 1
76 551 1
76 591 1
77 111 1
77 144 1
77 184 1
77 315 1
77 348 1
77 388 1
77 519 1
77 552 1
77 592 1
78 112 1
78 145 1
78 185 1
78 316 1
78 349 1
78 389 1
78 520 1
78 553 1
78 593 1
79 113 1
79 146 1
79 186 1
79 317 1
79 350 1
79 390 1
79 521 1
79 554 1
79 594 1
80 114 1
80 147 1
80 187 1
80 318 1
80 351 1
80 391 1
80 522 1
80 555 1
80 595 1
81 115 1
81 148 1
81 171 1
81 319 1
81 352 1
81 375 1
81 523 1
81 556 1
81 579 1
82 116 1
82 149 1
82 172 1
82 320 1
82 353 1
82 376 1
82 524 1
82 557 1
82 580 1
83 117 1
83 150 1
83 173 1
83 321 1
83 354 1
83 377 1
83 525 1
83 558 1
83 581 1
84 118 1
84 151 1
84 174 1
84 322 1
84 355 1
84 378 1
84 526 1
84 559 1
84 582 1
85 119 1
85 152 1
85 175 1
85 323 1
85 356 1
85 379 1
85 527 1
85 560 1
85 583 1
86 120 1
86 153 1
86 191 1
86 324 1
86 357 1
86 395 1
86 528 1
86 561 1
86 599 1
87 121 1
87 137 1
87 192 1
87 325 1
87 341 1
87 396 1
87 529 1
87 545 1
87 600 1
88 122 1
88 138 1
88 193 1
88 326 1
88 342 1
88 397 1
88 530 1
88 546 1
88 601 1
89 123 1
89 139 1
89 194 1
89 327 1
89 343 1
89 398 1
89 531 1
89 547 1
89 602 1
90 124 1
90 140 1
90 195 1
90 328 1
90 344 1
90 399 1
90 532 1
90 548 1
90 603 1
91 125 1
91 141 1
91 196 1
91 329 1
91 345 1
91 400 1
91 533 1
91 549 1
91 604 1
92 126 1
92 142 1
92 197 1
92 330 1
92 346 1
92 401 1
92 534 1
92 550 1
92 605 1
93 127 1
93 143 1
93 198 1
93 331 1
93 347 1
93 402 1
93 535 1
93 551 1
93 606 1
94 128 1
94 144 1
94 199 1
94 332 1
94 348 1
94 403 1
94 536 1
94 552 1
94 607 1
95 129 1
95 145 1
95 200 1
95 333 1
95 349 1
95 404 1
95 537 1
95 553 1
95 608 1
96 130 1
96 146 1
96 201 1
96 334 1
96 350 1
96 405 1
96 538 1
96 554 1
96 609 1
97 131 1
97 147 1
97 202 1
97 335 1
97 351 1
97 406 1
97 539 1
97 555 1
97 610 1
98 132 1
98 148 1
98 203 1
98 336 1
98 352 1
98 407 1
98 540 1
98 556 1
98 611 1
99 133 1
99 149 1
99 204 1
99 337 1
99 353 1
99 408 1
99 541 1
99 557 1
99 612 1
100 134 1
100 150 1
100 188 1
100 338 1
100 354 1
100 392 1
100 542 1
100 558 1
100 596 1
101 135 1
101 151 1
101 189 1
101 339 1
101 355 1
101 393 1
101 543 1
101 559 1
101 597 1
102 136 1
102 152 1
102 190 1
102 340 1
102 356 1
102 394 1
102 544 1
102 560 1
102 598 1
103 205 1
103 222 1
103 263 1
103 409 1
103 426 1
103 467 1
103 511 1
103 528 1
103 569 1
104 206 1
104 223 1
104 264 1
104 410 1
104 427 1
104 468 1
104 512 1
104 529 1
104 570 1
105 207 1
105 224 1
105 265 1
105 411 1
105 428 1
105 469 1
105 513 1
105 530 1
105 571 1
106 208 1
106 225 1
106 266 1
106 412 1
106 429 1
106 470 1
106 514 1
106 531 1
106 572 1
107 209 1
107 226 1
107 267 1
107 413 1
107 430 1
107 471 1
107 515 1
107 532 1
107 573 1
108 210 1
108 227 1
108 268 1
108 414 1
108 431 1
108 472 1
108 516 1
108 533 1
108 574 1
109 211 1
109 228 1
109 269 1
109 415 1
109 432 1
109 473 1
109 517 1
109 534 1
109 575 1
110 212 1
110 229 1
110 270 1
110 416 1
110 433 1
110 474 1
110 518 1
110 535 1
110 576 1
111 213 1
111 230 1
111 271 1
111 417 1
111 434 1
111 475 1
111 519 1
111 536 1
111 577 1
112 214 1
112 231 1
112 272 1
112 418 1
112 435 1
112 476 1
112 520 1
112 537 1
112 578 1
113 215 1
113 232 1
113 256 1
113 419 1
113 436 1
113 460 1
113 521 1
113 538 1
113 562 1
114 216 1
114 233 1
114 257 1
114 420 1
114 437 1
114 461 1
114 522 1
114 539 1
114 563 1
115 217 1
115 234 1
115 258 1
115 421 1
115 438 1
115 462 1
115 523 1
115 540 1
115 564 1
116 218 1
116 235 1
116 259 1
116 422 1
116 439 1
116 463 1
116 524 1
116 541 1
116 565 1
117 219 1
117 236 1
117 260 1
117 423 1
117 440 1
117 464 1
117 525 1
117 542 1
117 566 1
118 220 1
118 237 1
118 261 1
118 424 1
118 441 1
118 465 1
118 526 1
118 543 1
118 567 1
119 221 1
119 238 1
119 262 1
119 425 1
119 442 1
119 466 1
119 527 1
119 544 1
119 568 1
120 205 1
120 255 1
120 278 1
120 409 1
120 459 1
120 482 1
120 511 1
120 561 1
120 584 1
121 206 1
121 239 1
121 279 1
121 410 1
121 443 1
121 483 1
121 512 1
121 545 1
121 585 1
122 207 1
122 240 1
122 280 1
122 411 1
122 444 1
122 484 1
122 513 1
122 546 1
122 586 1
123 208 1
123 241 1
123 281 1
123 412 1
123 445 1
123 485 1
123 514 1
123 547 1
123 587 1
124 209 1
124 242 1
124 282 1
124 413 1
124 446 1
124 486 1
124 515 1
124 548 1
124 588 1
125 210 1
125 243 1
125 283 1
125 414 1
125 447 1
125 487 1
125 516 1
125 549 1
125 589 1
126 211 1
126 244 1
126 284 1
126 415 1
126 448 1
126 488 1
126 517 1
126 550 1
126 590 1
127 212 1
127 245 1
127 285 1
127 416 1
127 449 1
127 489 1
127 518 1
127 551 1
127 591 1
128 213 1
128 246 1
128 286 1
128 417 1
128 450 1
128 490 1
128 519 1
128 552 1
128 592 1
129 214 1
129 247 1
129 287 1
129 418 1
129 451 1
129 491 1
129 520 1
129 553 1
129 593 1
130 215 1
130 248 1
130 288 1
130 419 1
130 452 1
130 492 1
130 521 1
130 554 1
130 594 1
131 216 1
131 249 1
131 289 1
131 420 1
131 453 1
131 493 1
131 522 1
131 555 1
131 595 1
132 217 1
132 250 1
132 273 1
132 421 1
132 454 1
132 477 1
132 523 1
132 556 1
132 579 1
133 218 1
133 251 1
133 274 1
133 422 1
133 455 1
133 478 1
133 524 1
133 557 1
133 580 1
134 219 1
134 252 1
134 275 1
134 423 1
134 456 1
134 479 1
134 525 1
134 558 1
134 581 1
135 220 1
135 253 1
135 276 1
135 424 1
135 457 1
135 480 1
135 526 1
135 559 1
135 582 1
136 221 1
136 254 1
136 277 1
136 425 1
136 458 1
136 481 1
136 527 1
136 560 1
136 583 1
137 222 1
137 255 1
137 293 1
137 426 1
137 459 1
137 497 1
137 528 1
137 561 1
137 599 1
138 223 1
138 239 1
138 294 1
138 427 1
138 443 1
138 498 1
138 529 1
138 545 1
138 600 1
139 224 1
139 240 1
139 295 1
139 428 1
139 444 1
139 499 1
139 530 1
139 546 1
139 601 1
140 225 1
140 241 1
140 296 1
140 429 1
140 445 1
140 500 1
140 531 1
140 547 1
140 602 1
141 226 1
141 242 1
141 297 1
141 430 1
141 446 1
141 501 1
141 532 1
141 548 1
141 603 1
142 227 1
142 243 1
142 298 1
142 431 1
142 447 1
142 502 1
142 533 1
142 549 1
142 604 1
143 228 1
143 244 1
143 299 1
143 432 1
143 448 1
143 503 1
143 534 1
143 550 1
143 605 1
144 229 1
144 245 1
144 300 1
144 433 1
144 449 1
144 504 1
144 535 1
144 551 1
144 606 1
145 230 1
145 246 1
145 301 1
145 434 1
145 450 1
145 505 1
145 536 1
145 552 1
145 607 1
146 231 1
146 247 1
146 302 1
146 435 1
146 451 1
146 506 1
146 537 1
146 553 1
146 608 1
147 232 1
147 248 1
147 303 1
147 436 1
147 452 1
147 507 1
147 538 1
147 554 1
147 609 1
148 233 1
148 249 1
148 304 1
148 437 1
148 453 1
148 508 1
148 539 1
148 555 1
148 610 1
149 234 1
149 250 1
149 305 1
149 438 1
149 454 1
149 509 1
149 540 1
149 556 1
149 611 1
150 235 1
150 251 1
150 306 1
150 439 1
150 455 1
150 510 1
150 541 1
150 557 1
150 612 1
151 236 1
151 252 1
151 290 1
151 440 1
151 456 1
151 494 1
151 542 1
151 558 1
151 596 1
152 237 1
152 253 1
152 291 1
152 441 1
152 457 1
152 495 1
152 543 1
152 559 1
152 597 1
153 238 1
153 254 1
153 292 1
153 442 1
153 458 1
153 496 1
153 544 1
153 560 1
153 598 1
154 1 1
154 18 1
154 52 1
154 316 1
154 333 1
154 367 1
154 419 1
154 436 1
154 470 1
155 2 1
155 19 1
155 53 1
155 317 1
155 334 1
155 368 1
155 420 1
155 437 1
155 471 1
156 3 1
156 20 1
156 54 1
156 318 1
156 335 1
156 369 1
156 421 1
156 438 1
156 472 1
157 4 1
157 21 1
157 55 1
157 319 1
157 336 1
157 370 1
157 422 1
157 439 1
157 473 1
158 5 1
158 22 1
158 56 1
158 320 1
158 337 1
158 371 1
158 423 1
158 440 1
158 474 1
159 6 1
159 23 1
159 57 1
159 321 1
159 338 1
159 372 1
159 424 1
159 441 1
159 475 1
160 7 1
160 24 1
160 58 1
160 322 1
160 339 1
160 373 1
160 425 1
160 442 1
160 476 1
161 8 1
161 25 1
161 59 1
161 323 1
161 340 1
161 374 1
161 409 1
161 426 1
161 460 1
162 9 1
162 26 1
162 60 1
162 307 1
162 324 1
162 358 1
162 410 1
162 427 1
162 461 1
163 10 1
163 27 1
163 61 1
163 308 1
163 325 1
163 359 1
163 411 1
163 428 1
163 462 1
164 11 1
164 28 1
164 62 1
164 309 1
164 326 1
164 360 1
164 412 1
164 429 1
164 463 1
165 12 1
165 29 1
165 63 1
165 310 1
165 327 1
165 361 1
165 413 1
165 430 1
165 464 1
166 13 1
166 30 1
166 64 1
166 311 1
166 328 1
166 362 1
166 414 1
166 431 1
166 465 1
167 14 1
167 31 1
167 65 1
167 312 1
167 329 1
167 363 1
167 415 1
167 432 1
167 466 1
168 15 1
168 32 1
168 66 1
168 313 1
168 330 1
168 364 1
168 416 1
168 433 1
168 467 1
169 16 1
169 33 1
169 67 1
169 314 1
169 331 1
169 365 1
169 417 1
169 434 1
169 468 1
170 17 1
170 34 1
170 68 1
170 315 1
170 332 1
170 366 1
170 418 1
170 435 1
170 469 1
171 1 1
171 35 1
171 69 1
171 316 1
171 350 1
171 384 1
171 419 1
171 453 1
171 487 1
172 2 1
172 36 1
172 70 1
172 317 1
172 351 1
172 385 1
172 420 1
172 454 1
172 488 1
173 3 1
173 37 1
173 71 1
173 318 1
173 352 1
173 386 1
173 421 1
173 455 1
173 489 1
174 4 1
174 38 1
174 72 1
174 319 1
174 353 1
174 387 1
174 422 1
174 456 1
174 490 1
175 5 1
175 39 1
175 73 1
175 320 1
175 354 1
175 388 1
175 423 1
175 457 1
175 491 1
176 6 1
176 40 1
176 74 1
176 321 1
176 355 1
176 389 1
176 424 1
176 458 1
176 492 1
177 7 1
177 41 1
177 75 1
177 322 1
177 356 1
177 390 1
177 425 1
177 459 1
177 493 1
178 8 1
178 42 1
178 76 1
178 323 1
178 357 1
178 391 1
178 409 1
178 443 1
178 477 1
179 9 1
179 43 1
179 77 1
179 307 1
179 341 1
179 375 1
179 410 1
179 444 1
179 478 1
180 10 1
180 44 1
180 78 1
180 308 1
180 342 1
180 376 1
180 411 1
180 445 1
180 479 1
181 11 1
181 45 1
181 79 1
181 309 1
181 343 1
181 377 1
181 412 1
181 446 1
181 480 1
182 12 1
182 46 1
182 80 1
182 310 1
182 344 1
182 378 1
182 413 1
182 447 1
182 481 1
183 13 1
183 47 1
183 81 1
183 311 1
183 345 1
183 379 1
183 414 1
183 448 1
183 482 1
184 14 1
184 48 1
184 82 1
184 312 1
184 346 1
184 380 1
184 415 1
184 449 1
184 483 1
185 15 1
185 49 1
185 83 1
185 313 1
185 347 1
185 381 1
185 416 1
185 450 1
185 484 1
186 16 1
186 50 1
186 84 1
186 314 1
186 348 1
186 382 1
186 417 1
186 451 1
186 485 1
187 17 1
187 51 1
187 85 1
187 315 1
187 349 1
187 383 1
187 418 1
187 452 1
187 486 1
188 18 1
188 35 1
188 86 1
188 333 1
188 350 1
188 401 1
188 436 1
188 453 1
188 504 1
189 19 1
189 36 1
189 87 1
189 334 1
189 351 1
189 402 1
189 437 1
189 454 1
189 505 1
190 20 1
190 37 1
190 88 1
190 335 1
190 352 1
190 403 1
190 438 1
190 455 1
190 506 1
191 21 1
191 38 1
191 89 1
191 336 1
191 353 1
191 404 1
191 439 1
191 456 1
191 507 1
192 22 1
192 39 1
192 90 1
192 337 1
192 354 1
192 405 1
192 440 1
192 457 1
192 508 1
193 23 1
193 40 1
193 91 1
193 338 1
193 355 1
193 406 1
193 441 1
193 458 1
193 509 1
194 24 1
194 41 1
194 92 1
194 339 1
194 356 1
194 407 1
194 442 1
194 459 1
194 510 1
195 25 1
195 42 1
195 93 1
195 340 1
195 357 1
195 408 1
195 426 1
195 443 1
195 494 1
196 26 1
196 43 1
196 94 1
196 324 1
196 341 1
196 392 1
196 427 1
196 444 1
196 495 1
197 27 1
197 44 1
197 95 1
197 325 1
197 342 1
197 393 1
197 428 1
197 445 1
197 496 1
198 28 1
198 45 1
198 96 1
198 326 1
198 343 1
198 394 1
198 429 1
198 446 1
198 497 1
199 29 1
199 46 1
199 97 1
199 327 1
199 344 1
199 395 1
199 430 1
199 447 1
199 498 1
200 30 1
200 47 1
200 98 1
200 328 1
200 345 1
200 396 1
200 431 1
200 448 1
200 499 1
201 31 1
201 48 1
201 99 1
201 329 1
201 346 1
201 397 1
201 432 1
201 449 1
201 500 1
202 32 1
202 49 1
202 100 1
202 330 1
202 347 1
202 398 1
202 433 1
202 450 1
202 501 1
203 33 1
203 50 1
203 101 1
203 331 1
203 348 1
203 399 1
203 434 1
203 451 1
203 502 1
204 34 1
204 51 1
204 102 1
204 332 1
204 349 1
204 400 1
204 435 1
204 452 1
204 503 1
205 104 1
205 121 1
205 155 1
205 316 1
205 333 1
205 367 1
205 522 1
205 539 1
205 573 1
206 105 1
206 122 1
206 156 1
206 317 1
206 334 1
206 368 1
206 523 1
206 540 1
206 574 1
207 106 1
207 123 1
207 157 1
207 318 1
207 335 1
207 369 1
207 524 1
207 541 1
207 575 1
208 107 1
208 124 1
208 158 1
208 319 1
208 336 1
208 370 1
208 525 1
208 542 1
208 576 1
209 108 1
209 125 1
209 159 1
209 320 1
209 337 1
209 371 1
209 526 1
209 543 1
209 577 1
210 109 1
210 126 1
210 160 1
210 321 1
210 338 1
210 372 1
210 527 1
210 544 1
210 578 1
211 110 1
211 127 1
211 161 1
211 322 1
211 339 1
211 373 1
211 511 1
211 528 1
211 562 1
212 111 1
212 128 1
212 162 1
212 323 1
212 340 1
212 374 1
212 512 1
212 529 1
212 563 1
213 112 1
213 129 1
213 163 1
213 307 1
213 324 1
213 358 1
213 513 1
213 530 1
213 564 1
214 113 1
214 130 1
214 164 1
214 308 1
214 325 1
214 359 1
214 514 1
214 531 1
214 565 1
215 114 1
215 131 1
215 165 1
215 309 1
215 326 1
215 360 1
215 515 1
215 532 1
215 566 1
216 115 1
216 132 1
216 166 1
216 310 1
216 327 1
216 361 1
216 516 1
216 533 1
216 567 1
217 116 1
217 133 1
217 167 1
217 311 1
217 328 1
217 362 1
217 517 1
217 534 1
217 568 1
218 117 1
218 134 1
218 168 1
218 312 1
218 329 1
218 363 1
218 518 1
218 535 1
218 569 1
219 118 1
219 135 1
219 169 1
219 313 1
219 330 1
219 364 1
219 519 1
219 536 1
219 570 1
220 119 1
220 136 1
220 170 1
220 314 1
220 331 1
220 365 1
220 520 1
220 537 1
220 571 1
221 103 1
221 120 1
221 154 1
221 315 1
221 332 1
221 366 1
221 521 1
221 538 1
221 572 1
222 104 1
222 138 1
222 172 1
222 316 1
222 350 1
222 384 1
222 522 1
222 556 1
222 590 1
223 105 1
223 139 1
223 173 1
223 317 1
223 351 1
223 385 1
223 523 1
223 557 1
223 591 1
224 106 1
224 140 1
224 174 1
224 318 1
224 352 1
224 386 1
224 524 1
224 558 1
224 592 1
225 107 1
225 141 1
225 175 1
225 319 1
225 353 1
225 387 1
225 525 1
225 559 1
225 593 1
226 108 1
226 142 1
226 176 1
226 320 1
226 354 1
226 388 1
226 526 1
226 560 1
226 594 1
227 109 1
227 143 1
227 177 1
227 321 1
227 355 1
227 389 1
227 527 1
227 561 1
227 595 1
228 110 1
228 144 1
228 178 1
228 322 1
228 356 1
228 390 1
228 511 1
228 545 1
228 579 1
229 111 1
229 145 1
229 179 1
229 323 1
229 357 1
229 391 1
229 512 1
229 546 1
229 580 1
230 112 1
230 146 1
230 180 1
230 307 1
230 341 1
230 375 1
230 513 1
230 547 1
230 581 1
231 113 1
231 147 1
231 181 1
231 308 1
231 342 1
231 376 1
231 514 1
231 548 1
231 582 1
232 114 1
232 148 1
232 182 1
232 309 1
232 343 1
232 377 1
232 515 1
232 549 1
232 583 1
233 115 1
233 149 1
233 183 1
233 310 1
233 344 1
233 378 1
233 516 1
233 550 1
233 584 1
234 116 1
234 150 1
234 184 1
234 311 1
234 345 1
234 379 1
234 517 1
234 551 1
234 585 1
235 117 1
235 151 1
235 185 1
235 312 1
235 346 1
235 380 1
235 518 1
235 552 1
235 586 1
236 118 1
236 152 1
236 186 1
236 313 1
236 347 1
236 381 1
236 519 1
236 553 1
236 587 1
237 119 1
237 153 1
237 187 1
237 314 1
237 348 1
237 382 1
237 520 1
237 554 1
237 588 1
238 103 1
238 137 1
238 171 1
238 315 1
238 349 1
238 383 1
238 521 1
238 555 1
238 589 1
239 121 1
239 138 1
239 189 1
239 333 1
239 350 1
239 401 1
239 539 1
239 556 1
239 607 1
240 122 1
240 139 1
240 190 1
240 334 1
240 351 1
240 402 1
240 540 1
240 557 1
240 608 1
241 123 1
241 140 1
241 191 1
241 335 1
241 352 1
241 403 1
241 541 1
241 558 1
241 609 1
242 124 1
242 141 1
242 192 1
242 336 1
242 353 1
242 404 1
242 542 1
242 559 1
242 610 1
243 125 1
243 142 1
243 193 1
243 337 1
243 354 1
243 405 1
243 543 1
243 560 1
243 611 1
244 126 1
244 143 1
244 194 1
244 338 1
244 355 1
244 406 1
244 544 1
244 561 1
244 612 1
245 127 1
245 144 1
245 195 1
245 339 1
245 356 1
245 407 1
245 528 1
245 545 1
245 596 1
246 128 1
246 145 1
246 196 1
246 340 1
246 357 1
246 408 1
246 529 1
246 546 1
246 597 1
247 129 1
247 146 1
247 197 1
247 324 1
247 341 1
247 392 1
247 530 1
247 547 1
247 598 1
248 130 1
248 147 1
248 198 1
248 325 1
248 342 1
248 393 1
248 531 1
248 548 1
248 599 1
249 131 1
249 148 1
249 199 1
249 326 1
249 343 1
249 394 1
249 532 1
249 549 1
249 600 1
250 132 1
250 149 1
250 200 1
250 327 1
250 344 1
250 395 1
250 533 1
250 550 1
250 601 1
251 133 1
251 150 1
251 201 1
251 328 1
251 345 1
251 396 1
251 534 1
251 551 1
251 602 1
252 134 1
252 151 1
252 202 1
252 329 1
252 346 1
252 397 1
252 535 1
252 552 1
252 603 1
253 135 1
253 152 1
253 203 1
253 330 1
253 347 1
253 398 1
253 536 1
253 553 1
253 604 1
254 136 1
254 153 1
254 204 1
254 331 1
254 348 1
254 399 1
254 537 1
254 554 1
254 605 1
255 120 1
255 137 1
255 188 1
255 332 1
255 349 1
255 400 1
255 538 1
255 555 1
255 606 1
256 207 1
256 224 1
256 258 1
256 419 1
256 436 1
256 470 1
256 522 1
256 539 1
256 573 1
257 208 1
257 225 1
257 259 1
257 420 1
257 437 1
257 471 1
257 523 1
257 540 1
257 574 1
258 209 1
258 226 1
258 260 1
258 421 1
258 438 1
258 472 1
258 524 1
258 541 1
258 575 1
259 210 1
259 227 1
259 261 1
259 422 1
259 439 1
259 473 1
259 525 1
259 542 1
259 576 1
260 211 1
260 228 1
260 262 1
260 423 1
260 440 1
260 474 1
260 526 1
260 543 1
260 577 1
261 212 1
261 229 1
261 263 1
261 424 1
261 441 1
261 475 1
261 527 1
261 544 1
261 578 1
262 213 1
262 230 1
262 264 1
262 425 1
262 442 1
262 476 1
262 511 1
262 528 1
262 562 1
263 214 1
263 231 1
263 265 1
263 409 1
263 426 1
263 460 1
263 512 1
263 529 1
263 563 1
264 215 1
264 232 1
264 266 1
264 410 1
264 427 1
264 461 1
264 513 1
264 530 1
264 564 1
265 216 1
265 233 1
265 267 1
265 411 1
265 428 1
265 462 1
265 514 1
265 531 1
265 565 1
266 217 1
266 234 1
266 268 1
266 412 1
266 429 1
266 463 1
266 515 1
266 532 1
266 566 1
267 218 1
267 235 1
267 269 1
267 413 1
267 430 1
267 464 1
267 516 1
267 533 1
267 567 1
268 219 1
268 236 1
268 270 1
268 414 1
268 431 1
268 465 1
268 517 1
268 534 1
268 568 1
269 220 1
269 237 1
269 271 1
269 415 1
269 432 1
269 466 1
269 518 1
269 535 1
269 569 1
270 221 1
270 238 1
270 272 1
270 416 1
270 433 1
270 467 1
270 519 1
270 536 1
270 570 1
271 205 1
271 222 1
271 256 1
271 417 1
271 434 1
271 468 1
271 520 1
271 537 1
271 571 1
272 206 1
272 223 1
272 257 1
272 418 1
272 435 1
272 469 1
272 521 1
272 538 1
272 572 1
273 207 1
273 241 1
273 275 1
273 419 1
273 453 1
273 487 1
273 522 1
273 556 1
273 590 1
274 208 1
274 242 1
274 276 1
274 420 1
274 454 1
274 488 1
274 523 1
274 557 1
274 591 1
275 209 1
275 243 1
275 277 1
275 421 1
275 455 1
275 489 1
275 524 1
275 558 1
275 592 1
276 210 1
276 244 1
276 278 1
276 422 1
276 456 1
276 490 1
276 525 1
276 559 1
276 593 1
277 211 1
277 245 1
277 279 1
277 423 1
277 457 1
277 491 1
277 526 1
277 560 1
277 594 1
278 212 1
278 246 1
278 280 1
278 424 1
278 458 1
278 492 1
278 527 1
278 561 1
278 595 1
279 213 1
279 247 1
279 281 1
279 425 1
279 459 1
279 493 1
279 511 1
279 545 1
279 579 1
280 214 1
280 248 1
280 282 1
280 409 1
280 443 1
280 477 1
280 512 1
280 546 1
280 580 1
281 215 1
281 249 1
281 283 1
281 410 1
281 444 1
281 478 1
281 513 1
281 547 1
281 581 1
282 216 1
282 250 1
282 284 1
282 411 1
282 445 1
282 479 1
282 514 1
282 548 1
282 582 1
283 217 1
283 251 1
283 285 1
283 412 1
283 446 1
283 480 1
283 515 1
283 549 1
283 583 1
284 218 1
284 252 1
284 286 1
284 413 1
284 447 1
284 481 1
284 516 1
284 550 1
284 584 1
285 219 1
285 253 1
285 287 1
285 414 1
285 448 1
285 482 1
285 517 1
285 551 1
285 585 1
286 220 1
286 254 1
286 288 1
286 415 1
286 449 1
286 483 1
286 518 1
286 552 1
286 586 1
287 221 1
287 255 1
287 289 1
287 416 1
287 450 1
287 484 1
287 519 1
287 553 1
287 587 1
288 205 1
288 239 1
288 273 1
288 417 1
288 451 1
288 485 1
288 520 1
288 554 1
288 588 1
289 206 1
289 240 1
289 274 1
289 418 1
289 452 1
289 486 1
289 521 1
289 555 1
289 589 1
290 224 1
290 241 1
290 292 1
290 436 1
290 453 1
290 504 1
290 539 1
290 556 1
290 607 1
291 225 1
291 242 1
291 293 1
291 437 1
291 454 1
291 505 1
291 540 1
291 557 1
291 608 1
292 226 1
292 243 1
292 294 1
292 438 1
292 455 1
292 506 1
292 541 1
292 558 1
292 609 1
293 227 1
293 244 1
293 295 1
293 439 1
293 456 1
293 507 1
293 542 1
293 559 1
293 610 1
294 228 1
294 245 1
294 296 1
294 440 1
294 457 1
294 508 1
294 543 1
294 560 1
294 611 1
295 229 1
295 246 1
295 297 1
295 441 1
295 458 1
295 509 1
295 544 1
295 561 1
295 612 1
296 230 1
296 247 1
296 298 1
296 442 1
296 459 1
296 510 1
296 528 1
296 545 1
296 596 1
297 231 1
297 248 1
297 299 1
297 426 1
297 443 1
297 494 1
297 529 1
297 546 1
297 597 1
298 232 1
298 249 1
298 300 1
298 427 1
298 444 1
298 495 1
298 530 1
298 547 1
298 598 1
299 233 1
299 250 1
299 301 1
299 428 1
299 445 1
299 496 1
299 531 1
299 548 1
299 599 1
300 234 1
300 251 1
300 302 1
300 429 1
300 446 1
300 497 1
300 532 1
300 549 1
300 600 1
301 235 1
301 252 1
301 303 1
301 430 1
301 447 1
301 498 1
301 533 1
301 550 1
301 601 1
302 236 1
302 253 1
302 304 1
302 431 1
302 448 1
302 499 1
302 534 1
302 551 1
302 602 1
303 237 1
303 254 1
303 305 1
303 432 1
303 449 1
303 500 1
303 535 1
303 552 1
303 603 1
304 238 1
304 255 1
304 306 1
304 433 1
304 450 1
304 501 1
304 536 1
304 553 1
304 604 1
305 222 1
305 239 1
305 290 1
305 434 1
305 451 1
305 502 1
305 537 1
305 554 1
305 605 1
306 223 1
306 240 1
306 291 1
306 435 1
306 452 1
306 503 1
306 538 1
306 555 1
306 606 1
