%%MatrixMarket matrix coordinate integer general
288 576 2592
1 1 1
1 49 1
1 65 1
1 97 1
1 145 1
1 161 1
1 289 1
1 337 1
1 353 1
2 2 1
2 50 1
2 66 1
2 98 1
2 146 1
2 162 1
2 290 1
2 338 1
2 354 1
3 3 1
3 51 1
3 67 1
3 99 1
3 147 1
3 163 1
3 291 1
3 339 1
3 355 1
4 4 1
4 52 1
4 68 1
4 100 1
4 148 1
4 164 1
4 292 1
4 340 1
4 356 1
5 5 1
5 53 1
5 69 1
5 101 1
5 149 1
5 165 1
5 293 1
5 341 1
5 357 1
6 6 1
6 54 1
6 70 1
6 102 1
6 150 1
6 166 1
6 294 1
6 342 1
6 358 1
7 7 1
7 55 1
7 71 1
7 103 1
7 151 1
7 167 1
7 295 1
7 343 1
7 359 1
8 8 1
8 56 1
8 72 1
8 104 1
8 152 1
8 168 1
8 296 1
8 344 1
8 360 1
9 9 1
9 57 1
9 73 1
9 105 1
9 153 1
9 169 1
9 297 1
9 345 1
9 361 1
10 10 1
10 58 1
10 74 1
10 106 1
10 154 1
10 170 1
10 298 1
10 346 1
10 362 1
11 11 1
11 59 1
11 75 1
11 107 1
11 155 1
11 171 1
11 299 1
11 347 1
11 363 1
12 12 1
12 60 1
12 76 1
12 108 1
12 156 1
12 172 1
12 300 1
12 348 1
12 364 1
13 13 1
13 61 1
13 77 1
13 109 1
13 157 1
13 173 1
13 301 1
13 349 1
13 365 1
14 14 1
14 62 1
14 78 1
14 110 1
14 158 1
14 174 1
14 302 1
14 350 1
14 366 1
15 15 1
15 63 1
15 79 1
15 111 1
15 159 1
15 175 1
15 303 1
15 351 1
15 367 1
16 16 1
16 64 1
16 80 1
16 112 1
16 160 1
16 176 1
16 304 1
16 352 1
16 368 1
17 17 1
17 49 1
17 81 1
17 113 1
17 145 1
17 177 1
17 305 1
17 337 1
17 369 1
18 18 1
18 50 1
18 82 1
18 114 1
18 146 1
18 178 1
18 306 1
18 338 1
18 370 1
19 19 1
19 51 1
19 83 1
19 115 1
19 147 1
19 179 1
19 307 1
19 339 1
19 371 1
20 20 1
20 52 1
20 84 1
20 116 1
20 148 1
20 180 1
20 308 1
20 340 1
20 372 1
21 21 1
21 53 1
21 85 1
21 117 1
21 149 1
21 181 1
21 309 1
21 341 1
21 373 1
22 22 1
22 54 1
22 86 1
22 118 1
22 150 1
22 182 1
22 310 1
22 342 1
22 374 1
23 23 1
23 55 1
23 87 1
23 119 1
23 151 1
23 183 1
23 311 1
23 343 1
23 375 1
24 24 1
24 56 1
24 88 1
24 120 1
24 152 1
24 184 1
24 312 1
24 344 1
24 376 1
25 25 1
25 57 1
25 89 1
25 121 1
25 153 1
25 185 1
25 313 1
25 345 1
25 377 1
26 26 1
26 58 1
26 90 1
26 122 1
26 154 1
26 186 1
26 314 1
26 346 1
26 378 1
27 27 1
27 59 1
27 91 1
27 123 1
27 155 1
27 187 1
27 315 1
27 347 1
27 379 1
28 28 1
28 60 1
28 92 1
28 124 1
28 156 1
28 188 1
28 316 1
28 348 1
28 380 1
29 29 1
29 61 1
29 93 1
29 125 1
29 157 1
29 189 1
29 317 1
29 349 1
29 381 1
30 30 1
30 62 1
30 94 1
30 126 1
30 158 1
30 190 1
30 318 1
30 350 1
30 382 1
31 31 1
31 63 1
31 95 1
31 127 1
31 159 1
31 191 1
31 319 1
31 351 1
31 383 1
32 32 1
32 64 1
32 96 1
32 128 1
32 160 1
32 192 1
32 320 1
32 352 1
32 384 1
33 33 1
33 65 1
33 81 1
33 129 1
33 161 1
33 177 1
33 321 1
33 353 1
33 369 1
34 34 1
34 66 1
34 82 1
34 130 1
34 162 1
34 178 1
34 322 1
34 354 1
34 370 1
35 35 1
35 67 1
35 83 1
35 131 1
35 163 1
35 179 1
35 323 1
35 355 1
35 371 1
36 36 1
36 68 1
36 84 1
36 132 1
36 164 1
36 180 1
36 324 1
36 356 1
36 372 1
37 37 1
37 69 1
37 85 1
37 133 1
37 165 1
37 181 1
37 325 1
37 357 1
37 373 1
38 38 1
38 70 1
38 86 1
38 134 1
38 166 1
38 182 1
38 326 1
38 358 1
38 374 1
39 39 1
39 71 1
39 87 1
39 135 1
39 167 1
39 183 1
39 327 1
39 359 1
39 375 1
40 40 1
40 72 1
40 88 1
40 136 1
40 168 1
40 184 1
40 328 1
40 360 1
40 376 1
41 41 1
41 73 1
41 89 1
41 137 1
41 169 1
41 185 1
41 329 1
41 361 1
41 377 1
42 42 1
42 74 1
42 90 1
42 138 1
42 170 1
42 186 1
42 330 1
42 362 1
42 378 1
43 43 1
43 75 1
43 91 1
43 139 1
43 171 1
43 187 1
43 331 1
43 363 1
43 379 1
44 44 1
44 76 1
44 92 1
44 140 1
44 172 1
44 188 1
44 332 1
44 364 1
44 380 1
45 45 1
45 77 1
45 93 1
45 141 1
45 173 1
45 189 1
45 333 1
45 365 1
45 381 1
46 46 1
46 78 1
46 94 1
46 142 1
46 174 1
46 190 1
46 334 1
46 366 1
46 382 1
47 47 1
47 79 1
47 95 1
47 143 1
47 175 1
47 191 1
47 335 1
47 367 1
47 383 1
48 48 1
48 80 1
48 96 1
48 144 1
48 176 1
48 192 1
48 336 1
48 368 1
48 384 1
49 1 1
49 49 1
49 65 1
49 193 1
49 241 1
49 257 1
49 385 1
49 433 1
49 449 1
50 2 1
50 50 1
50 66 1
50 194 1
50 242 1
50 258 1
50 386 1
50 434 1
50 450 1
51 3 1
51 51 1
51 67 1
51 195 1
51 243 1
51 259 1
51 387 1
51 435 1
51 451 1
52 4 1
52 52 1
52 68 1
52 196 1
52 244 1
52 260 1
52 388 1
52 436 1
52 452 1
53 5 1
53 53 1
53 69 1
53 197 1
53 245 1
53 261 1
53 389 1
53 437 1
53 453 1
54 6 1
54 54 1
54 70 1
54 198 1
54 246 1
54 262 1
54 390 1
54 438 1
54 454 1
55 7 1
55 55 1
55 71 1
55 199 1
55 247 1
55 263 1
55 391 1
55 439 1
55 455 1
56 8 1
56 56 1
56 72 1
56 200 1
56 248 1
56 264 1
56 392 1
56 440 1
56 456 1
57 9 1
57 57 1
57 73 1
57 201 1
57 249 1
57 265 1
57 393 1
57 441 1
57 457 1
58 10 1
58 58 1
58 74 1
58 202 1
58 250 1
58 266 1
58 394 1
58 442 1
58 458 1
59 11 1
59 59 1
59 75 1
59 203 1
59 251 1
59 267 1
59 395 1
59 443 1
59 459 1
60 12 1
60 60 1
60 76 1
60 204 1
60 252 1
60 268 1
60 396 1
60 444 1
60 460 1
61 13 1
61 61 1
61 77 1
61 205 1
61 253 1
61 269 1
61 397 1
61 445 1
61 461 1
62 14 1
62 62 1
62 78 1
62 206 1
62 254 1
62 270 1
62 398 1
62 446 1
62 462 1
63 15 1
63 63 1
63 79 1
63 207 1
63 255 1
63 271 1
63 399 1
63 447 1
63 463 1
64 16 1
64 64 1
64 80 1
64 208 1
64 256 1
64 272 1
64 400 1
64 448 1
64 464 1
65 17 1
65 49 1
65 81 1
65 209 1
65 241 1
65 273 1
65 401 1
65 433 1
65 465 1
66 18 1
66 50 1
66 82 1
66 210 1
66 242 1
66 274 1
66 402 1
66 434 1
66 466 1
67 19 1
67 51 1
67 83 1
67 211 1
67 243 1
67 275 1
67 403 1
67 435 1
67 467 1
68 20 1
68 52 1
68 84 1
68 212 1
68 244 1
68 276 1
68 404 1
68 436 1
68 468 1
69 21 1
69 53 1
69 85 1
69 213 1
69 245 1
69 277 1
69 405 1
69 437 1
69 469 1
70 22 1
70 54 1
70 86 1
70 214 1
70 246 1
70 278 1
70 406 1
70 438 1
70 470 1
71 23 1
71 55 1
71 87 1
71 215 1
71 247 1
71 279 1
71 407 1
71 439 1
71 471 1
72 24 1
72 56 1
72 88 1
72 216 1
72 248 1
72 280 1
72 408 1
72 440 1
72 472 1
73 25 1
73 57 1
73 89 1
73 217 1
73 249 1
73 281 1
73 409 1
73 441 1
73 473 1
74 26 1
74 58 1
74 90 1
74 218 1
74 250 1
74 282 1
74 410 1
74 442 1
74 474 1
75 27 1
75 59 1
75 91 1
75 219 1
75 251 1
75 283 1
75 411 1
75 443 1
75 475 1
76 28 1
76 60 1
76 92 1
76 220 1
76 252 1
76 284 1
76 412 1
76 444 1
76 476 1
77 29 1
77 61 1
77 93 1
77 221 1
77 253 1
77 285 1
77 413 1
77 445 1
77 477 1
78 30 1
78 62 1
78 94 1
78 222 1
78 254 1
78 286 1
78 414 1
78 446 1
78 478 1
79 31 1
79 63 1
79 95 1
79 223 1
79 255 1
79 287 1
79 415 1
79 447 1
79 479 1
80 32 1
80 64 1
80 96 1
80 224 1
80 256 1
80 288 1
80 416 1
80 448 1
80 480 1
81 33 1
81 65 1
81 81 1
81 225 1
81 257 1
81 273 1
81 417 1
81 449 1
81 465 1
82 34 1
82 66 1
82 82 1
82 226 1
82 258 1
82 274 1
82 418 1
82 450 1
82 466 1
83 35 1
83 67 1
83 83 1
83 227 1
83 259 1
83 275 1
83 419 1
83 451 1
83 467 1
84 36 1
84 68 1
84 84 1
84 228 1
84 260 1
84 276 1
84 420 1
84 452 1
84 468 1
85 37 1
85 69 1
85 85 1
85 229 1
85 261 1
85 277 1
85 421 1
85 453 1
85 469 1
86 38 1
86 70 1
86 86 1
86 230 1
86 262 1
86 278 1
86 422 1
86 454 1
86 470 1
87 39 1
87 71 1
87 87 1
87 231 1
87 263 1
87 279 1
87 423 1
87 455 1
87 471 1
88 40 1
88 72 1
88 88 1
88 232 1
88 264 1
88 280 1
88 424 1
88 456 1
88 472 1
89 41 1
89 73 1
89 89 1
89 233 1
89 265 1
89 281 1
89 425 1
89 457 1
89 473 1
90 42 1
90 74 1
90 90 1
90 234 1
90 266 1
90 282 1
90 426 1
90 458 1
90 474 1
91 43 1
91 75 1
91 91 1
91 235 1
91 267 1
91 283 1
91 427 1
91 459 1
91 475 1
92 44 1
92 76 1
92 92 1
92 236 1
92 268 1
92 284 1
92 428 1
92 460 1
92 476 1
93 45 1
93 77 1
93 93 1
93 237 1
93 269 1
93 285 1
93 429 1
93 461 1
93 477 1
94 46 1
94 78 1
94 94 1
94 238 1
94 270 1
94 286 1
94 430 1
94 462 1
94 478 1
95 47 1
95 79 1
95 95 1
95 239 1
95 271 1
95 287 1
95 431 1
95 463 1
95 479 1
96 48 1
96 80 1
96 96 1
96 240 1
96 272 1
96 288 1
96 432 1
96 464 1
96 480 1
97 97 1
97 145 1
97 161 1
97 193 1
97 241 1
97 257 1
97 481 1
97 529 1
97 545 1
98 98 1
98 146 1
98 162 1
98 194 1
98 242 1
98 258 1
98 482 1
98 530 1
98 546 1
99 99 1
99 147 1
99 163 1
99 195 1
99 243 1
99 259 1
99 483 1
99 531 1
99 547 1
100 100 1
100 148 1
100 164 1
100 196 1
100 244 1
100 260 1
100 484 1
100 532 1
100 548 1
101 101 1
101 149 1
101 165 1
101 197 1
101 245 1
101 261 1
101 485 1
101 533 1
101 549 1
102 102 1
102 150 1
102 166 1
102 198 1
102 246 1
102 262 1
102 486 1
102 534 1
102 550 1
103 103 1
103 151 1
103 167 1
103 199 1
103 247 1
103 263 1
103 487 1
103 535 1
103 551 1
104 104 1
104 152 1
104 168 1
104 200 1
104 248 1
104 264 1
104 488 1
104 536 1
104 552 1
105 105 1
105 153 1
105 169 1
105 201 1
105 249 1
105 265 1
105 489 1
105 537 1
105 553 1
106 106 1
106 154 1
106 170 1
106 202 1
106 250 1
106 266 1
106 490 1
106 538 1
106 554 1
107 107 1
107 155 1
107 171 1
107 203 1
107 251 1
107 267 1
107 491 1
107 539 1
107 555 1
108 108 1
108 156 1
108 172 1
108 204 1
108 252 1
108 268 1
108 492 1
108 540 1
108 556 1
109 109 1
109 157 1
109 173 1
109 205 1
109 253 1
109 269 1
109 493 1
109 541 1
109 557 1
110 110 1
110 158 1
110 174 1
110 206 1
110 254 1
110 270 1
110 494 1
110 542 1
110 558 1
111 111 1
111 159 1
111 175 1
111 207 1
111 255 1
111 271 1
111 495 1
111 543 1
111 559 1
112 112 1
112 160 1
112 176 1
112 208 1
112 256 1
112 272 1
112 496 1
112 544 1
112 560 1
113 113 1
113 145 1
113 177 1
113 209 1
113 241 1
113 273 1
113 497 1
113 529 1
113 561 1
114 114 1
114 146 1
114 178 1
114 210 1
114 242 1
114 274 1
114 498 1
114 530 1
114 562 1
115 115 1
115 147 1
115 179 1
115 211 1
115 243 1
115 275 1
115 499 1
115 531 1
115 563 1
116 116 1
116 148 1
116 180 1
116 212 1
116 244 1
116 276 1
116 500 1
116 532 1
116 564 1
117 117 1
117 149 1
117 181 1
117 213 1
117 245 1
117 277 1
117 501 1
117 533 1
117 565 1
118 118 1
118 150 1
118 182 1
118 214 1
118 246 1
118 278 1
118 502 1
118 534 1
118 566 1
119 119 1
119 151 1
119 183 1
119 215 1
119 247 1
119 279 1
119 503 1
119 535 1
119 567 1
120 120 1
120 152 1
120 184 1
120 216 1
120 248 1
120 280 1
120 504 1
120 536 1
120 568 1
121 121 1
121 153 1
121 185 1
121 217 1
121 249 1
121 281 1
121 505 1
121 537 1
121 569 1
122 122 1
122 154 1
122 186 1
122 218 1
122 250 1
122 282 1
122 506 1
122 538 1
122 570 1
123 123 1
123 155 1
123 187 1
123 219 1
123 251 1
123 283 1
123 507 1
123 539 1
123 571 1
124 124 1
124 156 1
124 188 1
124 220 1
124 252 1
124 284 1
124 508 1
124 540 1
124 572 1
125 125 1
125 157 1
125 189 1
125 221 1
125 253 1
125 285 1
125 509 1
125 541 1
125 573 1
126 126 1
126 158 1
126 190 1
126 222 1
126 254 1
126 286 1
126 510 1
126 542 1
126 574 1
127 127 1
127 159 1
127 191 1
127 223 1
127 255 1
127 287 1
127 511 1
127 543 1
127 575 1
128 128 1
128 160 1
128 192 1
128 224 1
128 256 1
128 288 1
128 512 1
128 544 1
128 576 1
129 129 1
129 161 1
129 177 1
129 225 1
129 257 1
129 273 1
129 513 1
129 545 1
129 561 1
130 130 1
130 162 1
130 178 1
130 226 1
130 258 1
130 274 1
130 514 1
130 546 1
130 562 1
131 131 1
131 163 1
131 179 1
131 227 1
131 259 1
131 275 1
131 515 1
131 547 1
131 563 1
132 132 1
132 164 1
132 180 1
132 228 1
132 260 1
132 276 1
132 516 1
132 548 1
132 564 1
133 133 1
133 165 1
133 181 1
133 229 1
133 261 1
133 277 1
133 517 1
133 549 1
133 565 1
134 134 1
134 166 1
134 182 1
134 230 1
134 262 1
134 278 1
134 518 1
134 550 1
134 566 1
135 135 1
135 167 1
135 183 1
135 231 1
135 263 1
135 279 1
135 519 1
135 551 1
135 567 1
136 136 1
136 168 1
136 184 1
136 232 1
136 264 1
136 280 1
136 520 1
136 552 1
136 568 1
137 137 1
137 169 1
137 185 1
137 233 1
137 265 1
137 281 1
137 521 1
137 553 1
137 569 1
138 138 1
138 170 1
138 186 1
138 234 1
138 266 1
138 282 1
138 522 1
138 554 1
138 570 1
139 139 1
139 171 1
139 187 1
139 235 1
139 267 1
139 283 1
139 523 1
139 555 1
139 571 1
140 140 1
140 172 1
140 188 1
140 236 1
140 268 1
140 284 1
140 524 1
140 556 1
140 572 1
141 141 1
141 173 1
141 189 1
141 237 1
141 269 1
141 285 1
141 525 1
141 557 1
141 573 1
142 142 1
142 174 1
142 190 1
142 238 1
142 270 1
142 286 1
142 526 1
142 558 1
142 574 1
143 143 1
143 175 1
143 191 1
143 239 1
143 271 1
143 287 1
143 527 1
143 559 1
143 575 1
144 144 1
144 176 1
144 192 1
144 240 1
144 272 1
144 288 1
144 528 1
144 560 1
144 576 1
145 1 1
145 36 1
145 79 1
145 98 1
145 135 1
145 176 1
145 195 1
145 233 1
145 260 1
146 2 1
146 39 1
146 80 1
146 100 1
146 129 1
146 170 1
146 198 1
146 236 1
146 263 1
147 3 1
147 41 1
147 68 1
147 102 1
147 140 1
147 167 1
147 197 1
147 235 1
147 265 1
148 4 1
148 33 1
148 74 1
148 103 1
148 130 1
148 173 1
148 201 1
148 227 1
148 257 1
149 5 1
149 43 1
149 73 1
149 104 1
149 142 1
149 172 1
149 202 1
149 239 1
149 267 1
150 6 1
150 44 1
150 71 1
150 105 1
150 131 1
150 161 1
150 200 1
150 238 1
150 268 1
151 7 1
151 34 1
151 77 1
151 97 1
151 132 1
151 175 1
151 204 1
151 230 1
151 258 1
152 8 1
152 46 1
152 76 1
152 107 1
152 133 1
152 163 1
152 205 1
152 240 1
152 270 1
153 9 1
153 35 1
153 65 1
153 108 1
153 134 1
153 162 1
153 203 1
153 229 1
153 259 1
154 10 1
154 47 1
154 75 1
154 109 1
154 144 1
154 174 1
154 193 1
154 228 1
154 271 1
155 11 1
155 37 1
155 67 1
155 110 1
155 136 1
155 166 1
155 207 1
155 234 1
155 261 1
156 12 1
156 38 1
156 66 1
156 99 1
156 137 1
156 164 1
156 206 1
156 232 1
156 262 1
157 13 1
157 48 1
157 78 1
157 111 1
157 138 1
157 165 1
157 194 1
157 231 1
157 272 1
158 14 1
158 40 1
158 70 1
158 101 1
158 139 1
158 169 1
158 208 1
158 237 1
158 264 1
159 15 1
159 42 1
159 69 1
159 112 1
159 141 1
159 168 1
159 196 1
159 225 1
159 266 1
160 16 1
160 45 1
160 72 1
160 106 1
160 143 1
160 171 1
160 199 1
160 226 1
160 269 1
161 23 1
161 36 1
161 92 1
161 113 1
161 135 1
161 179 1
161 220 1
161 233 1
161 286 1
162 17 1
162 39 1
162 83 1
162 114 1
162 129 1
162 182 1
162 211 1
162 236 1
162 277 1
163 28 1
163 41 1
163 94 1
163 115 1
163 140 1
163 181 1
163 222 1
163 235 1
163 288 1
164 18 1
164 33 1
164 86 1
164 116 1
164 130 1
164 185 1
164 214 1
164 227 1
164 280 1
165 30 1
165 43 1
165 96 1
165 117 1
165 142 1
165 186 1
165 224 1
165 239 1
165 279 1
166 19 1
166 44 1
166 85 1
166 118 1
166 131 1
166 184 1
166 213 1
166 238 1
166 282 1
167 20 1
167 34 1
167 89 1
167 119 1
167 132 1
167 188 1
167 217 1
167 230 1
167 283 1
168 21 1
168 46 1
168 90 1
168 120 1
168 133 1
168 189 1
168 218 1
168 240 1
168 273 1
169 22 1
169 35 1
169 88 1
169 121 1
169 134 1
169 187 1
169 216 1
169 229 1
169 285 1
170 32 1
170 47 1
170 87 1
170 122 1
170 144 1
170 177 1
170 215 1
170 228 1
170 284 1
171 24 1
171 37 1
171 93 1
171 123 1
171 136 1
171 191 1
171 221 1
171 234 1
171 274 1
172 25 1
172 38 1
172 91 1
172 124 1
172 137 1
172 190 1
172 219 1
172 232 1
172 287 1
173 26 1
173 48 1
173 81 1
173 125 1
173 138 1
173 178 1
173 209 1
173 231 1
173 275 1
174 27 1
174 40 1
174 95 1
174 126 1
174 139 1
174 192 1
174 223 1
174 237 1
174 276 1
175 29 1
175 42 1
175 82 1
175 127 1
175 141 1
175 180 1
175 210 1
175 225 1
175 278 1
176 31 1
176 45 1
176 84 1
176 128 1
176 143 1
176 183 1
176 212 1
176 226 1
176 281 1
177 53 1
177 79 1
177 92 1
177 152 1
177 176 1
177 179 1
177 250 1
177 260 1
177 286 1
178 56 1
178 80 1
178 83 1
178 155 1
178 170 1
178 182 1
178 253 1
178 263 1
178 277 1
179 58 1
179 68 1
179 94 1
179 157 1
179 167 1
179 181 1
179 241 1
179 265 1
179 288 1
180 59 1
180 74 1
180 86 1
180 158 1
180 173 1
180 185 1
180 255 1
180 257 1
180 280 1
181 49 1
181 73 1
181 96 1
181 146 1
181 172 1
181 186 1
181 243 1
181 267 1
181 279 1
182 61 1
182 71 1
182 85 1
182 159 1
182 161 1
182 184 1
182 242 1
182 268 1
182 282 1
183 62 1
183 77 1
183 89 1
183 149 1
183 175 1
183 188 1
183 256 1
183 258 1
183 283 1
184 50 1
184 76 1
184 90 1
184 148 1
184 163 1
184 189 1
184 246 1
184 270 1
184 273 1
185 63 1
185 65 1
185 88 1
185 160 1
185 162 1
185 187 1
185 244 1
185 259 1
185 285 1
186 51 1
186 75 1
186 87 1
186 150 1
186 174 1
186 177 1
186 245 1
186 271 1
186 284 1
187 52 1
187 67 1
187 93 1
187 151 1
187 166 1
187 191 1
187 249 1
187 261 1
187 274 1
188 64 1
188 66 1
188 91 1
188 154 1
188 164 1
188 190 1
188 247 1
188 262 1
188 287 1
189 54 1
189 78 1
189 81 1
189 153 1
189 165 1
189 178 1
189 248 1
189 272 1
189 275 1
190 55 1
190 70 1
190 95 1
190 145 1
190 169 1
190 192 1
190 252 1
190 264 1
190 276 1
191 57 1
191 69 1
191 82 1
191 156 1
191 168 1
191 180 1
191 251 1
191 266 1
191 278 1
192 60 1
192 72 1
192 84 1
192 147 1
192 171 1
192 183 1
192 254 1
192 269 1
192 281 1
193 1 1
193 36 1
193 79 1
193 294 1
193 332 1
193 359 1
193 393 1
193 419 1
193 449 1
194 2 1
194 39 1
194 80 1
194 297 1
194 323 1
194 353 1
194 396 1
194 422 1
194 450 1
195 3 1
195 41 1
195 68 1
195 296 1
195 334 1
195 364 1
195 395 1
195 421 1
195 451 1
196 4 1
196 33 1
196 74 1
196 300 1
196 326 1
196 354 1
196 387 1
196 425 1
196 452 1
197 5 1
197 43 1
197 73 1
197 301 1
197 336 1
197 366 1
197 399 1
197 426 1
197 453 1
198 6 1
198 44 1
198 71 1
198 299 1
198 325 1
198 355 1
198 398 1
198 424 1
198 454 1
199 7 1
199 34 1
199 77 1
199 291 1
199 329 1
199 356 1
199 390 1
199 428 1
199 455 1
200 8 1
200 46 1
200 76 1
200 303 1
200 330 1
200 357 1
200 400 1
200 429 1
200 456 1
201 9 1
201 35 1
201 65 1
201 302 1
201 328 1
201 358 1
201 389 1
201 427 1
201 457 1
202 10 1
202 47 1
202 75 1
202 290 1
202 327 1
202 368 1
202 388 1
202 417 1
202 458 1
203 11 1
203 37 1
203 67 1
203 304 1
203 333 1
203 360 1
203 394 1
203 431 1
203 459 1
204 12 1
204 38 1
204 66 1
204 293 1
204 331 1
204 361 1
204 392 1
204 430 1
204 460 1
205 13 1
205 48 1
205 78 1
205 292 1
205 321 1
205 362 1
205 391 1
205 418 1
205 461 1
206 14 1
206 40 1
206 70 1
206 298 1
206 335 1
206 363 1
206 397 1
206 432 1
206 462 1
207 15 1
207 42 1
207 69 1
207 295 1
207 322 1
207 365 1
207 385 1
207 420 1
207 463 1
208 16 1
208 45 1
208 72 1
208 289 1
208 324 1
208 367 1
208 386 1
208 423 1
208 464 1
209 23 1
209 36 1
209 92 1
209 307 1
209 332 1
209 373 1
209 406 1
209 419 1
209 472 1
210 17 1
210 39 1
210 83 1
210 310 1
210 323 1
210 376 1
210 409 1
210 422 1
210 475 1
211 28 1
211 41 1
211 94 1
211 309 1
211 334 1
211 378 1
211 408 1
211 421 1
211 477 1
212 18 1
212 33 1
212 86 1
212 313 1
212 326 1
212 379 1
212 412 1
212 425 1
212 478 1
213 30 1
213 43 1
213 96 1
213 314 1
213 336 1
213 369 1
213 413 1
213 426 1
213 466 1
214 19 1
214 44 1
214 85 1
214 312 1
214 325 1
214 381 1
214 411 1
214 424 1
214 479 1
215 20 1
215 34 1
215 89 1
215 316 1
215 329 1
215 382 1
215 403 1
215 428 1
215 469 1
216 21 1
216 46 1
216 90 1
216 317 1
216 330 1
216 370 1
216 415 1
216 429 1
216 468 1
217 22 1
217 35 1
217 88 1
217 315 1
217 328 1
217 383 1
217 414 1
217 427 1
217 480 1
218 32 1
218 47 1
218 87 1
218 305 1
218 327 1
218 371 1
218 402 1
218 417 1
218 470 1
219 24 1
219 37 1
219 93 1
219 319 1
219 333 1
219 372 1
219 416 1
219 431 1
219 471 1
220 25 1
220 38 1
220 91 1
220 318 1
220 331 1
220 384 1
220 405 1
220 430 1
220 474 1
221 26 1
221 48 1
221 81 1
221 306 1
221 321 1
221 374 1
221 404 1
221 418 1
221 473 1
222 27 1
222 40 1
222 95 1
222 320 1
222 335 1
222 375 1
222 410 1
222 432 1
222 465 1
223 29 1
223 42 1
223 82 1
223 308 1
223 322 1
223 377 1
223 407 1
223 420 1
223 476 1
224 31 1
224 45 1
224 84 1
224 311 1
224 324 1
224 380 1
224 401 1
224 423 1
224 467 1
225 53 1
225 79 1
225 92 1
225 349 1
225 359 1
225 373 1
225 447 1
225 449 1
225 472 1
226 56 1
226 80 1
226 83 1
226 351 1
226 353 1
226 376 1
226 448 1
226 450 1
226 475 1
227 58 1
227 68 1
227 94 1
227 338 1
227 364 1
227 378 1
227 436 1
227 451 1
227 477 1
228 59 1
228 74 1
228 86 1
228 352 1
228 354 1
228 379 1
228 442 1
228 452 1
228 478 1
229 49 1
229 73 1
229 96 1
229 342 1
229 366 1
229 369 1
229 441 1
229 453 1
229 466 1
230 61 1
230 71 1
230 85 1
230 340 1
230 355 1
230 381 1
230 439 1
230 454 1
230 479 1
231 62 1
231 77 1
231 89 1
231 346 1
231 356 1
231 382 1
231 445 1
231 455 1
231 469 1
232 50 1
232 76 1
232 90 1
232 345 1
232 357 1
232 370 1
232 444 1
232 456 1
232 468 1
233 63 1
233 65 1
233 88 1
233 343 1
233 358 1
233 383 1
233 433 1
233 457 1
233 480 1
234 51 1
234 75 1
234 87 1
234 344 1
234 368 1
234 371 1
234 443 1
234 458 1
234 470 1
235 52 1
235 67 1
235 93 1
235 348 1
235 360 1
235 372 1
235 435 1
235 459 1
235 471 1
236 64 1
236 66 1
236 91 1
236 337 1
236 361 1
236 384 1
236 434 1
236 460 1
236 474 1
237 54 1
237 78 1
237 81 1
237 347 1
237 362 1
237 374 1
237 446 1
237 461 1
237 473 1
238 55 1
238 70 1
238 95 1
238 339 1
238 363 1
238 375 1
238 438 1
238 462 1
238 465 1
239 57 1
239 69 1
239 82 1
239 350 1
239 365 1
239 377 1
239 437 1
239 463 1
239 476 1
240 60 1
240 72 1
240 84 1
240 341 1
240 367 1
240 380 1
240 440 1
240 464 1
240 467 1
241 98 1
241 135 1
241 176 1
241 294 1
241 332 1
241 359 1
241 495 1
241 522 1
241 549 1
242 100 1
242 129 1
242 170 1
242 297 1
242 323 1
242 353 1
242 496 1
242 525 1
242 552 1
243 102 1
243 140 1
243 167 1
243 296 1
243 334 1
243 364 1
243 484 1
243 513 1
243 554 1
244 103 1
244 130 1
244 173 1
244 300 1
244 326 1
244 354 1
244 490 1
244 527 1
244 555 1
245 104 1
245 142 1
245 172 1
245 301 1
245 336 1
245 366 1
245 489 1
245 515 1
245 545 1
246 105 1
246 131 1
246 161 1
246 299 1
246 325 1
246 355 1
246 487 1
246 514 1
246 557 1
247 97 1
247 132 1
247 175 1
247 291 1
247 329 1
247 356 1
247 493 1
247 528 1
247 558 1
248 107 1
248 133 1
248 163 1
248 303 1
248 330 1
248 357 1
248 492 1
248 518 1
248 546 1
249 108 1
249 134 1
249 162 1
249 302 1
249 328 1
249 358 1
249 481 1
249 516 1
249 559 1
250 109 1
250 144 1
250 174 1
250 290 1
250 327 1
250 368 1
250 491 1
250 517 1
250 547 1
251 110 1
251 136 1
251 166 1
251 304 1
251 333 1
251 360 1
251 483 1
251 521 1
251 548 1
252 99 1
252 137 1
252 164 1
252 293 1
252 331 1
252 361 1
252 482 1
252 519 1
252 560 1
253 111 1
253 138 1
253 165 1
253 292 1
253 321 1
253 362 1
253 494 1
253 520 1
253 550 1
254 101 1
254 139 1
254 169 1
254 298 1
254 335 1
254 363 1
254 486 1
254 524 1
254 551 1
255 112 1
255 141 1
255 168 1
255 295 1
255 322 1
255 365 1
255 485 1
255 523 1
255 553 1
256 106 1
256 143 1
256 171 1
256 289 1
256 324 1
256 367 1
256 488 1
256 526 1
256 556 1
257 113 1
257 135 1
257 179 1
257 307 1
257 332 1
257 373 1
257 509 1
257 522 1
257 562 1
258 114 1
258 129 1
258 182 1
258 310 1
258 323 1
258 376 1
258 511 1
258 525 1
258 564 1
259 115 1
259 140 1
259 181 1
259 309 1
259 334 1
259 378 1
259 498 1
259 513 1
259 566 1
260 116 1
260 130 1
260 185 1
260 313 1
260 326 1
260 379 1
260 512 1
260 527 1
260 567 1
261 117 1
261 142 1
261 186 1
261 314 1
261 336 1
261 369 1
261 502 1
261 515 1
261 568 1
262 118 1
262 131 1
262 184 1
262 312 1
262 325 1
262 381 1
262 500 1
262 514 1
262 569 1
263 119 1
263 132 1
263 188 1
263 316 1
263 329 1
263 382 1
263 506 1
263 528 1
263 561 1
264 120 1
264 133 1
264 189 1
264 317 1
264 330 1
264 370 1
264 505 1
264 518 1
264 571 1
265 121 1
265 134 1
265 187 1
265 315 1
265 328 1
265 383 1
265 503 1
265 516 1
265 572 1
266 122 1
266 144 1
266 177 1
266 305 1
266 327 1
266 371 1
266 504 1
266 517 1
266 573 1
267 123 1
267 136 1
267 191 1
267 319 1
267 333 1
267 372 1
267 508 1
267 521 1
267 574 1
268 124 1
268 137 1
268 190 1
268 318 1
268 331 1
268 384 1
268 497 1
268 519 1
268 563 1
269 125 1
269 138 1
269 178 1
269 306 1
269 321 1
269 374 1
269 507 1
269 520 1
269 575 1
270 126 1
270 139 1
270 192 1
270 320 1
270 335 1
270 375 1
270 499 1
270 524 1
270 565 1
271 127 1
271 141 1
271 180 1
271 308 1
271 322 1
271 377 1
271 510 1
271 523 1
271 576 1
272 128 1
272 143 1
272 183 1
272 311 1
272 324 1
272 380 1
272 501 1
272 526 1
272 570 1
273 152 1
273 176 1
273 179 1
273 349 1
273 359 1
273 373 1
273 537 1
273 549 1
273 562 1
274 155 1
274 170 1
274 182 1
274 351 1
274 353 1
274 376 1
274 540 1
274 552 1
274 564 1
275 157 1
275 167 1
275 181 1
275 338 1
275 364 1
275 378 1
275 539 1
275 554 1
275 566 1
276 158 1
276 173 1
276 185 1
276 352 1
276 354 1
276 379 1
276 531 1
276 555 1
276 567 1
277 146 1
277 172 1
277 186 1
277 342 1
277 366 1
277 369 1
277 543 1
277 545 1
277 568 1
278 159 1
278 161 1
278 184 1
278 340 1
278 355 1
278 381 1
278 542 1
278 557 1
278 569 1
279 149 1
279 175 1
279 188 1
279 346 1
279 356 1
279 382 1
279 534 1
279 558 1
279 561 1
280 148 1
280 163 1
280 189 1
280 345 1
280 357 1
280 370 1
280 544 1
280 546 1
280 571 1
281 160 1
281 162 1
281 187 1
281 343 1
281 358 1
281 383 1
281 533 1
281 559 1
281 572 1
282 150 1
282 174 1
282 177 1
282 344 1
282 368 1
282 371 1
282 532 1
282 547 1
282 573 1
283 151 1
283 166 1
283 191 1
283 348 1
283 360 1
283 372 1
283 538 1
283 548 1
283 574 1
284 154 1
284 164 1
284 190 1
284 337 1
284 361 1
284 384 1
284 536 1
284 560 1
284 563 1
285 153 1
285 165 1
285 178 1
285 347 1
285 362 1
285 374 1
285 535 1
285 550 1
285 575 1
286 145 1
286 169 1
286 192 1
286 339 1
286 363 1
286 375 1
286 541 1
286 551 1
286 565 1
287 156 1
287 168 1
287 180 1
287 350 1
287 365 1
287 377 1
287 529 1
287 553 1
287 576 1
288 147 1
288 171 1
288 183 1
288 341 1
288 367 1
288 380 1
288 530 1
288 556 1
288 570 1
