%%MatrixMarket matrix coordinate integer general
306 612 2754
1 1 1
1 18 1
1 59 1
1 307 1
1 324 1
1 365 1
1 409 1
1 426 1
1 467 1
2 2 1
2 19 1
2 60 1
2 308 1
2 325 1
2 366 1
2 410 1
2 427 1
2 468 1
3 3 1
3 20 1
3 61 1
3 309 1
3 326 1
3 367 1
3 411 1
3 428 1
3 469 1
4 4 1
4 21 1
4 62 1
4 310 1
4 327 1
4 368 1
4 412 1
4 429 1
4 470 1
5 5 1
5 22 1
5 63 1
5 311 1
5 328 1
5 369 1
5 413 1
5 430 1
5 471 1
6 6 1
6 23 1
6 64 1
6 312 1
6 329 1
6 370 1
6 414 1
6 431 1
6 472 1
7 7 1
7 24 1
7 65 1
7 313 1
7 330 1
7 371 1
7 415 1
7 432 1
7 473 1
8 8 1
8 25 1
8 66 1
8 314 1
8 331 1
8 372 1
8 416 1
8 433 1
8 474 1
9 9 1
9 26 1
9 67 1
9 315 1
9 332 1
9 373 1
9 417 1
9 434 1
9 475 1
10 10 1
10 27 1
10 68 1
10 316 1
10 333 1
10 374 1
10 418 1
10 435 1
10 476 1
11 11 1
11 28 1
11 52 1
11 317 1
11 334 1
11 358 1
11 419 1
11 436 1
11 460 1
12 12 1
12 29 1
12 53 1
12 318 1
12 335 1
12 359 1
12 420 1
12 437 1
12 461 1
13 13 1
13 30 1
13 54 1
13 319 1
13 336 1
13 360 1
13 421 1
13 438 1
13 462 1
14 14 1
14 31 1
14 55 1
14 320 1
14 337 1
14 361 1
14 422 1
14 439 1
14 463 1
15 15 1
15 32 1
15 56 1
15 321 1
15 338 1
15 362 1
15 423 1
15 440 1
15 464 1
16 16 1
16 33 1
16 57 1
16 322 1
16 339 1
16 363 1
16 424 1
16 441 1
16 465 1
17 17 1
17 34 1
17 58 1
17 323 1
17 340 1
17 364 1
17 425 1
17 442 1
17 466 1
18 1 1
18 51 1
18 75 1
18 307 1
18 357 1
18 381 1
18 409 1
18 459 1
18 483 1
19 2 1
19 35 1
19 76 1
19 308 1
19 341 1
19 382 1
19 410 1
19 443 1
19 484 1
20 3 1
20 36 1
20 77 1
20 309 1
20 342 1
20 383 1
20 411 1
20 444 1
20 485 1
21 4 1
21 37 1
21 78 1
21 310 1
21 343 1
21 384 1
21 412 1
21 445 1
21 486 1
22 5 1
22 38 1
22 79 1
22 311 1
22 344 1
22 385 1
22 413 1
22 446 1
22 487 1
23 6 1
23 39 1
23 80 1
23 312 1
23 345 1
23 386 1
23 414 1
23 447 1
23 488 1
24 7 1
24 40 1
24 81 1
24 313 1
24 346 1
24 387 1
24 415 1
24 448 1
24 489 1
25 8 1
25 41 1
25 82 1
25 314 1
25 347 1
25 388 1
25 416 1
25 449 1
25 490 1
26 9 1
26 42 1
26 83 1
26 315 1
26 348 1
26 389 1
26 417 1
26 450 1
26 491 1
27 10 1
27 43 1
27 84 1
27 316 1
27 349 1
27 390 1
27 418 1
27 451 1
27 492 1
28 11 1
28 44 1
28 85 1
28 317 1
28 350 1
28 391 1
28 419 1
28 452 1
28 493 1
29 12 1
29 45 1
29 69 1
29 318 1
29 351 1
29 375 1
29 420 1
29 453 1
29 477 1
30 13 1
30 46 1
30 70 1
30 319 1
30 352 1
30 376 1
30 421 1
30 454 1
30 478 1
31 14 1
31 47 1
31 71 1
31 320 1
31 353 1
31 377 1
31 422 1
31 455 1
31 479 1
32 15 1
32 48 1
32 72 1
32 321 1
32 354 1
32 378 1
32 423 1
32 456 1
32 480 1
33 16 1
33 49 1
33 73 1
33 322 1
33 355 1
33 379 1
33 424 1
33 457 1
33 481 1
34 17 1
34 50 1
34 74 1
34 323 1
34 356 1
34 380 1
34 425 1
34 458 1
34 482 1
35 18 1
35 51 1
35 92 1
35 324 1
35 357 1
35 398 1
35 426 1
35 459 1
35 500 1
36 19 1
36 35 1
36 93 1
36 325 1
36 341 1
36 399 1
36 427 1
36 443 1
36 501 1
37 20 1
37 36 1
37 94 1
37 326 1
37 342 1
37 400 1
37 428 1
37 444 1
37 502 1
38 21 1
38 37 1
38 95 1
38 327 1
38 343 1
38 401 1
38 429 1
38 445 1
38 503 1
39 22 1
39 38 1
39 96 1
39 328 1
39 344 1
39 402 1
39 430 1
39 446 1
39 504 1
40 23 1
40 39 1
40 97 1
40 329 1
40 345 1
40 403 1
40 431 1
40 447 1
40 505 1
41 24 1
41 40 1
41 98 1
41 330 1
41 346 1
41 404 1
41 432 1
41 448 1
41 506 1
42 25 1
42 41 1
42 99 1
42 331 1
42 347 1
42 405 1
42 433 1
42 449 1
42 507 1
43 26 1
43 42 1
43 100 1
43 332 1
43 348 1
43 406 1
43 434 1
43 450 1
43 508 1
44 27 1
44 43 1
44 101 1
44 333 1
44 349 1
44 407 1
44 435 1
44 451 1
44 509 1
45 28 1
45 44 1
45 102 1
45 334 1
45 350 1
45 408 1
45 436 1
45 452 1
45 510 1
46 29 1
46 45 1
46 86 1
46 335 1
46 351 1
46 392 1
46 437 1
46 453 1
46 494 1
47 30 1
47 46 1
47 87 1
47 336 1
47 352 1
47 393 1
47 438 1
47 454 1
47 495 1
48 31 1
48 47 1
48 88 1
48 337 1
48 353 1
48 394 1
48 439 1
48 455 1
48 496 1
49 32 1
49 48 1
49 89 1
49 338 1
49 354 1
49 395 1
49 440 1
49 456 1
49 497 1
50 33 1
50 49 1
50 90 1
50 339 1
50 355 1
50 396 1
50 441 1
50 457 1
50 498 1
51 34 1
51 50 1
51 91 1
51 340 1
51 356 1
51 397 1
51 442 1
51 458 1
51 499 1
52 103 1
52 120 1
52 161 1
52 307 1
52 324 1
52 365 1
52 511 1
52 528 1
52 569 1
53 104 1
53 121 1
53 162 1
53 308 1
53 325 1
53 366 1
53 512 1
53 529 1
53 570 1
54 105 1
54 122 1
54 163 1
54 309 1
54 326 1
54 367 1
54 513 1
54 530 1
54 571 1
55 106 1
55 123 1
55 164 1
55 310 1
55 327 1
55 368 1
55 514 1
55 531 1
55 572 1
56 107 1
56 124 1
56 165 1
56 311 1
56 328 1
56 369 1
56 515 1
56 532 1
56 573 1
57 108 1
57 125 1
57 166 1
57 312 1
57 329 1
57 370 1
57 516 1
57 533 1
57 574 1
58 109 1
58 126 1
58 167 1
58 313 1
58 330 1
58 371 1
58 517 1
58 534 1
58 575 1
59 110 1
59 127 1
59 168 1
59 314 1
59 331 1
59 372 1
59 518 1
59 535 1
59 576 1
60 111 1
60 128 1
60 169 1
60 315 1
60 332 1
60 373 1
60 519 1
60 536 1
60 577 1
61 112 1
61 129 1
61 170 1
61 316 1
61 333 1
61 374 1
61 520 1
61 537 1
61 578 1
62 113 1
62 130 1
62 154 1
62 317 1
62 334 1
62 358 1
62 521 1
62 538 1
62 562 1
63 114 1
63 131 1
63 155 1
63 318 1
63 335 1
63 359 1
63 522 1
63 539 1
63 563 1
64 115 1
64 132 1
64 156 1
64 319 1
64 336 1
64 360 1
64 523 1
64 540 1
64 564 1
65 116 1
65 133 1
65 157 1
65 320 1
65 337 1
65 361 1
65 524 1
65 541 1
65 565 1
66 117 1
66 134 1
66 158 1
66 321 1
66 338 1
66 362 1
66 525 1
66 542 1
66 566 1
67 118 1
67 135 1
67 159 1
67 322 1
67 339 1
67 363 1
67 526 1
67 543 1
67 567 1
68 119 1
68 136 1
68 160 1
68 323 1
68 340 1
68 364 1
68 527 1
68 544 1
68 568 1
69 103 1
69 153 1
69 177 1
69 307 1
69 357 1
69 381 1
69 511 1
69 561 1
69 585 1
70 104 1
70 137 1
70 178 1
70 308 1
70 341 1
70 382 1
70 512 1
70 545 1
70 586 1
71 105 1
71 138 1
71 179 1
71 309 1
71 342 1
71 383 1
71 513 1
71 546 1
71 587 1
72 106 1
72 139 1
72 180 1
72 310 1
72 343 1
72 384 1
72 514 1
72 547 1
72 588 1
73 107 1
73 140 1
73 181 1
73 311 1
73 344 1
73 385 1
73 515 1
73 548 1
73 589 1
74 108 1
74 141 1
74 182 1
74 312 1
74 345 1
74 386 1
74 516 1
74 549 1
74 590 1
75 109 1
75 142 1
75 183 1
75 313 1
75 346 1
75 387 1
75 517 1
75 550 1
75 591 1
76 110 1
76 143 1
76 184 1
76 314 1
76 347 1
76 388 1
76 518 1
76 551 1
76 592 1
77 111 1
77 144 1
77 185 1
77 315 1
77 348 1
77 389 1
77 519 1
77 552 1
77 593 1
78 112 1
78 145 1
78 186 1
78 316 1
78 349 1
78 390 1
78 520 1
78 553 1
78 594 1
79 113 1
79 146 1
79 187 1
79 317 1
79 350 1
79 391 1
79 521 1
79 554 1
79 595 1
80 114 1
80 147 1
80 171 1
80 318 1
80 351 1
80 375 1
80 522 1
80 555 1
80 579 1
81 115 1
81 148 1
81 172 1
81 319 1
81 352 1
81 376 1
81 523 1
81 556 1
81 580 1
82 116 1
82 149 1
82 173 1
82 320 1
82 353 1
82 377 1
82 524 1
82 557 1
82 581 1
83 117 1
83 150 1
83 174 1
83 321 1
83 354 1
83 378 1
83 525 1
83 558 1
83 582 1
84 118 1
84 151 1
84 175 1
84 322 1
84 355 1
84 379 1
84 526 1
84 559 1
84 583 1
85 119 1
85 152 1
85 176 1
85 323 1
85 356 1
85 380 1
85 527 1
85 560 1
85 584 1
86 120 1
86 153 1
86 194 1
86 324 1
86 357 1
86 398 1
86 528 1
86 561 1
86 602 1
87 121 1
87 137 1
87 195 1
87 325 1
87 341 1
87 399 1
87 529 1
87 545 1
87 603 1
88 122 1
88 138 1
88 196 1
88 326 1
88 342 1
88 400 1
88 530 1
88 546 1
88 604 1
89 123 1
89 139 1
89 197 1
89 327 1
89 343 1
89 401 1
89 531 1
89 547 1
89 605 1
90 124 1
90 140 1
90 198 1
90 328 1
90 344 1
90 402 1
90 532 1
90 548 1
90 606 1
91 125 1
91 141 1
91 199 1
91 329 1
91 345 1
91 403 1
91 533 1
91 549 1
91 607 1
92 126 1
92 142 1
92 200 1
92 330 1
92 346 1
92 404 1
92 534 1
92 550 1
92 608 1
93 127 1
93 143 1
93 201 1
93 331 1
93 347 1
93 405 1
93 535 1
93 551 1
93 609 1
94 128 1
94 144 1
94 202 1
94 332 1
94 348 1
94 406 1
94 536 1
94 552 1
94 610 1
95 129 1
95 145 1
95 203 1
95 333 1
95 349 1
95 407 1
95 537 1
95 553 1
95 611 1
96 130 1
96 146 1
96 204 1
96 334 1
96 350 1
96 408 1
96 538 1
96 554 1
96 612 1
97 131 1
97 147 1
97 188 1
97 335 1
97 351 1
97 392 1
97 539 1
97 555 1
97 596 1
98 132 1
98 148 1
98 189 1
98 336 1
98 352 1
98 393 1
98 540 1
98 556 1
98 597 1
99 133 1
99 149 1
99 190 1
99 337 1
99 353 1
99 394 1
99 541 1
99 557 1
99 598 1
100 134 1
100 150 1
100 191 1
100 338 1
100 354 1
100 395 1
100 542 1
100 558 1
100 599 1
101 135 1
101 151 1
101 192 1
101 339 1
101 355 1
101 396 1
101 543 1
101 559 1
101 600 1
102 136 1
102 152 1
102 193 1
102 340 1
102 356 1
102 397 1
102 544 1
102 560 1
102 601 1
103 205 1
103 222 1
103 263 1
103 409 1
103 426 1
103 467 1
103 511 1
103 528 1
103 569 1
104 206 1
104 223 1
104 264 1
104 410 1
104 427 1
104 468 1
104 512 1
104 529 1
104 570 1
105 207 1
105 224 1
105 265 1
105 411 1
105 428 1
105 469 1
105 513 1
105 530 1
105 571 1
106 208 1
106 225 1
106 266 1
106 412 1
106 429 1
106 470 1
106 514 1
106 531 1
106 572 1
107 209 1
107 226 1
107 267 1
107 413 1
107 430 1
107 471 1
107 515 1
107 532 1
107 573 1
108 210 1
108 227 1
108 268 1
108 414 1
108 431 1
108 472 1
108 516 1
108 533 1
108 574 1
109 211 1
109 228 1
109 269 1
109 415 1
109 432 1
109 473 1
109 517 1
109 534 1
109 575 1
110 212 1
110 229 1
110 270 1
110 416 1
110 433 1
110 474 1
110 518 1
110 535 1
110 576 1
111 213 1
111 230 1
111 271 1
111 417 1
111 434 1
111 475 1
111 519 1
111 536 1
111 577 1
112 214 1
112 231 1
112 272 1
112 418 1
112 435 1
112 476 1
112 520 1
112 537 1
112 578 1
113 215 1
113 232 1
113 256 1
113 419 1
113 436 1
113 460 1
113 521 1
113 538 1
113 562 1
114 216 1
114 233 1
114 257 1
114 420 1
114 437 1
114 461 1
114 522 1
114 539 1
114 563 1
115 217 1
115 234 1
115 258 1
115 421 1
115 438 1
115 462 1
115 523 1
115 540 1
115 564 1
116 218 1
116 235 1
116 259 1
116 422 1
116 439 1
116 463 1
116 524 1
116 541 1
116 565 1
117 219 1
117 236 1
117 260 1
117 423 1
117 440 1
117 464 1
117 525 1
117 542 1
117 566 1
118 220 1
118 237 1
118 261 1
118 424 1
118 441 1
118 465 1
118 526 1
118 543 1
118 567 1
119 221 1
119 238 1
119 262 1
119 425 1
119 442 1
119 466 1
119 527 1
119 544 1
119 568 1
120 205 1
120 255 1
120 279 1
120 409 1
120 459 1
120 483 1
120 511 1
120 561 1
120 585 1
121 206 1
121 239 1
121 280 1
121 410 1
121 443 1
121 484 1
121 512 1
121 545 1
121 586 1
122 207 1
122 240 1
122 281 1
122 411 1
122 444 1
122 485 1
122 513 1
122 546 1
122 587 1
123 208 1
123 241 1
123 282 1
123 412 1
123 445 1
123 486 1
123 514 1
123 547 1
123 588 1
124 209 1
124 242 1
124 283 1
124 413 1
124 446 1
124 487 1
124 515 1
124 548 1
124 589 1
125 210 1
125 243 1
125 284 1
125 414 1
125 447 1
125 488 1
125 516 1
125 549 1
125 590 1
126 211 1
126 244 1
126 285 1
126 415 1
126 448 1
126 489 1
126 517 1
126 550 1
126 591 1
127 212 1
127 245 1
127 286 1
127 416 1
127 449 1
127 490 1
127 518 1
127 551 1
127 592 1
128 213 1
128 246 1
128 287 1
128 417 1
128 450 1
128 491 1
128 519 1
128 552 1
128 593 1
129 214 1
129 247 1
129 288 1
129 418 1
129 451 1
129 492 1
129 520 1
129 553 1
129 594 1
130 215 1
130 248 1
130 289 1
130 419 1
130 452 1
130 493 1
130 521 1
130 554 1
130 595 1
131 216 1
131 249 1
131 273 1
131 420 1
131 453 1
131 477 1
131 522 1
131 555 1
131 579 1
132 217 1
132 250 1
132 274 1
132 421 1
132 454 1
132 478 1
132 523 1
132 556 1
132 580 1
133 218 1
133 251 1
133 275 1
133 422 1
133 455 1
133 479 1
133 524 1
133 557 1
133 581 1
134 219 1
134 252 1
134 276 1
134 423 1
134 456 1
134 480 1
134 525 1
134 558 1
134 582 1
135 220 1
135 253 1
135 277 1
135 424 1
135 457 1
135 481 1
135 526 1
135 559 1
135 583 1
136 221 1
136 254 1
136 278 1
136 425 1
136 458 1
136 482 1
136 527 1
136 560 1
136 584 1
137 222 1
137 255 1
137 296 1
137 426 1
137 459 1
137 500 1
137 528 1
137 561 1
137 602 1
138 223 1
138 239 1
138 297 1
138 427 1
138 443 1
138 501 1
138 529 1
138 545 1
138 603 1
139 224 1
139 240 1
139 298 1
139 428 1
139 444 1
139 502 1
139 530 1
139 546 1
139 604 1
140 225 1
140 241 1
140 299 1
140 429 1
140 445 1
140 503 1
140 531 1
140 547 1
140 605 1
141 226 1
141 242 1
141 300 1
141 430 1
141 446 1
141 504 1
141 532 1
141 548 1
141 606 1
142 227 1
142 243 1
142 301 1
142 431 1
142 447 1
142 505 1
142 533 1
142 549 1
142 607 1
143 228 1
143 244 1
143 302 1
143 432 1
143 448 1
143 506 1
143 534 1
143 550 1
143 608 1
144 229 1
144 245 1
144 303 1
144 433 1
144 449 1
144 507 1
144 535 1
144 551 1
144 609 1
145 230 1
145 246 1
145 304 1
145 434 1
145 450 1
145 508 1
145 536 1
145 552 1
145 610 1
146 231 1
146 247 1
146 305 1
146 435 1
146 451 1
146 509 1
146 537 1
146 553 1
146 611 1
147 232 1
147 248 1
147 306 1
147 436 1
147 452 1
147 510 1
147 538 1
147 554 1
147 612 1
148 233 1
148 249 1
148 290 1
148 437 1
148 453 1
148 494 1
148 539 1
148 555 1
148 596 1
149 234 1
149 250 1
149 291 1
149 438 1
149 454 1
149 495 1
149 540 1
149 556 1
149 597 1
150 235 1
150 251 1
150 292 1
150 439 1
150 455 1
150 496 1
150 541 1
150 557 1
150 598 1
151 236 1
151 252 1
151 293 1
151 440 1
151 456 1
151 497 1
151 542 1
151 558 1
151 599 1
152 237 1
152 253 1
152 294 1
152 441 1
152 457 1
152 498 1
152 543 1
152 559 1
152 600 1
153 238 1
153 254 1
153 295 1
153 442 1
153 458 1
153 499 1
153 544 1
153 560 1
153 601 1
154 1 1
154 18 1
154 52 1
154 207 1
154 224 1
154 258 1
154 422 1
154 439 1
154 473 1
155 2 1
155 19 1
155 53 1
155 208 1
155 225 1
155 259 1
155 423 1
155 440 1
155 474 1
156 3 1
156 20 1
156 54 1
156 209 1
156 226 1
156 260 1
156 424 1
156 441 1
156 475 1
157 4 1
157 21 1
157 55 1
157 210 1
157 227 1
157 261 1
157 425 1
157 442 1
157 476 1
158 5 1
158 22 1
158 56 1
158 211 1
158 228 1
158 262 1
158 409 1
158 426 1
158 460 1
159 6 1
159 23 1
159 57 1
159 212 1
159 229 1
159 263 1
159 410 1
159 427 1
159 461 1
160 7 1
160 24 1
160 58 1
160 213 1
160 230 1
160 264 1
160 411 1
160 428 1
160 462 1
161 8 1
161 25 1
161 59 1
161 214 1
161 231 1
161 265 1
161 412 1
161 429 1
161 463 1
162 9 1
162 26 1
162 60 1
162 215 1
162 232 1
162 266 1
162 413 1
162 430 1
162 464 1
163 10 1
163 27 1
163 61 1
163 216 1
163 233 1
163 267 1
163 414 1
163 431 1
163 465 1
164 11 1
164 28 1
164 62 1
164 217 1
164 234 1
164 268 1
164 415 1
164 432 1
164 466 1
165 12 1
165 29 1
165 63 1
165 218 1
165 235 1
165 269 1
165 416 1
165 433 1
165 467 1
166 13 1
166 30 1
166 64 1
166 219 1
166 236 1
166 270 1
166 417 1
166 434 1
166 468 1
167 14 1
167 31 1
167 65 1
167 220 1
167 237 1
167 271 1
167 418 1
167 435 1
167 469 1
168 15 1
168 32 1
168 66 1
168 221 1
168 238 1
168 272 1
168 419 1
168 436 1
168 470 1
169 16 1
169 33 1
169 67 1
169 205 1
169 222 1
169 256 1
169 420 1
169 437 1
169 471 1
170 17 1
170 34 1
170 68 1
170 206 1
170 223 1
170 257 1
170 421 1
170 438 1
170 472 1
171 1 1
171 35 1
171 69 1
171 207 1
171 241 1
171 275 1
171 422 1
171 456 1
171 490 1
172 2 1
172 36 1
172 70 1
172 208 1
172 242 1
172 276 1
172 423 1
172 457 1
172 491 1
173 3 1
173 37 1
173 71 1
173 209 1
173 243 1
173 277 1
173 424 1
173 458 1
173 492 1
174 4 1
174 38 1
174 72 1
174 210 1
174 244 1
174 278 1
174 425 1
174 459 1
174 493 1
175 5 1
175 39 1
175 73 1
175 211 1
175 245 1
175 279 1
175 409 1
175 443 1
175 477 1
176 6 1
176 40 1
176 74 1
176 212 1
176 246 1
176 280 1
176 410 1
176 444 1
176 478 1
177 7 1
177 41 1
177 75 1
177 213 1
177 247 1
177 281 1
177 411 1
177 445 1
177 479 1
178 8 1
178 42 1
178 76 1
178 214 1
178 248 1
178 282 1
178 412 1
178 446 1
178 480 1
179 9 1
179 43 1
179 77 1
179 215 1
179 249 1
179 283 1
179 413 1
179 447 1
179 481 1
180 10 1
180 44 1
180 78 1
180 216 1
180 250 1
180 284 1
180 414 1
180 448 1
180 482 1
181 11 1
181 45 1
181 79 1
181 217 1
181 251 1
181 285 1
181 415 1
181 449 1
181 483 1
182 12 1
182 46 1
182 80 1
182 218 1
182 252 1
182 286 1
182 416 1
182 450 1
182 484 1
183 13 1
183 47 1
183 81 1
183 219 1
183 253 1
183 287 1
183 417 1
183 451 1
183 485 1
184 14 1
184 48 1
184 82 1
184 220 1
184 254 1
184 288 1
184 418 1
184 452 1
184 486 1
185 15 1
185 49 1
185 83 1
185 221 1
185 255 1
185 289 1
185 419 1
185 453 1
185 487 1
186 16 1
186 50 1
186 84 1
186 205 1
186 239 1
186 273 1
186 420 1
186 454 1
186 488 1
187 17 1
187 51 1
187 85 1
187 206 1
187 240 1
187 274 1
187 421 1
187 455 1
187 489 1
188 18 1
188 35 1
188 86 1
188 224 1
188 241 1
188 292 1
188 439 1
188 456 1
188 507 1
189 19 1
189 36 1
189 87 1
189 225 1
189 242 1
189 293 1
189 440 1
189 457 1
189 508 1
190 20 1
190 37 1
190 88 1
190 226 1
190 243 1
190 294 1
190 441 1
190 458 1
190 509 1
191 21 1
191 38 1
191 89 1
191 227 1
191 244 1
191 295 1
191 442 1
191 459 1
191 510 1
192 22 1
192 39 1
192 90 1
192 228 1
192 245 1
192 296 1
192 426 1
192 443 1
192 494 1
193 23 1
193 40 1
193 91 1
193 229 1
193 246 1
193 297 1
193 427 1
193 444 1
193 495 1
194 24 1
194 41 1
194 92 1
194 230 1
194 247 1
194 298 1
194 428 1
194 445 1
194 496 1
195 25 1
195 42 1
195 93 1
195 231 1
195 248 1
195 299 1
195 429 1
195 446 1
195 497 1
196 26 1
196 43 1
196 94 1
196 232 1
196 249 1
196 300 1
196 430 1
196 447 1
196 498 1
197 27 1
197 44 1
197 95 1
197 233 1
197 250 1
197 301 1
197 431 1
197 448 1
197 499 1
198 28 1
198 45 1
198 96 1
198 234 1
198 251 1
198 302 1
198 432 1
198 449 1
198 500 1
199 29 1
199 46 1
199 97 1
199 235 1
199 252 1
199 303 1
199 433 1
199 450 1
199 501 1
200 30 1
200 47 1
200 98 1
200 236 1
200 253 1
200 304 1
200 434 1
200 451 1
200 502 1
201 31 1
201 48 1
201 99 1
201 237 1
201 254 1
201 305 1
201 435 1
201 452 1
201 503 1
202 32 1
202 49 1
202 100 1
202 238 1
202 255 1
202 306 1
202 436 1
202 453 1
202 504 1
203 33 1
203 50 1
203 101 1
203 222 1
203 239 1
203 290 1
203 437 1
203 454 1
203 505 1
204 34 1
204 51 1
204 102 1
204 223 1
204 240 1
204 291 1
204 438 1
204 455 1
204 506 1
205 103 1
205 120 1
205 154 1
205 207 1
205 224 1
205 258 1
205 526 1
205 543 1
205 577 1
206 104 1
206 121 1
206 155 1
206 208 1
206 225 1
206 259 1
206 527 1
206 544 1
206 578 1
207 105 1
207 122 1
207 156 1
207 209 1
207 226 1
207 260 1
207 511 1
207 528 1
207 562 1
208 106 1
208 123 1
208 157 1
208 210 1
208 227 1
208 261 1
208 512 1
208 529 1
208 563 1
209 107 1
209 124 1
209 158 1
209 211 1
209 228 1
209 262 1
209 513 1
209 530 1
209 564 1
210 108 1
210 125 1
210 159 1
210 212 1
210 229 1
210 263 1
210 514 1
210 531 1
210 565 1
211 109 1
211 126 1
211 160 1
211 213 1
211 230 1
211 264 1
211 515 1
211 532 1
211 566 1
212 110 1
212 127 1
212 161 1
212 214 1
212 231 1
212 265 1
212 516 1
212 533 1
212 567 1
213 111 1
213 128 1
213 162 1
213 215 1
213 232 1
213 266 1
213 517 1
213 534 1
213 568 1
214 112 1
214 129 1
214 163 1
214 216 1
214 233 1
214 267 1
214 518 1
214 535 1
214 569 1
215 113 1
215 130 1
215 164 1
215 217 1
215 234 1
215 268 1
215 519 1
215 536 1
215 570 1
216 114 1
216 131 1
216 165 1
216 218 1
216 235 1
216 269 1
216 520 1
216 537 1
216 571 1
217 115 1
217 132 1
217 166 1
217 219 1
217 236 1
217 270 1
217 521 1
217 538 1
217 572 1
218 116 1
218 133 1
218 167 1
218 220 1
218 237 1
218 271 1
218 522 1
218 539 1
218 573 1
219 117 1
219 134 1
219 168 1
219 221 1
219 238 1
219 272 1
219 523 1
219 540 1
219 574 1
220 118 1
220 135 1
220 169 1
220 205 1
220 222 1
220 256 1
220 524 1
220 541 1
220 575 1
221 119 1
221 136 1
221 170 1
221 206 1
221 223 1
221 257 1
221 525 1
221 542 1
221 576 1
222 103 1
222 137 1
222 171 1
222 207 1
222 241 1
222 275 1
222 526 1
222 560 1
222 594 1
223 104 1
223 138 1
223 172 1
223 208 1
223 242 1
223 276 1
223 527 1
223 561 1
223 595 1
224 105 1
224 139 1
224 173 1
224 209 1
224 243 1
224 277 1
224 511 1
224 545 1
224 579 1
225 106 1
225 140 1
225 174 1
225 210 1
225 244 1
225 278 1
225 512 1
225 546 1
225 580 1
226 107 1
226 141 1
226 175 1
226 211 1
226 245 1
226 279 1
226 513 1
226 547 1
226 581 1
227 108 1
227 142 1
227 176 1
227 212 1
227 246 1
227 280 1
227 514 1
227 548 1
227 582 1
228 109 1
228 143 1
228 177 1
228 213 1
228 247 1
228 281 1
228 515 1
228 549 1
228 583 1
229 110 1
229 144 1
229 178 1
229 214 1
229 248 1
229 282 1
229 516 1
229 550 1
229 584 1
230 111 1
230 145 1
230 179 1
230 215 1
230 249 1
230 283 1
230 517 1
230 551 1
230 585 1
231 112 1
231 146 1
231 180 1
231 216 1
231 250 1
231 284 1
231 518 1
231 552 1
231 586 1
232 113 1
232 147 1
232 181 1
232 217 1
232 251 1
232 285 1
232 519 1
232 553 1
232 587 1
233 114 1
233 148 1
233 182 1
233 218 1
233 252 1
233 286 1
233 520 1
233 554 1
233 588 1
234 115 1
234 149 1
234 183 1
234 219 1
234 253 1
234 287 1
234 521 1
234 555 1
234 589 1
235 116 1
235 150 1
235 184 1
235 220 1
235 254 1
235 288 1
235 522 1
235 556 1
235 590 1
236 117 1
236 151 1
236 185 1
236 221 1
236 255 1
236 289 1
236 523 1
236 557 1
236 591 1
237 118 1
237 152 1
237 186 1
237 205 1
237 239 1
237 273 1
237 524 1
237 558 1
237 592 1
238 119 1
238 153 1
238 187 1
238 206 1
238 240 1
238 274 1
238 525 1
238 559 1
238 593 1
239 120 1
239 137 1
239 188 1
239 224 1
239 241 1
239 292 1
239 543 1
239 560 1
239 611 1
240 121 1
240 138 1
240 189 1
240 225 1
240 242 1
240 293 1
240 544 1
240 561 1
240 612 1
241 122 1
241 139 1
241 190 1
241 226 1
241 243 1
241 294 1
241 528 1
241 545 1
241 596 1
242 123 1
242 140 1
242 191 1
242 227 1
242 244 1
242 295 1
242 529 1
242 546 1
242 597 1
243 124 1
243 141 1
243 192 1
243 228 1
243 245 1
243 296 1
243 530 1
243 547 1
243 598 1
244 125 1
244 142 1
244 193 1
244 229 1
244 246 1
244 297 1
244 531 1
244 548 1
244 599 1
245 126 1
245 143 1
245 194 1
245 230 1
245 247 1
245 298 1
245 532 1
245 549 1
245 600 1
246 127 1
246 144 1
246 195 1
246 231 1
246 248 1
246 299 1
246 533 1
246 550 1
246 601 1
247 128 1
247 145 1
247 196 1
247 232 1
247 249 1
247 300 1
247 534 1
247 551 1
247 602 1
248 129 1
248 146 1
248 197 1
248 233 1
248 250 1
248 301 1
248 535 1
248 552 1
248 603 1
249 130 1
249 147 1
249 198 1
249 234 1
249 251 1
249 302 1
249 536 1
249 553 1
249 604 1
250 131 1
250 148 1
250 199 1
250 235 1
250 252 1
250 303 1
250 537 1
250 554 1
250 605 1
251 132 1
251 149 1
251 200 1
251 236 1
251 253 1
251 304 1
251 538 1
251 555 1
251 606 1
252 133 1
252 150 1
252 201 1
252 237 1
252 254 1
252 305 1
252 539 1
252 556 1
252 607 1
253 134 1
253 151 1
253 202 1
253 238 1
253 255 1
253 306 1
253 540 1
253 557 1
253 608 1
254 135 1
254 152 1
254 203 1
254 222 1
254 239 1
254 290 1
254 541 1
254 558 1
254 609 1
255 136 1
255 153 1
255 204 1
255 223 1
255 240 1
255 291 1
255 542 1
255 559 1
255 610 1
256 309 1
256 326 1
256 360 1
256 422 1
256 439 1
256 473 1
256 526 1
256 543 1
256 577 1
257 310 1
257 327 1
257 361 1
257 423 1
257 440 1
257 474 1
257 527 1
257 544 1
257 578 1
258 311 1
258 328 1
258 362 1
258 424 1
258 441 1
258 475 1
258 511 1
258 528 1
258 562 1
259 312 1
259 329 1
259 363 1
259 425 1
259 442 1
259 476 1
259 512 1
259 529 1
259 563 1
260 313 1
260 330 1
260 364 1
260 409 1
260 426 1
260 460 1
260 513 1
260 530 1
260 564 1
261 314 1
261 331 1
261 365 1
261 410 1
261 427 1
261 461 1
261 514 1
261 531 1
261 565 1
262 315 1
262 332 1
262 366 1
262 411 1
262 428 1
262 462 1
262 515 1
262 532 1
262 566 1
263 316 1
263 333 1
263 367 1
263 412 1
263 429 1
263 463 1
263 516 1
263 533 1
263 567 1
264 317 1
264 334 1
264 368 1
264 413 1
264 430 1
264 464 1
264 517 1
264 534 1
264 568 1
265 318 1
265 335 1
265 369 1
265 414 1
265 431 1
265 465 1
265 518 1
265 535 1
265 569 1
266 319 1
266 336 1
266 370 1
266 415 1
266 432 1
266 466 1
266 519 1
266 536 1
266 570 1
267 320 1
267 337 1
267 371 1
267 416 1
267 433 1
267 467 1
267 520 1
267 537 1
267 571 1
268 321 1
268 338 1
268 372 1
268 417 1
268 434 1
268 468 1
268 521 1
268 538 1
268 572 1
269 322 1
269 339 1
269 373 1
269 418 1
269 435 1
269 469 1
269 522 1
269 539 1
269 573 1
270 323 1
270 340 1
270 374 1
270 419 1
270 436 1
270 470 1
270 523 1
270 540 1
270 574 1
271 307 1
271 324 1
271 358 1
271 420 1
271 437 1
271 471 1
271 524 1
271 541 1
271 575 1
272 308 1
272 325 1
272 359 1
272 421 1
272 438 1
272 472 1
272 525 1
272 542 1
272 576 1
273 309 1
273 343 1
273 377 1
273 422 1
273 456 1
273 490 1
273 526 1
273 560 1
273 594 1
274 310 1
274 344 1
274 378 1
274 423 1
274 457 1
274 491 1
274 527 1
274 561 1
274 595 1
275 311 1
275 345 1
275 379 1
275 424 1
275 458 1
275 492 1
275 511 1
275 545 1
275 579 1
276 312 1
276 346 1
276 380 1
276 425 1
276 459 1
276 493 1
276 512 1
276 546 1
276 580 1
277 313 1
277 347 1
277 381 1
277 409 1
277 443 1
277 477 1
277 513 1
277 547 1
277 581 1
278 314 1
278 348 1
278 382 1
278 410 1
278 444 1
278 478 1
278 514 1
278 548 1
278 582 1
279 315 1
279 349 1
279 383 1
279 411 1
279 445 1
279 479 1
279 515 1
279 549 1
279 583 1
280 316 1
280 350 1
280 384 1
280 412 1
280 446 1
280 480 1
280 516 1
280 550 1
280 584 1
281 317 1
281 351 1
281 385 1
281 413 1
281 447 1
281 481 1
281 517 1
281 551 1
281 585 1
282 318 1
282 352 1
282 386 1
282 414 1
282 448 1
282 482 1
282 518 1
282 552 1
282 586 1
283 319 1
283 353 1
283 387 1
283 415 1
283 449 1
283 483 1
283 519 1
283 553 1
283 587 1
284 320 1
284 354 1
284 388 1
284 416 1
284 450 1
284 484 1
284 520 1
284 554 1
284 588 1
285 321 1
285 355 1
285 389 1
285 417 1
285 451 1
285 485 1
285 521 1
285 555 1
285 589 1
286 322 1
286 356 1
286 390 1
286 418 1
286 452 1
286 486 1
286 522 1
286 556 1
286 590 1
287 323 1
287 357 1
287 391 1
287 419 1
287 453 1
287 487 1
287 523 1
287 557 1
287 591 1
288 307 1
288 341 1
288 375 1
288 420 1
288 454 1
288 488 1
288 524 1
288 558 1
288 592 1
289 308 1
289 342 1
289 376 1
289 421 1
289 455 1
289 489 1
289 525 1
289 559 1
289 593 1
290 326 1
290 343 1
290 394 1
290 439 1
290 456 1
290 507 1
290 543 1
290 560 1
290 611 1
291 327 1
291 344 1
291 395 1
291 440 1
291 457 1
291 508 1
291 544 1
291 561 1
291 612 1
292 328 1
292 345 1
292 396 1
292 441 1
292 458 1
292 509 1
292 528 1
292 545 1
292 596 1
293 329 1
293 346 1
293 397 1
293 442 1
293 459 1
293 510 1
293 529 1
293 546 1
293 597 1
294 330 1
294 347 1
294 398 1
294 426 1
294 443 1
294 494 1
294 530 1
294 547 1
294 598 1
295 331 1
295 348 1
295 399 1
295 427 1
295 444 1
295 495 1
295 531 1
295 548 1
295 599 1
296 332 1
296 349 1
296 400 1
296 428 1
296 445 1
296 496 1
296 532 1
296 549 1
296 600 1
297 333 1
297 350 1
297 401 1
297 429 1
297 446 1
297 497 1
297 533 1
297 550 1
297 601 1
298 334 1
298 351 1
298 402 1
298 430 1
298 447 1
298 498 1
298 534 1
298 551 1
298 602 1
299 335 1
299 352 1
299 403 1
299 431 1
299 448 1
299 499 1
299 535 1
299 552 1
299 603 1
300 336 1
300 353 1
300 404 1
300 432 1
300 449 1
300 500 1
300 536 1
300 553 1
300 604 1
301 337 1
301 354 1
301 405 1
301 433 1
301 450 1
301 501 1
301 537 1
301 554 1
301 605 1
302 338 1
302 355 1
302 406 1
302 434 1
302 451 1
302 502 1
302 538 1
302 555 1
302 606 1
303 339 1
303 356 1
303 407 1
303 435 1
303 452 1
303 503 1
303 539 1
303 556 1
303 607 1
304 340 1
304 357 1
304 408 1
304 436 1
304 453 1
304 504 1
304 540 1
304 557 1
304 608 1
305 324 1
305 341 1
305 392 1
305 437 1
305 454 1
305 505 1
305 541 1
305 558 1
305 609 1
306 325 1
306 342 1
306 393 1
306 438 1
306 455 1
306 506 1
306 542 1
306 559 1
306 610 1
