%%MatrixMarket matrix coordinate integer general
306 612 2754
1 1 1
1 32 1
1 55 1
1 307 1
1 338 1
1 361 1
1 409 1
1 440 1
1 463 1
2 2 1
2 33 1
2 56 1
2 308 1
2 339 1
2 362 1
2 410 1
2 441 1
2 464 1
3 3 1
3 34 1
3 57 1
3 309 1
3 340 1
3 363 1
3 411 1
3 442 1
3 465 1
4 4 1
4 18 1
4 58 1
4 310 1
4 324 1
4 364 1
4 412 1
4 426 1
4 466 1
5 5 1
5 19 1
5 59 1
5 311 1
5 325 1
5 365 1
5 413 1
5 427 1
5 467 1
6 6 1
6 20 1
6 60 1
6 312 1
6 326 1
6 366 1
6 414 1
6 428 1
6 468 1
7 7 1
7 21 1
7 61 1
7 313 1
7 327 1
7 367 1
7 415 1
7 429 1
7 469 1
8 8 1
8 22 1
8 62 1
8 314 1
8 328 1
8 368 1
8 416 1
8 430 1
8 470 1
9 9 1
9 23 1
9 63 1
9 315 1
9 329 1
9 369 1
9 417 1
9 431 1
9 471 1
10 10 1
10 24 1
10 64 1
10 316 1
10 330 1
10 370 1
10 418 1
10 432 1
10 472 1
11 11 1
11 25 1
11 65 1
11 317 1
11 331 1
11 371 1
11 419 1
11 433 1
11 473 1
12 12 1
12 26 1
12 66 1
12 318 1
12 332 1
12 372 1
12 420 1
12 434 1
12 474 1
13 13 1
13 27 1
13 67 1
13 319 1
13 333 1
13 373 1
13 421 1
13 435 1
13 475 1
14 14 1
14 28 1
14 68 1
14 320 1
14 334 1
14 374 1
14 422 1
14 436 1
14 476 1
15 15 1
15 29 1
15 52 1
15 321 1
15 335 1
15 358 1
15 423 1
15 437 1
15 460 1
16 16 1
16 30 1
16 53 1
16 322 1
16 336 1
16 359 1
16 424 1
16 438 1
16 461 1
17 17 1
17 31 1
17 54 1
17 323 1
17 337 1
17 360 1
17 425 1
17 439 1
17 462 1
18 1 1
18 42 1
18 72 1
18 307 1
18 348 1
18 378 1
18 409 1
18 450 1
18 480 1
19 2 1
19 43 1
19 73 1
19 308 1
19 349 1
19 379 1
19 410 1
19 451 1
19 481 1
20 3 1
20 44 1
20 74 1
20 309 1
20 350 1
20 380 1
20 411 1
20 452 1
20 482 1
21 4 1
21 45 1
21 75 1
21 310 1
21 351 1
21 381 1
21 412 1
21 453 1
21 483 1
22 5 1
22 46 1
22 76 1
22 311 1
22 352 1
22 382 1
22 413 1
22 454 1
22 484 1
23 6 1
23 47 1
23 77 1
23 312 1
23 353 1
23 383 1
23 414 1
23 455 1
23 485 1
24 7 1
24 48 1
24 78 1
24 313 1
24 354 1
24 384 1
24 415 1
24 456 1
24 486 1
25 8 1
25 49 1
25 79 1
25 314 1
25 355 1
25 385 1
25 416 1
25 457 1
25 487 1
26 9 1
26 50 1
26 80 1
26 315 1
26 356 1
26 386 1
26 417 1
26 458 1
26 488 1
27 10 1
27 51 1
27 81 1
27 316 1
27 357 1
27 387 1
27 418 1
27 459 1
27 489 1
28 11 1
28 35 1
28 82 1
28 317 1
28 341 1
28 388 1
28 419 1
28 443 1
28 490 1
29 12 1
29 36 1
29 83 1
29 318 1
29 342 1
29 389 1
29 420 1
29 444 1
29 491 1
30 13 1
30 37 1
30 84 1
30 319 1
30 343 1
30 390 1
30 421 1
30 445 1
30 492 1
31 14 1
31 38 1
31 85 1
31 320 1
31 344 1
31 391 1
31 422 1
31 446 1
31 493 1
32 15 1
32 39 1
32 69 1
32 321 1
32 345 1
32 375 1
32 423 1
32 447 1
32 477 1
33 16 1
33 40 1
33 70 1
33 322 1
33 346 1
33 376 1
33 424 1
33 448 1
33 478 1
34 17 1
34 41 1
34 71 1
34 323 1
34 347 1
34 377 1
34 425 1
34 449 1
34 479 1
35 32 1
35 42 1
35 87 1
35 338 1
35 348 1
35 393 1
35 440 1
35 450 1
35 495 1
36 33 1
36 43 1
36 88 1
36 339 1
36 349 1
36 394 1
36 441 1
36 451 1
36 496 1
37 34 1
37 44 1
37 89 1
37 340 1
37 350 1
37 395 1
37 442 1
37 452 1
37 497 1
38 18 1
38 45 1
38 90 1
38 324 1
38 351 1
38 396 1
38 426 1
38 453 1
38 498 1
39 19 1
39 46 1
39 91 1
39 325 1
39 352 1
39 397 1
39 427 1
39 454 1
39 499 1
40 20 1
40 47 1
40 92 1
40 326 1
40 353 1
40 398 1
40 428 1
40 455 1
40 500 1
41 21 1
41 48 1
41 93 1
41 327 1
41 354 1
41 399 1
41 429 1
41 456 1
41 501 1
42 22 1
42 49 1
42 94 1
42 328 1
42 355 1
42 400 1
42 430 1
42 457 1
42 502 1
43 23 1
43 50 1
43 95 1
43 329 1
43 356 1
43 401 1
43 431 1
43 458 1
43 503 1
44 24 1
44 51 1
44 96 1
44 330 1
44 357 1
44 402 1
44 432 1
44 459 1
44 504 1
45 25 1
45 35 1
45 97 1
45 331 1
45 341 1
45 403 1
45 433 1
45 443 1
45 505 1
46 26 1
46 36 1
46 98 1
46 332 1
46 342 1
46 404 1
46 434 1
46 444 1
46 506 1
47 27 1
47 37 1
47 99 1
47 333 1
47 343 1
47 405 1
47 435 1
47 445 1
47 507 1
48 28 1
48 38 1
48 100 1
48 334 1
48 344 1
48 406 1
48 436 1
48 446 1
48 508 1
49 29 1
49 39 1
49 101 1
49 335 1
49 345 1
49 407 1
49 437 1
49 447 1
49 509 1
50 30 1
50 40 1
50 102 1
50 336 1
50 346 1
50 408 1
50 438 1
50 448 1
50 510 1
51 31 1
51 41 1
51 86 1
51 337 1
51 347 1
51 392 1
51 439 1
51 449 1
51 494 1
52 103 1
52 134 1
52 157 1
52 307 1
52 338 1
52 361 1
52 511 1
52 542 1
52 565 1
53 104 1
53 135 1
53 158 1
53 308 1
53 339 1
53 362 1
53 512 1
53 543 1
53 566 1
54 105 1
54 136 1
54 159 1
54 309 1
54 340 1
54 363 1
54 513 1
54 544 1
54 567 1
55 106 1
55 120 1
55 160 1
55 310 1
55 324 1
55 364 1
55 514 1
55 528 1
55 568 1
56 107 1
56 121 1
56 161 1
56 311 1
56 325 1
56 365 1
56 515 1
56 529 1
56 569 1
57 108 1
57 122 1
57 162 1
57 312 1
57 326 1
57 366 1
57 516 1
57 530 1
57 570 1
58 109 1
58 123 1
58 163 1
58 313 1
58 327 1
58 367 1
58 517 1
58 531 1
58 571 1
59 110 1
59 124 1
59 164 1
59 314 1
59 328 1
59 368 1
59 518 1
59 532 1
59 572 1
60 111 1
60 125 1
60 165 1
60 315 1
60 329 1
60 369 1
60 519 1
60 533 1
60 573 1
61 112 1
61 126 1
61 166 1
61 316 1
61 330 1
61 370 1
61 520 1
61 534 1
61 574 1
62 113 1
62 127 1
62 167 1
62 317 1
62 331 1
62 371 1
62 521 1
62 535 1
62 575 1
63 114 1
63 128 1
63 168 1
63 318 1
63 332 1
63 372 1
63 522 1
63 536 1
63 576 1
64 115 1
64 129 1
64 169 1
64 319 1
64 333 1
64 373 1
64 523 1
64 537 1
64 577 1
65 116 1
65 130 1
65 170 1
65 320 1
65 334 1
65 374 1
65 524 1
65 538 1
65 578 1
66 117 1
66 131 1
66 154 1
66 321 1
66 335 1
66 358 1
66 525 1
66 539 1
66 562 1
67 118 1
67 132 1
67 155 1
67 322 1
67 336 1
67 359 1
67 526 1
67 540 1
67 563 1
68 119 1
68 133 1
68 156 1
68 323 1
68 337 1
68 360 1
68 527 1
68 541 1
68 564 1
69 103 1
69 144 1
69 174 1
69 307 1
69 348 1
69 378 1
69 511 1
69 552 1
69 582 1
70 104 1
70 145 1
70 175 1
70 308 1
70 349 1
70 379 1
70 512 1
70 553 1
70 583 1
71 105 1
71 146 1
71 176 1
71 309 1
71 350 1
71 380 1
71 513 1
71 554 1
71 584 1
72 106 1
72 147 1
72 177 1
72 310 1
72 351 1
72 381 1
72 514 1
72 555 1
72 585 1
73 107 1
73 148 1
73 178 1
73 311 1
73 352 1
73 382 1
73 515 1
73 556 1
73 586 1
74 108 1
74 149 1
74 179 1
74 312 1
74 353 1
74 383 1
74 516 1
74 557 1
74 587 1
75 109 1
75 150 1
75 180 1
75 313 1
75 354 1
75 384 1
75 517 1
75 558 1
75 588 1
76 110 1
76 151 1
76 181 1
76 314 1
76 355 1
76 385 1
76 518 1
76 559 1
76 589 1
77 111 1
77 152 1
77 182 1
77 315 1
77 356 1
77 386 1
77 519 1
77 560 1
77 590 1
78 112 1
78 153 1
78 183 1
78 316 1
78 357 1
78 387 1
78 520 1
78 561 1
78 591 1
79 113 1
79 137 1
79 184 1
79 317 1
79 341 1
79 388 1
79 521 1
79 545 1
79 592 1
80 114 1
80 138 1
80 185 1
80 318 1
80 342 1
80 389 1
80 522 1
80 546 1
80 593 1
81 115 1
81 139 1
81 186 1
81 319 1
81 343 1
81 390 1
81 523 1
81 547 1
81 594 1
82 116 1
82 140 1
82 187 1
82 320 1
82 344 1
82 391 1
82 524 1
82 548 1
82 595 1
83 117 1
83 141 1
83 171 1
83 321 1
83 345 1
83 375 1
83 525 1
83 549 1
83 579 1
84 118 1
84 142 1
84 172 1
84 322 1
84 346 1
84 376 1
84 526 1
84 550 1
84 580 1
85 119 1
85 143 1
85 173 1
85 323 1
85 347 1
85 377 1
85 527 1
85 551 1
85 581 1
86 134 1
86 144 1
86 189 1
86 338 1
86 348 1
86 393 1
86 542 1
86 552 1
86 597 1
87 135 1
87 145 1
87 190 1
87 339 1
87 349 1
87 394 1
87 543 1
87 553 1
87 598 1
88 136 1
88 146 1
88 191 1
88 340 1
88 350 1
88 395 1
88 544 1
88 554 1
88 599 1
89 120 1
89 147 1
89 192 1
89 324 1
89 351 1
89 396 1
89 528 1
89 555 1
89 600 1
90 121 1
90 148 1
90 193 1
90 325 1
90 352 1
90 397 1
90 529 1
90 556 1
90 601 1
91 122 1
91 149 1
91 194 1
91 326 1
91 353 1
91 398 1
91 530 1
91 557 1
91 602 1
92 123 1
92 150 1
92 195 1
92 327 1
92 354 1
92 399 1
92 531 1
92 558 1
92 603 1
93 124 1
93 151 1
93 196 1
93 328 1
93 355 1
93 400 1
93 532 1
93 559 1
93 604 1
94 125 1
94 152 1
94 197 1
94 329 1
94 356 1
94 401 1
94 533 1
94 560 1
94 605 1
95 126 1
95 153 1
95 198 1
95 330 1
95 357 1
95 402 1
95 534 1
95 561 1
95 606 1
96 127 1
96 137 1
96 199 1
96 331 1
96 341 1
96 403 1
96 535 1
96 545 1
96 607 1
97 128 1
97 138 1
97 200 1
97 332 1
97 342 1
97 404 1
97 536 1
97 546 1
97 608 1
98 129 1
98 139 1
98 201 1
98 333 1
98 343 1
98 405 1
98 537 1
98 547 1
98 609 1
99 130 1
99 140 1
99 202 1
99 334 1
99 344 1
99 406 1
99 538 1
99 548 1
99 610 1
100 131 1
100 141 1
100 203 1
100 335 1
100 345 1
100 407 1
100 539 1
100 549 1
100 611 1
101 132 1
101 142 1
101 204 1
101 336 1
101 346 1
101 408 1
101 540 1
101 550 1
101 612 1
102 133 1
102 143 1
102 188 1
102 337 1
102 347 1
102 392 1
102 541 1
102 551 1
102 596 1
103 205 1
103 236 1
103 259 1
103 409 1
103 440 1
103 463 1
103 511 1
103 542 1
103 565 1
104 206 1
104 237 1
104 260 1
104 410 1
104 441 1
104 464 1
104 512 1
104 543 1
104 566 1
105 207 1
105 238 1
105 261 1
105 411 1
105 442 1
105 465 1
105 513 1
105 544 1
105 567 1
106 208 1
106 222 1
106 262 1
106 412 1
106 426 1
106 466 1
106 514 1
106 528 1
106 568 1
107 209 1
107 223 1
107 263 1
107 413 1
107 427 1
107 467 1
107 515 1
107 529 1
107 569 1
108 210 1
108 224 1
108 264 1
108 414 1
108 428 1
108 468 1
108 516 1
108 530 1
108 570 1
109 211 1
109 225 1
109 265 1
109 415 1
109 429 1
109 469 1
109 517 1
109 531 1
109 571 1
110 212 1
110 226 1
110 266 1
110 416 1
110 430 1
110 470 1
110 518 1
110 532 1
110 572 1
111 213 1
111 227 1
111 267 1
111 417 1
111 431 1
111 471 1
111 519 1
111 533 1
111 573 1
112 214 1
112 228 1
112 268 1
112 418 1
112 432 1
112 472 1
112 520 1
112 534 1
112 574 1
113 215 1
113 229 1
113 269 1
113 419 1
113 433 1
113 473 1
113 521 1
113 535 1
113 575 1
114 216 1
114 230 1
114 270 1
114 420 1
114 434 1
114 474 1
114 522 1
114 536 1
114 576 1
115 217 1
115 231 1
115 271 1
115 421 1
115 435 1
115 475 1
115 523 1
115 537 1
115 577 1
116 218 1
116 232 1
116 272 1
116 422 1
116 436 1
116 476 1
116 524 1
116 538 1
116 578 1
117 219 1
117 233 1
117 256 1
117 423 1
117 437 1
117 460 1
117 525 1
117 539 1
117 562 1
118 220 1
118 234 1
118 257 1
118 424 1
118 438 1
118 461 1
118 526 1
118 540 1
118 563 1
119 221 1
119 235 1
119 258 1
119 425 1
119 439 1
119 462 1
119 527 1
119 541 1
119 564 1
120 205 1
120 246 1
120 276 1
120 409 1
120 450 1
120 480 1
120 511 1
120 552 1
120 582 1
121 206 1
121 247 1
121 277 1
121 410 1
121 451 1
121 481 1
121 512 1
121 553 1
121 583 1
122 207 1
122 248 1
122 278 1
122 411 1
122 452 1
122 482 1
122 513 1
122 554 1
122 584 1
123 208 1
123 249 1
123 279 1
123 412 1
123 453 1
123 483 1
123 514 1
123 555 1
123 585 1
124 209 1
124 250 1
124 280 1
124 413 1
124 454 1
124 484 1
124 515 1
124 556 1
124 586 1
125 210 1
125 251 1
125 281 1
125 414 1
125 455 1
125 485 1
125 516 1
125 557 1
125 587 1
126 211 1
126 252 1
126 282 1
126 415 1
126 456 1
126 486 1
126 517 1
126 558 1
126 588 1
127 212 1
127 253 1
127 283 1
127 416 1
127 457 1
127 487 1
127 518 1
127 559 1
127 589 1
128 213 1
128 254 1
128 284 1
128 417 1
128 458 1
128 488 1
128 519 1
128 560 1
128 590 1
129 214 1
129 255 1
129 285 1
129 418 1
129 459 1
129 489 1
129 520 1
129 561 1
129 591 1
130 215 1
130 239 1
130 286 1
130 419 1
130 443 1
130 490 1
130 521 1
130 545 1
130 592 1
131 216 1
131 240 1
131 287 1
131 420 1
131 444 1
131 491 1
131 522 1
131 546 1
131 593 1
132 217 1
132 241 1
132 288 1
132 421 1
132 445 1
132 492 1
132 523 1
132 547 1
132 594 1
133 218 1
133 242 1
133 289 1
133 422 1
133 446 1
133 493 1
133 524 1
133 548 1
133 595 1
134 219 1
134 243 1
134 273 1
134 423 1
134 447 1
134 477 1
134 525 1
134 549 1
134 579 1
135 220 1
135 244 1
135 274 1
135 424 1
135 448 1
135 478 1
135 526 1
135 550 1
135 580 1
136 221 1
136 245 1
136 275 1
136 425 1
136 449 1
136 479 1
136 527 1
136 551 1
136 581 1
137 236 1
137 246 1
137 291 1
137 440 1
137 450 1
137 495 1
137 542 1
137 552 1
137 597 1
138 237 1
138 247 1
138 292 1
138 441 1
138 451 1
138 496 1
138 543 1
138 553 1
138 598 1
139 238 1
139 248 1
139 293 1
139 442 1
139 452 1
139 497 1
139 544 1
139 554 1
139 599 1
140 222 1
140 249 1
140 294 1
140 426 1
140 453 1
140 498 1
140 528 1
140 555 1
140 600 1
141 223 1
141 250 1
141 295 1
141 427 1
141 454 1
141 499 1
141 529 1
141 556 1
141 601 1
142 224 1
142 251 1
142 296 1
142 428 1
142 455 1
142 500 1
142 530 1
142 557 1
142 602 1
143 225 1
143 252 1
143 297 1
143 429 1
143 456 1
143 501 1
143 531 1
143 558 1
143 603 1
144 226 1
144 253 1
144 298 1
144 430 1
144 457 1
144 502 1
144 532 1
144 559 1
144 604 1
145 227 1
145 254 1
145 299 1
145 431 1
145 458 1
145 503 1
145 533 1
145 560 1
145 605 1
146 228 1
146 255 1
146 300 1
146 432 1
146 459 1
146 504 1
146 534 1
146 561 1
146 606 1
147 229 1
147 239 1
147 301 1
147 433 1
147 443 1
147 505 1
147 535 1
147 545 1
147 607 1
148 230 1
148 240 1
148 302 1
148 434 1
148 444 1
148 506 1
148 536 1
148 546 1
148 608 1
149 231 1
149 241 1
149 303 1
149 435 1
149 445 1
149 507 1
149 537 1
149 547 1
149 609 1
150 232 1
150 242 1
150 304 1
150 436 1
150 446 1
150 508 1
150 538 1
150 548 1
150 610 1
151 233 1
151 243 1
151 305 1
151 437 1
151 447 1
151 509 1
151 539 1
151 549 1
151 611 1
152 234 1
152 244 1
152 306 1
152 438 1
152 448 1
152 510 1
152 540 1
152 550 1
152 612 1
153 235 1
153 245 1
153 290 1
153 439 1
153 449 1
153 494 1
153 541 1
153 551 1
153 596 1
154 1 1
154 18 1
154 52 1
154 314 1
154 331 1
154 365 1
154 418 1
154 435 1
154 469 1
155 2 1
155 19 1
155 53 1
155 315 1
155 332 1
155 366 1
155 419 1
155 436 1
155 470 1
156 3 1
156 20 1
156 54 1
156 316 1
156 333 1
156 367 1
156 420 1
156 437 1
156 471 1
157 4 1
157 21 1
157 55 1
157 317 1
157 334 1
157 368 1
157 421 1
157 438 1
157 472 1
158 5 1
158 22 1
158 56 1
158 318 1
158 335 1
158 369 1
158 422 1
158 439 1
158 473 1
159 6 1
159 23 1
159 57 1
159 319 1
159 336 1
159 370 1
159 423 1
159 440 1
159 474 1
160 7 1
160 24 1
160 58 1
160 320 1
160 337 1
160 371 1
160 424 1
160 441 1
160 475 1
161 8 1
161 25 1
161 59 1
161 321 1
161 338 1
161 372 1
161 425 1
161 442 1
161 476 1
162 9 1
162 26 1
162 60 1
162 322 1
162 339 1
162 373 1
162 409 1
162 426 1
162 460 1
163 10 1
163 27 1
163 61 1
163 323 1
163 340 1
163 374 1
163 410 1
163 427 1
163 461 1
164 11 1
164 28 1
164 62 1
164 307 1
164 324 1
164 358 1
164 411 1
164 428 1
164 462 1
165 12 1
165 29 1
165 63 1
165 308 1
165 325 1
165 359 1
165 412 1
165 429 1
165 463 1
166 13 1
166 30 1
166 64 1
166 309 1
166 326 1
166 360 1
166 413 1
166 430 1
166 464 1
167 14 1
167 31 1
167 65 1
167 310 1
167 327 1
167 361 1
167 414 1
167 431 1
167 465 1
168 15 1
168 32 1
168 66 1
168 311 1
168 328 1
168 362 1
168 415 1
168 432 1
168 466 1
169 16 1
169 33 1
169 67 1
169 312 1
169 329 1
169 363 1
169 416 1
169 433 1
169 467 1
170 17 1
170 34 1
170 68 1
170 313 1
170 330 1
170 364 1
170 417 1
170 434 1
170 468 1
171 1 1
171 35 1
171 69 1
171 314 1
171 348 1
171 382 1
171 418 1
171 452 1
171 486 1
172 2 1
172 36 1
172 70 1
172 315 1
172 349 1
172 383 1
172 419 1
172 453 1
172 487 1
173 3 1
173 37 1
173 71 1
173 316 1
173 350 1
173 384 1
173 420 1
173 454 1
173 488 1
174 4 1
174 38 1
174 72 1
174 317 1
174 351 1
174 385 1
174 421 1
174 455 1
174 489 1
175 5 1
175 39 1
175 73 1
175 318 1
175 352 1
175 386 1
175 422 1
175 456 1
175 490 1
176 6 1
176 40 1
176 74 1
176 319 1
176 353 1
176 387 1
176 423 1
176 457 1
176 491 1
177 7 1
177 41 1
177 75 1
177 320 1
177 354 1
177 388 1
177 424 1
177 458 1
177 492 1
178 8 1
178 42 1
178 76 1
178 321 1
178 355 1
178 389 1
178 425 1
178 459 1
178 493 1
179 9 1
179 43 1
179 77 1
179 322 1
179 356 1
179 390 1
179 409 1
179 443 1
179 477 1
180 10 1
180 44 1
180 78 1
180 323 1
180 357 1
180 391 1
180 410 1
180 444 1
180 478 1
181 11 1
181 45 1
181 79 1
181 307 1
181 341 1
181 375 1
181 411 1
181 445 1
181 479 1
182 12 1
182 46 1
182 80 1
182 308 1
182 342 1
182 376 1
182 412 1
182 446 1
182 480 1
183 13 1
183 47 1
183 81 1
183 309 1
183 343 1
183 377 1
183 413 1
183 447 1
183 481 1
184 14 1
184 48 1
184 82 1
184 310 1
184 344 1
184 378 1
184 414 1
184 448 1
184 482 1
185 15 1
185 49 1
185 83 1
185 311 1
185 345 1
185 379 1
185 415 1
185 449 1
185 483 1
186 16 1
186 50 1
186 84 1
186 312 1
186 346 1
186 380 1
186 416 1
186 450 1
186 484 1
187 17 1
187 51 1
187 85 1
187 313 1
187 347 1
187 381 1
187 417 1
187 451 1
187 485 1
188 18 1
188 35 1
188 86 1
188 331 1
188 348 1
188 399 1
188 435 1
188 452 1
188 503 1
189 19 1
189 36 1
189 87 1
189 332 1
189 349 1
189 400 1
189 436 1
189 453 1
189 504 1
190 20 1
190 37 1
190 88 1
190 333 1
190 350 1
190 401 1
190 437 1
190 454 1
190 505 1
191 21 1
191 38 1
191 89 1
191 334 1
191 351 1
191 402 1
191 438 1
191 455 1
191 506 1
192 22 1
192 39 1
192 90 1
192 335 1
192 352 1
192 403 1
192 439 1
192 456 1
192 507 1
193 23 1
193 40 1
193 91 1
193 336 1
193 353 1
193 404 1
193 440 1
193 457 1
193 508 1
194 24 1
194 41 1
194 92 1
194 337 1
194 354 1
194 405 1
194 441 1
194 458 1
194 509 1
195 25 1
195 42 1
195 93 1
195 338 1
195 355 1
195 406 1
195 442 1
195 459 1
195 510 1
196 26 1
196 43 1
196 94 1
196 339 1
196 356 1
196 407 1
196 426 1
196 443 1
196 494 1
197 27 1
197 44 1
197 95 1
197 340 1
197 357 1
197 408 1
197 427 1
197 444 1
197 495 1
198 28 1
198 45 1
198 96 1
198 324 1
198 341 1
198 392 1
198 428 1
198 445 1
198 496 1
199 29 1
199 46 1
199 97 1
199 325 1
199 342 1
199 393 1
199 429 1
199 446 1
199 497 1
200 30 1
200 47 1
200 98 1
200 326 1
200 343 1
200 394 1
200 430 1
200 447 1
200 498 1
201 31 1
201 48 1
201 99 1
201 327 1
201 344 1
201 395 1
201 431 1
201 448 1
201 499 1
202 32 1
202 49 1
202 100 1
202 328 1
202 345 1
202 396 1
202 432 1
202 449 1
202 500 1
203 33 1
203 50 1
203 101 1
203 329 1
203 346 1
203 397 1
203 433 1
203 450 1
203 501 1
204 34 1
204 51 1
204 102 1
204 330 1
204 347 1
204 398 1
204 434 1
204 451 1
204 502 1
205 105 1
205 122 1
205 156 1
205 314 1
205 331 1
205 365 1
205 522 1
205 539 1
205 573 1
206 106 1
206 123 1
206 157 1
206 315 1
206 332 1
206 366 1
206 523 1
206 540 1
206 574 1
207 107 1
207 124 1
207 158 1
207 316 1
207 333 1
207 367 1
207 524 1
207 541 1
207 575 1
208 108 1
208 125 1
208 159 1
208 317 1
208 334 1
208 368 1
208 525 1
208 542 1
208 576 1
209 109 1
209 126 1
209 160 1
209 318 1
209 335 1
209 369 1
209 526 1
209 543 1
209 577 1
210 110 1
210 127 1
210 161 1
210 319 1
210 336 1
210 370 1
210 527 1
210 544 1
210 578 1
211 111 1
211 128 1
211 162 1
211 320 1
211 337 1
211 371 1
211 511 1
211 528 1
211 562 1
212 112 1
212 129 1
212 163 1
212 321 1
212 338 1
212 372 1
212 512 1
212 529 1
212 563 1
213 113 1
213 130 1
213 164 1
213 322 1
213 339 1
213 373 1
213 513 1
213 530 1
213 564 1
214 114 1
214 131 1
214 165 1
214 323 1
214 340 1
214 374 1
214 514 1
214 531 1
214 565 1
215 115 1
215 132 1
215 166 1
215 307 1
215 324 1
215 358 1
215 515 1
215 532 1
215 566 1
216 116 1
216 133 1
216 167 1
216 308 1
216 325 1
216 359 1
216 516 1
216 533 1
216 567 1
217 117 1
217 134 1
217 168 1
217 309 1
217 326 1
217 360 1
217 517 1
217 534 1
217 568 1
218 118 1
218 135 1
218 169 1
218 310 1
218 327 1
218 361 1
218 518 1
218 535 1
218 569 1
219 119 1
219 136 1
219 170 1
219 311 1
219 328 1
219 362 1
219 519 1
219 536 1
219 570 1
220 103 1
220 120 1
220 154 1
220 312 1
220 329 1
220 363 1
220 520 1
220 537 1
220 571 1
221 104 1
221 121 1
221 155 1
221 313 1
221 330 1
221 364 1
221 521 1
221 538 1
221 572 1
222 105 1
222 139 1
222 173 1
222 314 1
222 348 1
222 382 1
222 522 1
222 556 1
222 590 1
223 106 1
223 140 1
223 174 1
223 315 1
223 349 1
223 383 1
223 523 1
223 557 1
223 591 1
224 107 1
224 141 1
224 175 1
224 316 1
224 350 1
224 384 1
224 524 1
224 558 1
224 592 1
225 108 1
225 142 1
225 176 1
225 317 1
225 351 1
225 385 1
225 525 1
225 559 1
225 593 1
226 109 1
226 143 1
226 177 1
226 318 1
226 352 1
226 386 1
226 526 1
226 560 1
226 594 1
227 110 1
227 144 1
227 178 1
227 319 1
227 353 1
227 387 1
227 527 1
227 561 1
227 595 1
228 111 1
228 145 1
228 179 1
228 320 1
228 354 1
228 388 1
228 511 1
228 545 1
228 579 1
229 112 1
229 146 1
229 180 1
229 321 1
229 355 1
229 389 1
229 512 1
229 546 1
229 580 1
230 113 1
230 147 1
230 181 1
230 322 1
230 356 1
230 390 1
230 513 1
230 547 1
230 581 1
231 114 1
231 148 1
231 182 1
231 323 1
231 357 1
231 391 1
231 514 1
231 548 1
231 582 1
232 115 1
232 149 1
232 183 1
232 307 1
232 341 1
232 375 1
232 515 1
232 549 1
232 583 1
233 116 1
233 150 1
233 184 1
233 308 1
233 342 1
233 376 1
233 516 1
233 550 1
233 584 1
234 117 1
234 151 1
234 185 1
234 309 1
234 343 1
234 377 1
234 517 1
234 551 1
234 585 1
235 118 1
235 152 1
235 186 1
235 310 1
235 344 1
235 378 1
235 518 1
235 552 1
235 586 1
236 119 1
236 153 1
236 187 1
236 311 1
236 345 1
236 379 1
236 519 1
236 553 1
236 587 1
237 103 1
237 137 1
237 171 1
237 312 1
237 346 1
237 380 1
237 520 1
237 554 1
237 588 1
238 104 1
238 138 1
238 172 1
238 313 1
238 347 1
238 381 1
238 521 1
238 555 1
238 589 1
239 122 1
239 139 1
239 190 1
239 331 1
239 348 1
239 399 1
239 539 1
239 556 1
239 607 1
240 123 1
240 140 1
240 191 1
240 332 1
240 349 1
240 400 1
240 540 1
240 557 1
240 608 1
241 124 1
241 141 1
241 192 1
241 333 1
241 350 1
241 401 1
241 541 1
241 558 1
241 609 1
242 125 1
242 142 1
242 193 1
242 334 1
242 351 1
242 402 1
242 542 1
242 559 1
242 610 1
243 126 1
243 143 1
243 194 1
243 335 1
243 352 1
243 403 1
243 543 1
243 560 1
243 611 1
244 127 1
244 144 1
244 195 1
244 336 1
244 353 1
244 404 1
244 544 1
244 561 1
244 612 1
245 128 1
245 145 1
245 196 1
245 337 1
245 354 1
245 405 1
245 528 1
245 545 1
245 596 1
246 129 1
246 146 1
246 197 1
246 338 1
246 355 1
246 406 1
246 529 1
246 546 1
246 597 1
247 130 1
247 147 1
247 198 1
247 339 1
247 356 1
247 407 1
247 530 1
247 547 1
247 598 1
248 131 1
248 148 1
248 199 1
248 340 1
248 357 1
248 408 1
248 531 1
248 548 1
248 599 1
249 132 1
249 149 1
249 200 1
249 324 1
249 341 1
249 392 1
249 532 1
249 549 1
249 600 1
250 133 1
250 150 1
250 201 1
250 325 1
250 342 1
250 393 1
250 533 1
250 550 1
250 601 1
251 134 1
251 151 1
251 202 1
251 326 1
251 343 1
251 394 1
251 534 1
251 551 1
251 602 1
252 135 1
252 152 1
252 203 1
252 327 1
252 344 1
252 395 1
252 535 1
252 552 1
252 603 1
253 136 1
253 153 1
253 204 1
253 328 1
253 345 1
253 396 1
253 536 1
253 553 1
253 604 1
254 120 1
254 137 1
254 188 1
254 329 1
254 346 1
254 397 1
254 537 1
254 554 1
254 605 1
255 121 1
255 138 1
255 189 1
255 330 1
255 347 1
255 398 1
255 538 1
255 555 1
255 606 1
256 209 1
256 226 1
256 260 1
256 418 1
256 435 1
256 469 1
256 522 1
256 539 1
256 573 1
257 210 1
257 227 1
257 261 1
257 419 1
257 436 1
257 470 1
257 523 1
257 540 1
257 574 1
258 211 1
258 228 1
258 262 1
258 420 1
258 437 1
258 471 1
258 524 1
258 541 1
258 575 1
259 212 1
259 229 1
259 263 1
259 421 1
259 438 1
259 472 1
259 525 1
259 542 1
259 576 1
260 213 1
260 230 1
260 264 1
260 422 1
260 439 1
260 473 1
260 526 1
260 543 1
260 577 1
261 214 1
261 231 1
261 265 1
261 423 1
261 440 1
261 474 1
261 527 1
261 544 1
261 578 1
262 215 1
262 232 1
262 266 1
262 424 1
262 441 1
262 475 1
262 511 1
262 528 1
262 562 1
263 216 1
263 233 1
263 267 1
263 425 1
263 442 1
263 476 1
263 512 1
263 529 1
263 563 1
264 217 1
264 234 1
264 268 1
264 409 1
264 426 1
264 460 1
264 513 1
264 530 1
264 564 1
265 218 1
265 235 1
265 269 1
265 410 1
265 427 1
265 461 1
265 514 1
265 531 1
265 565 1
266 219 1
266 236 1
266 270 1
266 411 1
266 428 1
266 462 1
266 515 1
266 532 1
266 566 1
267 220 1
267 237 1
267 271 1
267 412 1
267 429 1
267 463 1
267 516 1
267 533 1
267 567 1
268 221 1
268 238 1
268 272 1
268 413 1
268 430 1
268 464 1
268 517 1
268 534 1
268 568 1
269 205 1
269 222 1
269 256 1
269 414 1
269 431 1
269 465 1
269 518 1
269 535 1
269 569 1
270 206 1
270 223 1
270 257 1
270 415 1
270 432 1
270 466 1
270 519 1
270 536 1
270 570 1
271 207 1
271 224 1
271 258 1
271 416 1
271 433 1
271 467 1
271 520 1
271 537 1
271 571 1
272 208 1
272 225 1
272 259 1
272 417 1
272 434 1
272 468 1
272 521 1
272 538 1
272 572 1
273 209 1
273 243 1
273 277 1
273 418 1
273 452 1
273 486 1
273 522 1
273 556 1
273 590 1
274 210 1
274 244 1
274 278 1
274 419 1
274 453 1
274 487 1
274 523 1
274 557 1
274 591 1
275 211 1
275 245 1
275 279 1
275 420 1
275 454 1
275 488 1
275 524 1
275 558 1
275 592 1
276 212 1
276 246 1
276 280 1
276 421 1
276 455 1
276 489 1
276 525 1
276 559 1
276 593 1
277 213 1
277 247 1
277 281 1
277 422 1
277 456 1
277 490 1
277 526 1
277 560 1
277 594 1
278 214 1
278 248 1
278 282 1
278 423 1
278 457 1
278 491 1
278 527 1
278 561 1
278 595 1
279 215 1
279 249 1
279 283 1
279 424 1
279 458 1
279 492 1
279 511 1
279 545 1
279 579 1
280 216 1
280 250 1
280 284 1
280 425 1
280 459 1
280 493 1
280 512 1
280 546 1
280 580 1
281 217 1
281 251 1
281 285 1
281 409 1
281 443 1
281 477 1
281 513 1
281 547 1
281 581 1
282 218 1
282 252 1
282 286 1
282 410 1
282 444 1
282 478 1
282 514 1
282 548 1
282 582 1
283 219 1
283 253 1
283 287 1
283 411 1
283 445 1
283 479 1
283 515 1
283 549 1
283 583 1
284 220 1
284 254 1
284 288 1
284 412 1
284 446 1
284 480 1
284 516 1
284 550 1
284 584 1
285 221 1
285 255 1
285 289 1
285 413 1
285 447 1
285 481 1
285 517 1
285 551 1
285 585 1
286 205 1
286 239 1
286 273 1
286 414 1
286 448 1
286 482 1
286 518 1
286 552 1
286 586 1
287 206 1
287 240 1
287 274 1
287 415 1
287 449 1
287 483 1
287 519 1
287 553 1
287 587 1
288 207 1
288 241 1
288 275 1
288 416 1
288 450 1
288 484 1
288 520 1
288 554 1
288 588 1
289 208 1
289 242 1
289 276 1
289 417 1
289 451 1
289 485 1
289 521 1
289 555 1
289 589 1
290 226 1
290 243 1
290 294 1
290 435 1
290 452 1
290 503 1
290 539 1
290 556 1
290 607 1
291 227 1
291 244 1
291 295 1
291 436 1
291 453 1
291 504 1
291 540 1
291 557 1
291 608 1
292 228 1
292 245 1
292 296 1
292 437 1
292 454 1
292 505 1
292 541 1
292 558 1
292 609 1
293 229 1
293 246 1
293 297 1
293 438 1
293 455 1
293 506 1
293 542 1
293 559 1
293 610 1
294 230 1
294 247 1
294 298 1
294 439 1
294 456 1
294 507 1
294 543 1
294 560 1
294 611 1
295 231 1
295 248 1
295 299 1
295 440 1
295 457 1
295 508 1
295 544 1
295 561 1
295 612 1
296 232 1
296 249 1
296 300 1
296 441 1
296 458 1
296 509 1
296 528 1
296 545 1
296 596 1
297 233 1
297 250 1
297 301 1
297 442 1
297 459 1
297 510 1
297 529 1
297 546 1
297 597 1
298 234 1
298 251 1
298 302 1
298 426 1
298 443 1
298 494 1
298 530 1
298 547 1
298 598 1
299 235 1
299 252 1
299 303 1
299 427 1
299 444 1
299 495 1
299 531 1
299 548 1
299 599 1
300 236 1
300 253 1
300 304 1
300 428 1
300 445 1
300 496 1
300 532 1
300 549 1
300 600 1
301 237 1
301 254 1
301 305 1
301 429 1
301 446 1
301 497 1
301 533 1
301 550 1
301 601 1
302 238 1
302 255 1
302 306 1
302 430 1
302 447 1
302 498 1
302 534 1
302 551 1
302 602 1
303 222 1
303 239 1
303 290 1
303 431 1
303 448 1
303 499 1
303 535 1
303 552 1
303 603 1
304 223 1
304 240 1
304 291 1
304 432 1
304 449 1
304 500 1
304 536 1
304 553 1
304 604 1
305 224 1
305 241 1
305 292 1
305 433 1
305 450 1
305 501 1
305 537 1
305 554 1
305 605 1
306 225 1
306 242 1
306 293 1
306 434 1
306 451 1
306 502 1
306 538 1
306 555 1
306 606 1
