%%MatrixMarket matrix coordinate integer general
324 648 2916
1 1 1
1 23 1
1 106 1
1 325 1
1 347 1
1 430 1
1 433 1
1 455 1
1 538 1
2 2 1
2 21 1
2 104 1
2 326 1
2 345 1
2 428 1
2 434 1
2 453 1
2 536 1
3 3 1
3 20 1
3 102 1
3 327 1
3 344 1
3 426 1
3 435 1
3 452 1
3 534 1
4 4 1
4 34 1
4 101 1
4 328 1
4 358 1
4 425 1
4 436 1
4 466 1
4 533 1
5 5 1
5 19 1
5 99 1
5 329 1
5 343 1
5 423 1
5 437 1
5 451 1
5 531 1
6 6 1
6 32 1
6 98 1
6 330 1
6 356 1
6 422 1
6 438 1
6 464 1
6 530 1
7 7 1
7 36 1
7 105 1
7 331 1
7 360 1
7 429 1
7 439 1
7 468 1
7 537 1
8 8 1
8 30 1
8 96 1
8 332 1
8 354 1
8 420 1
8 440 1
8 462 1
8 528 1
9 9 1
9 29 1
9 95 1
9 333 1
9 353 1
9 419 1
9 441 1
9 461 1
9 527 1
10 10 1
10 35 1
10 103 1
10 334 1
10 359 1
10 427 1
10 442 1
10 467 1
10 535 1
11 11 1
11 27 1
11 94 1
11 335 1
11 351 1
11 418 1
11 443 1
11 459 1
11 526 1
12 12 1
12 26 1
12 93 1
12 336 1
12 350 1
12 417 1
12 444 1
12 458 1
12 525 1
13 13 1
13 33 1
13 100 1
13 337 1
13 357 1
13 424 1
13 445 1
13 465 1
13 532 1
14 14 1
14 24 1
14 92 1
14 338 1
14 348 1
14 416 1
14 446 1
14 456 1
14 524 1
15 15 1
15 31 1
15 97 1
15 339 1
15 355 1
15 421 1
15 447 1
15 463 1
15 529 1
16 16 1
16 22 1
16 91 1
16 340 1
16 346 1
16 415 1
16 448 1
16 454 1
16 523 1
17 17 1
17 28 1
17 108 1
17 341 1
17 352 1
17 432 1
17 449 1
17 460 1
17 540 1
18 18 1
18 25 1
18 107 1
18 342 1
18 349 1
18 431 1
18 450 1
18 457 1
18 539 1
19 1 1
19 66 1
19 80 1
19 325 1
19 390 1
19 404 1
19 433 1
19 498 1
19 512 1
20 2 1
20 63 1
20 83 1
20 326 1
20 387 1
20 407 1
20 434 1
20 495 1
20 515 1
21 3 1
21 69 1
21 85 1
21 327 1
21 393 1
21 409 1
21 435 1
21 501 1
21 517 1
22 4 1
22 60 1
22 86 1
22 328 1
22 384 1
22 410 1
22 436 1
22 492 1
22 518 1
23 5 1
23 67 1
23 87 1
23 329 1
23 391 1
23 411 1
23 437 1
23 499 1
23 519 1
24 6 1
24 58 1
24 88 1
24 330 1
24 382 1
24 412 1
24 438 1
24 490 1
24 520 1
25 7 1
25 65 1
25 81 1
25 331 1
25 389 1
25 405 1
25 439 1
25 497 1
25 513 1
26 8 1
26 64 1
26 89 1
26 332 1
26 388 1
26 413 1
26 440 1
26 496 1
26 521 1
27 9 1
27 56 1
27 75 1
27 333 1
27 380 1
27 399 1
27 441 1
27 488 1
27 507 1
28 10 1
28 62 1
28 84 1
28 334 1
28 386 1
28 408 1
28 442 1
28 494 1
28 516 1
29 11 1
29 61 1
29 90 1
29 335 1
29 385 1
29 414 1
29 443 1
29 493 1
29 522 1
30 12 1
30 55 1
30 77 1
30 336 1
30 379 1
30 401 1
30 444 1
30 487 1
30 509 1
31 13 1
31 59 1
31 73 1
31 337 1
31 383 1
31 397 1
31 445 1
31 491 1
31 505 1
32 14 1
32 72 1
32 79 1
32 338 1
32 396 1
32 403 1
32 446 1
32 504 1
32 511 1
33 15 1
33 57 1
33 74 1
33 339 1
33 381 1
33 398 1
33 447 1
33 489 1
33 506 1
34 16 1
34 71 1
34 82 1
34 340 1
34 395 1
34 406 1
34 448 1
34 503 1
34 514 1
35 17 1
35 70 1
35 76 1
35 341 1
35 394 1
35 400 1
35 449 1
35 502 1
35 508 1
36 18 1
36 68 1
36 78 1
36 342 1
36 392 1
36 402 1
36 450 1
36 500 1
36 510 1
37 23 1
37 40 1
37 66 1
37 347 1
37 364 1
37 390 1
37 455 1
37 472 1
37 498 1
38 21 1
38 42 1
38 63 1
38 345 1
38 366 1
38 387 1
38 453 1
38 474 1
38 495 1
39 20 1
39 44 1
39 69 1
39 344 1
39 368 1
39 393 1
39 452 1
39 476 1
39 501 1
40 34 1
40 45 1
40 60 1
40 358 1
40 369 1
40 384 1
40 466 1
40 477 1
40 492 1
41 19 1
41 47 1
41 67 1
41 343 1
41 371 1
41 391 1
41 451 1
41 479 1
41 499 1
42 32 1
42 48 1
42 58 1
42 356 1
42 372 1
42 382 1
42 464 1
42 480 1
42 490 1
43 36 1
43 49 1
43 65 1
43 360 1
43 373 1
43 389 1
43 468 1
43 481 1
43 497 1
44 30 1
44 50 1
44 64 1
44 354 1
44 374 1
44 388 1
44 462 1
44 482 1
44 496 1
45 29 1
45 37 1
45 56 1
45 353 1
45 361 1
45 380 1
45 461 1
45 469 1
45 488 1
46 35 1
46 51 1
46 62 1
46 359 1
46 375 1
46 386 1
46 467 1
46 483 1
46 494 1
47 27 1
47 52 1
47 61 1
47 351 1
47 376 1
47 385 1
47 459 1
47 484 1
47 493 1
48 26 1
48 38 1
48 55 1
48 350 1
48 362 1
48 379 1
48 458 1
48 470 1
48 487 1
49 33 1
49 53 1
49 59 1
49 357 1
49 377 1
49 383 1
49 465 1
49 485 1
49 491 1
50 24 1
50 39 1
50 72 1
50 348 1
50 363 1
50 396 1
50 456 1
50 471 1
50 504 1
51 31 1
51 54 1
51 57 1
51 355 1
51 378 1
51 381 1
51 463 1
51 486 1
51 489 1
52 22 1
52 41 1
52 71 1
52 346 1
52 365 1
52 395 1
52 454 1
52 473 1
52 503 1
53 28 1
53 43 1
53 70 1
53 352 1
53 367 1
53 394 1
53 460 1
53 475 1
53 502 1
54 25 1
54 46 1
54 68 1
54 349 1
54 370 1
54 392 1
54 457 1
54 478 1
54 500 1
55 109 1
55 131 1
55 214 1
55 325 1
55 347 1
55 430 1
55 541 1
55 563 1
55 646 1
56 110 1
56 129 1
56 212 1
56 326 1
56 345 1
56 428 1
56 542 1
56 561 1
56 644 1
57 111 1
57 128 1
57 210 1
57 327 1
57 344 1
57 426 1
57 543 1
57 560 1
57 642 1
58 112 1
58 142 1
58 209 1
58 328 1
58 358 1
58 425 1
58 544 1
58 574 1
58 641 1
59 113 1
59 127 1
59 207 1
59 329 1
59 343 1
59 423 1
59 545 1
59 559 1
59 639 1
60 114 1
60 140 1
60 206 1
60 330 1
60 356 1
60 422 1
60 546 1
60 572 1
60 638 1
61 115 1
61 144 1
61 213 1
61 331 1
61 360 1
61 429 1
61 547 1
61 576 1
61 645 1
62 116 1
62 138 1
62 204 1
62 332 1
62 354 1
62 420 1
62 548 1
62 570 1
62 636 1
63 117 1
63 137 1
63 203 1
63 333 1
63 353 1
63 419 1
63 549 1
63 569 1
63 635 1
64 118 1
64 143 1
64 211 1
64 334 1
64 359 1
64 427 1
64 550 1
64 575 1
64 643 1
65 119 1
65 135 1
65 202 1
65 335 1
65 351 1
65 418 1
65 551 1
65 567 1
65 634 1
66 120 1
66 134 1
66 201 1
66 336 1
66 350 1
66 417 1
66 552 1
66 566 1
66 633 1
67 121 1
67 141 1
67 208 1
67 337 1
67 357 1
67 424 1
67 553 1
67 573 1
67 640 1
68 122 1
68 132 1
68 200 1
68 338 1
68 348 1
68 416 1
68 554 1
68 564 1
68 632 1
69 123 1
69 139 1
69 205 1
69 339 1
69 355 1
69 421 1
69 555 1
69 571 1
69 637 1
70 124 1
70 130 1
70 199 1
70 340 1
70 346 1
70 415 1
70 556 1
70 562 1
70 631 1
71 125 1
71 136 1
71 216 1
71 341 1
71 352 1
71 432 1
71 557 1
71 568 1
71 648 1
72 126 1
72 133 1
72 215 1
72 342 1
72 349 1
72 431 1
72 558 1
72 565 1
72 647 1
73 109 1
73 174 1
73 188 1
73 325 1
73 390 1
73 404 1
73 541 1
73 606 1
73 620 1
74 110 1
74 171 1
74 191 1
74 326 1
74 387 1
74 407 1
74 542 1
74 603 1
74 623 1
75 111 1
75 177 1
75 193 1
75 327 1
75 393 1
75 409 1
75 543 1
75 609 1
75 625 1
76 112 1
76 168 1
76 194 1
76 328 1
76 384 1
76 410 1
76 544 1
76 600 1
76 626 1
77 113 1
77 175 1
77 195 1
77 329 1
77 391 1
77 411 1
77 545 1
77 607 1
77 627 1
78 114 1
78 166 1
78 196 1
78 330 1
78 382 1
78 412 1
78 546 1
78 598 1
78 628 1
79 115 1
79 173 1
79 189 1
79 331 1
79 389 1
79 405 1
79 547 1
79 605 1
79 621 1
80 116 1
80 172 1
80 197 1
80 332 1
80 388 1
80 413 1
80 548 1
80 604 1
80 629 1
81 117 1
81 164 1
81 183 1
81 333 1
81 380 1
81 399 1
81 549 1
81 596 1
81 615 1
82 118 1
82 170 1
82 192 1
82 334 1
82 386 1
82 408 1
82 550 1
82 602 1
82 624 1
83 119 1
83 169 1
83 198 1
83 335 1
83 385 1
83 414 1
83 551 1
83 601 1
83 630 1
84 120 1
84 163 1
84 185 1
84 336 1
84 379 1
84 401 1
84 552 1
84 595 1
84 617 1
85 121 1
85 167 1
85 181 1
85 337 1
85 383 1
85 397 1
85 553 1
85 599 1
85 613 1
86 122 1
86 180 1
86 187 1
86 338 1
86 396 1
86 403 1
86 554 1
86 612 1
86 619 1
87 123 1
87 165 1
87 182 1
87 339 1
87 381 1
87 398 1
87 555 1
87 597 1
87 614 1
88 124 1
88 179 1
88 190 1
88 340 1
88 395 1
88 406 1
88 556 1
88 611 1
88 622 1
89 125 1
89 178 1
89 184 1
89 341 1
89 394 1
89 400 1
89 557 1
89 610 1
89 616 1
90 126 1
90 176 1
90 186 1
90 342 1
90 392 1
90 402 1
90 558 1
90 608 1
90 618 1
91 131 1
91 148 1
91 174 1
91 347 1
91 364 1
91 390 1
91 563 1
91 580 1
91 606 1
92 129 1
92 150 1
92 171 1
92 345 1
92 366 1
92 387 1
92 561 1
92 582 1
92 603 1
93 128 1
93 152 1
93 177 1
93 344 1
93 368 1
93 393 1
93 560 1
93 584 1
93 609 1
94 142 1
94 153 1
94 168 1
94 358 1
94 369 1
94 384 1
94 574 1
94 585 1
94 600 1
95 127 1
95 155 1
95 175 1
95 343 1
95 371 1
95 391 1
95 559 1
95 587 1
95 607 1
96 140 1
96 156 1
96 166 1
96 356 1
96 372 1
96 382 1
96 572 1
96 588 1
96 598 1
97 144 1
97 157 1
97 173 1
97 360 1
97 373 1
97 389 1
97 576 1
97 589 1
97 605 1
98 138 1
98 158 1
98 172 1
98 354 1
98 374 1
98 388 1
98 570 1
98 590 1
98 604 1
99 137 1
99 145 1
99 164 1
99 353 1
99 361 1
99 380 1
99 569 1
99 577 1
99 596 1
100 143 1
100 159 1
100 170 1
100 359 1
100 375 1
100 386 1
100 575 1
100 591 1
100 602 1
101 135 1
101 160 1
101 169 1
101 351 1
101 376 1
101 385 1
101 567 1
101 592 1
101 601 1
102 134 1
102 146 1
102 163 1
102 350 1
102 362 1
102 379 1
102 566 1
102 578 1
102 595 1
103 141 1
103 161 1
103 167 1
103 357 1
103 377 1
103 383 1
103 573 1
103 593 1
103 599 1
104 132 1
104 147 1
104 180 1
104 348 1
104 363 1
104 396 1
104 564 1
104 579 1
104 612 1
105 139 1
105 162 1
105 165 1
105 355 1
105 378 1
105 381 1
105 571 1
105 594 1
105 597 1
106 130 1
106 149 1
106 179 1
106 346 1
106 365 1
106 395 1
106 562 1
106 581 1
106 611 1
107 136 1
107 151 1
107 178 1
107 352 1
107 367 1
107 394 1
107 568 1
107 583 1
107 610 1
108 133 1
108 154 1
108 176 1
108 349 1
108 370 1
108 392 1
108 565 1
108 586 1
108 608 1
109 217 1
109 239 1
109 322 1
109 433 1
109 455 1
109 538 1
109 541 1
109 563 1
109 646 1
110 218 1
110 237 1
110 320 1
110 434 1
110 453 1
110 536 1
110 542 1
110 561 1
110 644 1
111 219 1
111 236 1
111 318 1
111 435 1
111 452 1
111 534 1
111 543 1
111 560 1
111 642 1
112 220 1
112 250 1
112 317 1
112 436 1
112 466 1
112 533 1
112 544 1
112 574 1
112 641 1
113 221 1
113 235 1
113 315 1
113 437 1
113 451 1
113 531 1
113 545 1
113 559 1
113 639 1
114 222 1
114 248 1
114 314 1
114 438 1
114 464 1
114 530 1
114 546 1
114 572 1
114 638 1
115 223 1
115 252 1
115 321 1
115 439 1
115 468 1
115 537 1
115 547 1
115 576 1
115 645 1
116 224 1
116 246 1
116 312 1
116 440 1
116 462 1
116 528 1
116 548 1
116 570 1
116 636 1
117 225 1
117 245 1
117 311 1
117 441 1
117 461 1
117 527 1
117 549 1
117 569 1
117 635 1
118 226 1
118 251 1
118 319 1
118 442 1
118 467 1
118 535 1
118 550 1
118 575 1
118 643 1
119 227 1
119 243 1
119 310 1
119 443 1
119 459 1
119 526 1
119 551 1
119 567 1
119 634 1
120 228 1
120 242 1
120 309 1
120 444 1
120 458 1
120 525 1
120 552 1
120 566 1
120 633 1
121 229 1
121 249 1
121 316 1
121 445 1
121 465 1
121 532 1
121 553 1
121 573 1
121 640 1
122 230 1
122 240 1
122 308 1
122 446 1
122 456 1
122 524 1
122 554 1
122 564 1
122 632 1
123 231 1
123 247 1
123 313 1
123 447 1
123 463 1
123 529 1
123 555 1
123 571 1
123 637 1
124 232 1
124 238 1
124 307 1
124 448 1
124 454 1
124 523 1
124 556 1
124 562 1
124 631 1
125 233 1
125 244 1
125 324 1
125 449 1
125 460 1
125 540 1
125 557 1
125 568 1
125 648 1
126 234 1
126 241 1
126 323 1
126 450 1
126 457 1
126 539 1
126 558 1
126 565 1
126 647 1
127 217 1
127 282 1
127 296 1
127 433 1
127 498 1
127 512 1
127 541 1
127 606 1
127 620 1
128 218 1
128 279 1
128 299 1
128 434 1
128 495 1
128 515 1
128 542 1
128 603 1
128 623 1
129 219 1
129 285 1
129 301 1
129 435 1
129 501 1
129 517 1
129 543 1
129 609 1
129 625 1
130 220 1
130 276 1
130 302 1
130 436 1
130 492 1
130 518 1
130 544 1
130 600 1
130 626 1
131 221 1
131 283 1
131 303 1
131 437 1
131 499 1
131 519 1
131 545 1
131 607 1
131 627 1
132 222 1
132 274 1
132 304 1
132 438 1
132 490 1
132 520 1
132 546 1
132 598 1
132 628 1
133 223 1
133 281 1
133 297 1
133 439 1
133 497 1
133 513 1
133 547 1
133 605 1
133 621 1
134 224 1
134 280 1
134 305 1
134 440 1
134 496 1
134 521 1
134 548 1
134 604 1
134 629 1
135 225 1
135 272 1
135 291 1
135 441 1
135 488 1
135 507 1
135 549 1
135 596 1
135 615 1
136 226 1
136 278 1
136 300 1
136 442 1
136 494 1
136 516 1
136 550 1
136 602 1
136 624 1
137 227 1
137 277 1
137 306 1
137 443 1
137 493 1
137 522 1
137 551 1
137 601 1
137 630 1
138 228 1
138 271 1
138 293 1
138 444 1
138 487 1
138 509 1
138 552 1
138 595 1
138 617 1
139 229 1
139 275 1
139 289 1
139 445 1
139 491 1
139 505 1
139 553 1
139 599 1
139 613 1
140 230 1
140 288 1
140 295 1
140 446 1
140 504 1
140 511 1
140 554 1
140 612 1
140 619 1
141 231 1
141 273 1
141 290 1
141 447 1
141 489 1
141 506 1
141 555 1
141 597 1
141 614 1
142 232 1
142 287 1
142 298 1
142 448 1
142 503 1
142 514 1
142 556 1
142 611 1
142 622 1
143 233 1
143 286 1
143 292 1
143 449 1
143 502 1
143 508 1
143 557 1
143 610 1
143 616 1
144 234 1
144 284 1
144 294 1
144 450 1
144 500 1
144 510 1
144 558 1
144 608 1
144 618 1
145 239 1
145 256 1
145 282 1
145 455 1
145 472 1
145 498 1
145 563 1
145 580 1
145 606 1
146 237 1
146 258 1
146 279 1
146 453 1
146 474 1
146 495 1
146 561 1
146 582 1
146 603 1
147 236 1
147 260 1
147 285 1
147 452 1
147 476 1
147 501 1
147 560 1
147 584 1
147 609 1
148 250 1
148 261 1
148 276 1
148 466 1
148 477 1
148 492 1
148 574 1
148 585 1
148 600 1
149 235 1
149 263 1
149 283 1
149 451 1
149 479 1
149 499 1
149 559 1
149 587 1
149 607 1
150 248 1
150 264 1
150 274 1
150 464 1
150 480 1
150 490 1
150 572 1
150 588 1
150 598 1
151 252 1
151 265 1
151 281 1
151 468 1
151 481 1
151 497 1
151 576 1
151 589 1
151 605 1
152 246 1
152 266 1
152 280 1
152 462 1
152 482 1
152 496 1
152 570 1
152 590 1
152 604 1
153 245 1
153 253 1
153 272 1
153 461 1
153 469 1
153 488 1
153 569 1
153 577 1
153 596 1
154 251 1
154 267 1
154 278 1
154 467 1
154 483 1
154 494 1
154 575 1
154 591 1
154 602 1
155 243 1
155 268 1
155 277 1
155 459 1
155 484 1
155 493 1
155 567 1
155 592 1
155 601 1
156 242 1
156 254 1
156 271 1
156 458 1
156 470 1
156 487 1
156 566 1
156 578 1
156 595 1
157 249 1
157 269 1
157 275 1
157 465 1
157 485 1
157 491 1
157 573 1
157 593 1
157 599 1
158 240 1
158 255 1
158 288 1
158 456 1
158 471 1
158 504 1
158 564 1
158 579 1
158 612 1
159 247 1
159 270 1
159 273 1
159 463 1
159 486 1
159 489 1
159 571 1
159 594 1
159 597 1
160 238 1
160 257 1
160 287 1
160 454 1
160 473 1
160 503 1
160 562 1
160 581 1
160 611 1
161 244 1
161 259 1
161 286 1
161 460 1
161 475 1
161 502 1
161 568 1
161 583 1
161 610 1
162 241 1
162 262 1
162 284 1
162 457 1
162 478 1
162 500 1
162 565 1
162 586 1
162 608 1
163 1 1
163 19 1
163 55 1
163 225 1
163 243 1
163 279 1
163 336 1
163 354 1
163 390 1
164 2 1
164 20 1
164 56 1
164 222 1
164 240 1
164 276 1
164 328 1
164 346 1
164 382 1
165 3 1
165 21 1
165 57 1
165 230 1
165 248 1
165 284 1
165 340 1
165 358 1
165 394 1
166 4 1
166 22 1
166 58 1
166 217 1
166 235 1
166 271 1
166 326 1
166 344 1
166 380 1
167 5 1
167 23 1
167 59 1
167 227 1
167 245 1
167 281 1
167 332 1
167 350 1
167 386 1
168 6 1
168 24 1
168 60 1
168 228 1
168 246 1
168 282 1
168 333 1
168 351 1
168 387 1
169 7 1
169 25 1
169 61 1
169 233 1
169 251 1
169 287 1
169 342 1
169 360 1
169 396 1
170 8 1
170 26 1
170 62 1
170 219 1
170 237 1
170 273 1
170 329 1
170 347 1
170 383 1
171 9 1
171 27 1
171 63 1
171 220 1
171 238 1
171 274 1
171 330 1
171 348 1
171 384 1
172 10 1
172 28 1
172 64 1
172 231 1
172 249 1
172 285 1
172 337 1
172 355 1
172 391 1
173 11 1
173 29 1
173 65 1
173 232 1
173 250 1
173 286 1
173 338 1
173 356 1
173 392 1
174 12 1
174 30 1
174 66 1
174 218 1
174 236 1
174 272 1
174 325 1
174 343 1
174 379 1
175 13 1
175 31 1
175 67 1
175 223 1
175 241 1
175 277 1
175 334 1
175 352 1
175 388 1
176 14 1
176 32 1
176 68 1
176 224 1
176 242 1
176 278 1
176 335 1
176 353 1
176 389 1
177 15 1
177 33 1
177 69 1
177 234 1
177 252 1
177 288 1
177 341 1
177 359 1
177 395 1
178 16 1
178 34 1
178 70 1
178 221 1
178 239 1
178 275 1
178 327 1
178 345 1
178 381 1
179 17 1
179 35 1
179 71 1
179 229 1
179 247 1
179 283 1
179 339 1
179 357 1
179 393 1
180 18 1
180 36 1
180 72 1
180 226 1
180 244 1
180 280 1
180 331 1
180 349 1
180 385 1
181 1 1
181 37 1
181 73 1
181 225 1
181 261 1
181 297 1
181 336 1
181 372 1
181 408 1
182 2 1
182 38 1
182 74 1
182 222 1
182 258 1
182 294 1
182 328 1
182 364 1
182 400 1
183 3 1
183 39 1
183 75 1
183 230 1
183 266 1
183 302 1
183 340 1
183 376 1
183 412 1
184 4 1
184 40 1
184 76 1
184 217 1
184 253 1
184 289 1
184 326 1
184 362 1
184 398 1
185 5 1
185 41 1
185 77 1
185 227 1
185 263 1
185 299 1
185 332 1
185 368 1
185 404 1
186 6 1
186 42 1
186 78 1
186 228 1
186 264 1
186 300 1
186 333 1
186 369 1
186 405 1
187 7 1
187 43 1
187 79 1
187 233 1
187 269 1
187 305 1
187 342 1
187 378 1
187 414 1
188 8 1
188 44 1
188 80 1
188 219 1
188 255 1
188 291 1
188 329 1
188 365 1
188 401 1
189 9 1
189 45 1
189 81 1
189 220 1
189 256 1
189 292 1
189 330 1
189 366 1
189 402 1
190 10 1
190 46 1
190 82 1
190 231 1
190 267 1
190 303 1
190 337 1
190 373 1
190 409 1
191 11 1
191 47 1
191 83 1
191 232 1
191 268 1
191 304 1
191 338 1
191 374 1
191 410 1
192 12 1
192 48 1
192 84 1
192 218 1
192 254 1
192 290 1
192 325 1
192 361 1
192 397 1
193 13 1
193 49 1
193 85 1
193 223 1
193 259 1
193 295 1
193 334 1
193 370 1
193 406 1
194 14 1
194 50 1
194 86 1
194 224 1
194 260 1
194 296 1
194 335 1
194 371 1
194 407 1
195 15 1
195 51 1
195 87 1
195 234 1
195 270 1
195 306 1
195 341 1
195 377 1
195 413 1
196 16 1
196 52 1
196 88 1
196 221 1
196 257 1
196 293 1
196 327 1
196 363 1
196 399 1
197 17 1
197 53 1
197 89 1
197 229 1
197 265 1
197 301 1
197 339 1
197 375 1
197 411 1
198 18 1
198 54 1
198 90 1
198 226 1
198 262 1
198 298 1
198 331 1
198 367 1
198 403 1
199 19 1
199 37 1
199 91 1
199 243 1
199 261 1
199 315 1
199 354 1
199 372 1
199 426 1
200 20 1
200 38 1
200 92 1
200 240 1
200 258 1
200 312 1
200 346 1
200 364 1
200 418 1
201 21 1
201 39 1
201 93 1
201 248 1
201 266 1
201 320 1
201 358 1
201 376 1
201 430 1
202 22 1
202 40 1
202 94 1
202 235 1
202 253 1
202 307 1
202 344 1
202 362 1
202 416 1
203 23 1
203 41 1
203 95 1
203 245 1
203 263 1
203 317 1
203 350 1
203 368 1
203 422 1
204 24 1
204 42 1
204 96 1
204 246 1
204 264 1
204 318 1
204 351 1
204 369 1
204 423 1
205 25 1
205 43 1
205 97 1
205 251 1
205 269 1
205 323 1
205 360 1
205 378 1
205 432 1
206 26 1
206 44 1
206 98 1
206 237 1
206 255 1
206 309 1
206 347 1
206 365 1
206 419 1
207 27 1
207 45 1
207 99 1
207 238 1
207 256 1
207 310 1
207 348 1
207 366 1
207 420 1
208 28 1
208 46 1
208 100 1
208 249 1
208 267 1
208 321 1
208 355 1
208 373 1
208 427 1
209 29 1
209 47 1
209 101 1
209 250 1
209 268 1
209 322 1
209 356 1
209 374 1
209 428 1
210 30 1
210 48 1
210 102 1
210 236 1
210 254 1
210 308 1
210 343 1
210 361 1
210 415 1
211 31 1
211 49 1
211 103 1
211 241 1
211 259 1
211 313 1
211 352 1
211 370 1
211 424 1
212 32 1
212 50 1
212 104 1
212 242 1
212 260 1
212 314 1
212 353 1
212 371 1
212 425 1
213 33 1
213 51 1
213 105 1
213 252 1
213 270 1
213 324 1
213 359 1
213 377 1
213 431 1
214 34 1
214 52 1
214 106 1
214 239 1
214 257 1
214 311 1
214 345 1
214 363 1
214 417 1
215 35 1
215 53 1
215 107 1
215 247 1
215 265 1
215 319 1
215 357 1
215 375 1
215 429 1
216 36 1
216 54 1
216 108 1
216 244 1
216 262 1
216 316 1
216 349 1
216 367 1
216 421 1
217 115 1
217 133 1
217 169 1
217 225 1
217 243 1
217 279 1
217 557 1
217 575 1
217 611 1
218 124 1
218 142 1
218 178 1
218 222 1
218 240 1
218 276 1
218 545 1
218 563 1
218 599 1
219 112 1
219 130 1
219 166 1
219 230 1
219 248 1
219 284 1
219 541 1
219 559 1
219 595 1
220 121 1
220 139 1
220 175 1
220 217 1
220 235 1
220 271 1
220 547 1
220 565 1
220 601 1
221 126 1
221 144 1
221 180 1
221 227 1
221 245 1
221 281 1
221 550 1
221 568 1
221 604 1
222 113 1
222 131 1
222 167 1
222 228 1
222 246 1
222 282 1
222 551 1
222 569 1
222 605 1
223 116 1
223 134 1
223 170 1
223 233 1
223 251 1
223 287 1
223 543 1
223 561 1
223 597 1
224 117 1
224 135 1
224 171 1
224 219 1
224 237 1
224 273 1
224 544 1
224 562 1
224 598 1
225 125 1
225 143 1
225 179 1
225 220 1
225 238 1
225 274 1
225 553 1
225 571 1
225 607 1
226 110 1
226 128 1
226 164 1
226 231 1
226 249 1
226 285 1
226 546 1
226 564 1
226 600 1
227 118 1
227 136 1
227 172 1
227 232 1
227 250 1
227 286 1
227 555 1
227 573 1
227 609 1
228 119 1
228 137 1
228 173 1
228 218 1
228 236 1
228 272 1
228 556 1
228 574 1
228 610 1
229 122 1
229 140 1
229 176 1
229 223 1
229 241 1
229 277 1
229 548 1
229 566 1
229 602 1
230 109 1
230 127 1
230 163 1
230 224 1
230 242 1
230 278 1
230 549 1
230 567 1
230 603 1
231 114 1
231 132 1
231 168 1
231 234 1
231 252 1
231 288 1
231 552 1
231 570 1
231 606 1
232 123 1
232 141 1
232 177 1
232 221 1
232 239 1
232 275 1
232 558 1
232 576 1
232 612 1
233 111 1
233 129 1
233 165 1
233 229 1
233 247 1
233 283 1
233 554 1
233 572 1
233 608 1
234 120 1
234 138 1
234 174 1
234 226 1
234 244 1
234 280 1
234 542 1
234 560 1
234 596 1
235 115 1
235 151 1
235 187 1
235 225 1
235 261 1
235 297 1
235 557 1
235 593 1
235 629 1
236 124 1
236 160 1
236 196 1
236 222 1
236 258 1
236 294 1
236 545 1
236 581 1
236 617 1
237 112 1
237 148 1
237 184 1
237 230 1
237 266 1
237 302 1
237 541 1
237 577 1
237 613 1
238 121 1
238 157 1
238 193 1
238 217 1
238 253 1
238 289 1
238 547 1
238 583 1
238 619 1
239 126 1
239 162 1
239 198 1
239 227 1
239 263 1
239 299 1
239 550 1
239 586 1
239 622 1
240 113 1
240 149 1
240 185 1
240 228 1
240 264 1
240 300 1
240 551 1
240 587 1
240 623 1
241 116 1
241 152 1
241 188 1
241 233 1
241 269 1
241 305 1
241 543 1
241 579 1
241 615 1
242 117 1
242 153 1
242 189 1
242 219 1
242 255 1
242 291 1
242 544 1
242 580 1
242 616 1
243 125 1
243 161 1
243 197 1
243 220 1
243 256 1
243 292 1
243 553 1
243 589 1
243 625 1
244 110 1
244 146 1
244 182 1
244 231 1
244 267 1
244 303 1
244 546 1
244 582 1
244 618 1
245 118 1
245 154 1
245 190 1
245 232 1
245 268 1
245 304 1
245 555 1
245 591 1
245 627 1
246 119 1
246 155 1
246 191 1
246 218 1
246 254 1
246 290 1
246 556 1
246 592 1
246 628 1
247 122 1
247 158 1
247 194 1
247 223 1
247 259 1
247 295 1
247 548 1
247 584 1
247 620 1
248 109 1
248 145 1
248 181 1
248 224 1
248 260 1
248 296 1
248 549 1
248 585 1
248 621 1
249 114 1
249 150 1
249 186 1
249 234 1
249 270 1
249 306 1
249 552 1
249 588 1
249 624 1
250 123 1
250 159 1
250 195 1
250 221 1
250 257 1
250 293 1
250 558 1
250 594 1
250 630 1
251 111 1
251 147 1
251 183 1
251 229 1
251 265 1
251 301 1
251 554 1
251 590 1
251 626 1
252 120 1
252 156 1
252 192 1
252 226 1
252 262 1
252 298 1
252 542 1
252 578 1
252 614 1
253 133 1
253 151 1
253 205 1
253 243 1
253 261 1
253 315 1
253 575 1
253 593 1
253 647 1
254 142 1
254 160 1
254 214 1
254 240 1
254 258 1
254 312 1
254 563 1
254 581 1
254 635 1
255 130 1
255 148 1
255 202 1
255 248 1
255 266 1
255 320 1
255 559 1
255 577 1
255 631 1
256 139 1
256 157 1
256 211 1
256 235 1
256 253 1
256 307 1
256 565 1
256 583 1
256 637 1
257 144 1
257 162 1
257 216 1
257 245 1
257 263 1
257 317 1
257 568 1
257 586 1
257 640 1
258 131 1
258 149 1
258 203 1
258 246 1
258 264 1
258 318 1
258 569 1
258 587 1
258 641 1
259 134 1
259 152 1
259 206 1
259 251 1
259 269 1
259 323 1
259 561 1
259 579 1
259 633 1
260 135 1
260 153 1
260 207 1
260 237 1
260 255 1
260 309 1
260 562 1
260 580 1
260 634 1
261 143 1
261 161 1
261 215 1
261 238 1
261 256 1
261 310 1
261 571 1
261 589 1
261 643 1
262 128 1
262 146 1
262 200 1
262 249 1
262 267 1
262 321 1
262 564 1
262 582 1
262 636 1
263 136 1
263 154 1
263 208 1
263 250 1
263 268 1
263 322 1
263 573 1
263 591 1
263 645 1
264 137 1
264 155 1
264 209 1
264 236 1
264 254 1
264 308 1
264 574 1
264 592 1
264 646 1
265 140 1
265 158 1
265 212 1
265 241 1
265 259 1
265 313 1
265 566 1
265 584 1
265 638 1
266 127 1
266 145 1
266 199 1
266 242 1
266 260 1
266 314 1
266 567 1
266 585 1
266 639 1
267 132 1
267 150 1
267 204 1
267 252 1
267 270 1
267 324 1
267 570 1
267 588 1
267 642 1
268 141 1
268 159 1
268 213 1
268 239 1
268 257 1
268 311 1
268 576 1
268 594 1
268 648 1
269 129 1
269 147 1
269 201 1
269 247 1
269 265 1
269 319 1
269 572 1
269 590 1
269 644 1
270 138 1
270 156 1
270 210 1
270 244 1
270 262 1
270 316 1
270 560 1
270 578 1
270 632 1
271 336 1
271 354 1
271 390 1
271 447 1
271 465 1
271 501 1
271 557 1
271 575 1
271 611 1
272 328 1
272 346 1
272 382 1
272 440 1
272 458 1
272 494 1
272 545 1
272 563 1
272 599 1
273 340 1
273 358 1
273 394 1
273 444 1
273 462 1
273 498 1
273 541 1
273 559 1
273 595 1
274 326 1
274 344 1
274 380 1
274 450 1
274 468 1
274 504 1
274 547 1
274 565 1
274 601 1
275 332 1
275 350 1
275 386 1
275 445 1
275 463 1
275 499 1
275 550 1
275 568 1
275 604 1
276 333 1
276 351 1
276 387 1
276 446 1
276 464 1
276 500 1
276 551 1
276 569 1
276 605 1
277 342 1
277 360 1
277 396 1
277 448 1
277 466 1
277 502 1
277 543 1
277 561 1
277 597 1
278 329 1
278 347 1
278 383 1
278 434 1
278 452 1
278 488 1
278 544 1
278 562 1
278 598 1
279 330 1
279 348 1
279 384 1
279 442 1
279 460 1
279 496 1
279 553 1
279 571 1
279 607 1
280 337 1
280 355 1
280 391 1
280 441 1
280 459 1
280 495 1
280 546 1
280 564 1
280 600 1
281 338 1
281 356 1
281 392 1
281 449 1
281 467 1
281 503 1
281 555 1
281 573 1
281 609 1
282 325 1
282 343 1
282 379 1
282 435 1
282 453 1
282 489 1
282 556 1
282 574 1
282 610 1
283 334 1
283 352 1
283 388 1
283 437 1
283 455 1
283 491 1
283 548 1
283 566 1
283 602 1
284 335 1
284 353 1
284 389 1
284 438 1
284 456 1
284 492 1
284 549 1
284 567 1
284 603 1
285 341 1
285 359 1
285 395 1
285 433 1
285 451 1
285 487 1
285 552 1
285 570 1
285 606 1
286 327 1
286 345 1
286 381 1
286 439 1
286 457 1
286 493 1
286 558 1
286 576 1
286 612 1
287 339 1
287 357 1
287 393 1
287 443 1
287 461 1
287 497 1
287 554 1
287 572 1
287 608 1
288 331 1
288 349 1
288 385 1
288 436 1
288 454 1
288 490 1
288 542 1
288 560 1
288 596 1
289 336 1
289 372 1
289 408 1
289 447 1
289 483 1
289 519 1
289 557 1
289 593 1
289 629 1
290 328 1
290 364 1
290 400 1
290 440 1
290 476 1
290 512 1
290 545 1
290 581 1
290 617 1
291 340 1
291 376 1
291 412 1
291 444 1
291 480 1
291 516 1
291 541 1
291 577 1
291 613 1
292 326 1
292 362 1
292 398 1
292 450 1
292 486 1
292 522 1
292 547 1
292 583 1
292 619 1
293 332 1
293 368 1
293 404 1
293 445 1
293 481 1
293 517 1
293 550 1
293 586 1
293 622 1
294 333 1
294 369 1
294 405 1
294 446 1
294 482 1
294 518 1
294 551 1
294 587 1
294 623 1
295 342 1
295 378 1
295 414 1
295 448 1
295 484 1
295 520 1
295 543 1
295 579 1
295 615 1
296 329 1
296 365 1
296 401 1
296 434 1
296 470 1
296 506 1
296 544 1
296 580 1
296 616 1
297 330 1
297 366 1
297 402 1
297 442 1
297 478 1
297 514 1
297 553 1
297 589 1
297 625 1
298 337 1
298 373 1
298 409 1
298 441 1
298 477 1
298 513 1
298 546 1
298 582 1
298 618 1
299 338 1
299 374 1
299 410 1
299 449 1
299 485 1
299 521 1
299 555 1
299 591 1
299 627 1
300 325 1
300 361 1
300 397 1
300 435 1
300 471 1
300 507 1
300 556 1
300 592 1
300 628 1
301 334 1
301 370 1
301 406 1
301 437 1
301 473 1
301 509 1
301 548 1
301 584 1
301 620 1
302 335 1
302 371 1
302 407 1
302 438 1
302 474 1
302 510 1
302 549 1
302 585 1
302 621 1
303 341 1
303 377 1
303 413 1
303 433 1
303 469 1
303 505 1
303 552 1
303 588 1
303 624 1
304 327 1
304 363 1
304 399 1
304 439 1
304 475 1
304 511 1
304 558 1
304 594 1
304 630 1
305 339 1
305 375 1
305 411 1
305 443 1
305 479 1
305 515 1
305 554 1
305 590 1
305 626 1
306 331 1
306 367 1
306 403 1
306 436 1
306 472 1
306 508 1
306 542 1
306 578 1
306 614 1
307 354 1
307 372 1
307 426 1
307 465 1
307 483 1
307 537 1
307 575 1
307 593 1
307 647 1
308 346 1
308 364 1
308 418 1
308 458 1
308 476 1
308 530 1
308 563 1
308 581 1
308 635 1
309 358 1
309 376 1
309 430 1
309 462 1
309 480 1
309 534 1
309 559 1
309 577 1
309 631 1
310 344 1
310 362 1
310 416 1
310 468 1
310 486 1
310 540 1
310 565 1
310 583 1
310 637 1
311 350 1
311 368 1
311 422 1
311 463 1
311 481 1
311 535 1
311 568 1
311 586 1
311 640 1
312 351 1
312 369 1
312 423 1
312 464 1
312 482 1
312 536 1
312 569 1
312 587 1
312 641 1
313 360 1
313 378 1
313 432 1
313 466 1
313 484 1
313 538 1
313 561 1
313 579 1
313 633 1
314 347 1
314 365 1
314 419 1
314 452 1
314 470 1
314 524 1
314 562 1
314 580 1
314 634 1
315 348 1
315 366 1
315 420 1
315 460 1
315 478 1
315 532 1
315 571 1
315 589 1
315 643 1
316 355 1
316 373 1
316 427 1
316 459 1
316 477 1
316 531 1
316 564 1
316 582 1
316 636 1
317 356 1
317 374 1
317 428 1
317 467 1
317 485 1
317 539 1
317 573 1
317 591 1
317 645 1
318 343 1
318 361 1
318 415 1
318 453 1
318 471 1
318 525 1
318 574 1
318 592 1
318 646 1
319 352 1
319 370 1
319 424 1
319 455 1
319 473 1
319 527 1
319 566 1
319 584 1
319 638 1
320 353 1
320 371 1
320 425 1
320 456 1
320 474 1
320 528 1
320 567 1
320 585 1
320 639 1
321 359 1
321 377 1
321 431 1
321 451 1
321 469 1
321 523 1
321 570 1
321 588 1
321 642 1
322 345 1
322 363 1
322 417 1
322 457 1
322 475 1
322 529 1
322 576 1
322 594 1
322 648 1
323 357 1
323 375 1
323 429 1
323 461 1
323 479 1
323 533 1
323 572 1
323 590 1
323 644 1
324 349 1
324 367 1
324 421 1
324 454 1
324 472 1
324 526 1
324 560 1
324 578 1
324 632 1
