%%MatrixMarket matrix coordinate integer general
270 540 2430
1 1 1
1 46 1
1 61 1
1 91 1
1 136 1
1 151 1
1 271 1
1 316 1
1 331 1
2 2 1
2 47 1
2 62 1
2 92 1
2 137 1
2 152 1
2 272 1
2 317 1
2 332 1
3 3 1
3 48 1
3 63 1
3 93 1
3 138 1
3 153 1
3 273 1
3 318 1
3 333 1
4 4 1
4 49 1
4 64 1
4 94 1
4 139 1
4 154 1
4 274 1
4 319 1
4 334 1
5 5 1
5 50 1
5 65 1
5 95 1
5 140 1
5 155 1
5 275 1
5 320 1
5 335 1
6 6 1
6 51 1
6 66 1
6 96 1
6 141 1
6 156 1
6 276 1
6 321 1
6 336 1
7 7 1
7 52 1
7 67 1
7 97 1
7 142 1
7 157 1
7 277 1
7 322 1
7 337 1
8 8 1
8 53 1
8 68 1
8 98 1
8 143 1
8 158 1
8 278 1
8 323 1
8 338 1
9 9 1
9 54 1
9 69 1
9 99 1
9 144 1
9 159 1
9 279 1
9 324 1
9 339 1
10 10 1
10 55 1
10 70 1
10 100 1
10 145 1
10 160 1
10 280 1
10 325 1
10 340 1
11 11 1
11 56 1
11 71 1
11 101 1
11 146 1
11 161 1
11 281 1
11 326 1
11 341 1
12 12 1
12 57 1
12 72 1
12 102 1
12 147 1
12 162 1
12 282 1
12 327 1
12 342 1
13 13 1
13 58 1
13 73 1
13 103 1
13 148 1
13 163 1
13 283 1
13 328 1
13 343 1
14 14 1
14 59 1
14 74 1
14 104 1
14 149 1
14 164 1
14 284 1
14 329 1
14 344 1
15 15 1
15 60 1
15 75 1
15 105 1
15 150 1
15 165 1
15 285 1
15 330 1
15 345 1
16 16 1
16 46 1
16 76 1
16 106 1
16 136 1
16 166 1
16 286 1
16 316 1
16 346 1
17 17 1
17 47 1
17 77 1
17 107 1
17 137 1
17 167 1
17 287 1
17 317 1
17 347 1
18 18 1
18 48 1
18 78 1
18 108 1
18 138 1
18 168 1
18 288 1
18 318 1
18 348 1
19 19 1
19 49 1
19 79 1
19 109 1
19 139 1
19 169 1
19 289 1
19 319 1
19 349 1
20 20 1
20 50 1
20 80 1
20 110 1
20 140 1
20 170 1
20 290 1
20 320 1
20 350 1
21 21 1
21 51 1
21 81 1
21 111 1
21 141 1
21 171 1
21 291 1
21 321 1
21 351 1
22 22 1
22 52 1
22 82 1
22 112 1
22 142 1
22 172 1
22 292 1
22 322 1
22 352 1
23 23 1
23 53 1
23 83 1
23 113 1
23 143 1
23 173 1
23 293 1
23 323 1
23 353 1
24 24 1
24 54 1
24 84 1
24 114 1
24 144 1
24 174 1
24 294 1
24 324 1
24 354 1
25 25 1
25 55 1
25 85 1
25 115 1
25 145 1
25 175 1
25 295 1
25 325 1
25 355 1
26 26 1
26 56 1
26 86 1
26 116 1
26 146 1
26 176 1
26 296 1
26 326 1
26 356 1
27 27 1
27 57 1
27 87 1
27 117 1
27 147 1
27 177 1
27 297 1
27 327 1
27 357 1
28 28 1
28 58 1
28 88 1
28 118 1
28 148 1
28 178 1
28 298 1
28 328 1
28 358 1
29 29 1
29 59 1
29 89 1
29 119 1
29 149 1
29 179 1
29 299 1
29 329 1
29 359 1
30 30 1
30 60 1
30 90 1
30 120 1
30 150 1
30 180 1
30 300 1
30 330 1
30 360 1
31 31 1
31 61 1
31 76 1
31 121 1
31 151 1
31 166 1
31 301 1
31 331 1
31 346 1
32 32 1
32 62 1
32 77 1
32 122 1
32 152 1
32 167 1
32 302 1
32 332 1
32 347 1
33 33 1
33 63 1
33 78 1
33 123 1
33 153 1
33 168 1
33 303 1
33 333 1
33 348 1
34 34 1
34 64 1
34 79 1
34 124 1
34 154 1
34 169 1
34 304 1
34 334 1
34 349 1
35 35 1
35 65 1
35 80 1
35 125 1
35 155 1
35 170 1
35 305 1
35 335 1
35 350 1
36 36 1
36 66 1
36 81 1
36 126 1
36 156 1
36 171 1
36 306 1
36 336 1
36 351 1
37 37 1
37 67 1
37 82 1
37 127 1
37 157 1
37 172 1
37 307 1
37 337 1
37 352 1
38 38 1
38 68 1
38 83 1
38 128 1
38 158 1
38 173 1
38 308 1
38 338 1
38 353 1
39 39 1
39 69 1
39 84 1
39 129 1
39 159 1
39 174 1
39 309 1
39 339 1
39 354 1
40 40 1
40 70 1
40 85 1
40 130 1
40 160 1
40 175 1
40 310 1
40 340 1
40 355 1
41 41 1
41 71 1
41 86 1
41 131 1
41 161 1
41 176 1
41 311 1
41 341 1
41 356 1
42 42 1
42 72 1
42 87 1
42 132 1
42 162 1
42 177 1
42 312 1
42 342 1
42 357 1
43 43 1
43 73 1
43 88 1
43 133 1
43 163 1
43 178 1
43 313 1
43 343 1
43 358 1
44 44 1
44 74 1
44 89 1
44 134 1
44 164 1
44 179 1
44 314 1
44 344 1
44 359 1
45 45 1
45 75 1
45 90 1
45 135 1
45 165 1
45 180 1
45 315 1
45 345 1
45 360 1
46 1 1
46 46 1
46 61 1
46 181 1
46 226 1
46 241 1
46 361 1
46 406 1
46 421 1
47 2 1
47 47 1
47 62 1
47 182 1
47 227 1
47 242 1
47 362 1
47 407 1
47 422 1
48 3 1
48 48 1
48 63 1
48 183 1
48 228 1
48 243 1
48 363 1
48 408 1
48 423 1
49 4 1
49 49 1
49 64 1
49 184 1
49 229 1
49 244 1
49 364 1
49 409 1
49 424 1
50 5 1
50 50 1
50 65 1
50 185 1
50 230 1
50 245 1
50 365 1
50 410 1
50 425 1
51 6 1
51 51 1
51 66 1
51 186 1
51 231 1
51 246 1
51 366 1
51 411 1
51 426 1
52 7 1
52 52 1
52 67 1
52 187 1
52 232 1
52 247 1
52 367 1
52 412 1
52 427 1
53 8 1
53 53 1
53 68 1
53 188 1
53 233 1
53 248 1
53 368 1
53 413 1
53 428 1
54 9 1
54 54 1
54 69 1
54 189 1
54 234 1
54 249 1
54 369 1
54 414 1
54 429 1
55 10 1
55 55 1
55 70 1
55 190 1
55 235 1
55 250 1
55 370 1
55 415 1
55 430 1
56 11 1
56 56 1
56 71 1
56 191 1
56 236 1
56 251 1
56 371 1
56 416 1
56 431 1
57 12 1
57 57 1
57 72 1
57 192 1
57 237 1
57 252 1
57 372 1
57 417 1
57 432 1
58 13 1
58 58 1
58 73 1
58 193 1
58 238 1
58 253 1
58 373 1
58 418 1
58 433 1
59 14 1
59 59 1
59 74 1
59 194 1
59 239 1
59 254 1
59 374 1
59 419 1
59 434 1
60 15 1
60 60 1
60 75 1
60 195 1
60 240 1
60 255 1
60 375 1
60 420 1
60 435 1
61 16 1
61 46 1
61 76 1
61 196 1
61 226 1
61 256 1
61 376 1
61 406 1
61 436 1
62 17 1
62 47 1
62 77 1
62 197 1
62 227 1
62 257 1
62 377 1
62 407 1
62 437 1
63 18 1
63 48 1
63 78 1
63 198 1
63 228 1
63 258 1
63 378 1
63 408 1
63 438 1
64 19 1
64 49 1
64 79 1
64 199 1
64 229 1
64 259 1
64 379 1
64 409 1
64 439 1
65 20 1
65 50 1
65 80 1
65 200 1
65 230 1
65 260 1
65 380 1
65 410 1
65 440 1
66 21 1
66 51 1
66 81 1
66 201 1
66 231 1
66 261 1
66 381 1
66 411 1
66 441 1
67 22 1
67 52 1
67 82 1
67 202 1
67 232 1
67 262 1
67 382 1
67 412 1
67 442 1
68 23 1
68 53 1
68 83 1
68 203 1
68 233 1
68 263 1
68 383 1
68 413 1
68 443 1
69 24 1
69 54 1
69 84 1
69 204 1
69 234 1
69 264 1
69 384 1
69 414 1
69 444 1
70 25 1
70 55 1
70 85 1
70 205 1
70 235 1
70 265 1
70 385 1
70 415 1
70 445 1
71 26 1
71 56 1
71 86 1
71 206 1
71 236 1
71 266 1
71 386 1
71 416 1
71 446 1
72 27 1
72 57 1
72 87 1
72 207 1
72 237 1
72 267 1
72 387 1
72 417 1
72 447 1
73 28 1
73 58 1
73 88 1
73 208 1
73 238 1
73 268 1
73 388 1
73 418 1
73 448 1
74 29 1
74 59 1
74 89 1
74 209 1
74 239 1
74 269 1
74 389 1
74 419 1
74 449 1
75 30 1
75 60 1
75 90 1
75 210 1
75 240 1
75 270 1
75 390 1
75 420 1
75 450 1
76 31 1
76 61 1
76 76 1
76 211 1
76 241 1
76 256 1
76 391 1
76 421 1
76 436 1
77 32 1
77 62 1
77 77 1
77 212 1
77 242 1
77 257 1
77 392 1
77 422 1
77 437 1
78 33 1
78 63 1
78 78 1
78 213 1
78 243 1
78 258 1
78 393 1
78 423 1
78 438 1
79 34 1
79 64 1
79 79 1
79 214 1
79 244 1
79 259 1
79 394 1
79 424 1
79 439 1
80 35 1
80 65 1
80 80 1
80 215 1
80 245 1
80 260 1
80 395 1
80 425 1
80 440 1
81 36 1
81 66 1
81 81 1
81 216 1
81 246 1
81 261 1
81 396 1
81 426 1
81 441 1
82 37 1
82 67 1
82 82 1
82 217 1
82 247 1
82 262 1
82 397 1
82 427 1
82 442 1
83 38 1
83 68 1
83 83 1
83 218 1
83 248 1
83 263 1
83 398 1
83 428 1
83 443 1
84 39 1
84 69 1
84 84 1
84 219 1
84 249 1
84 264 1
84 399 1
84 429 1
84 444 1
85 40 1
85 70 1
85 85 1
85 220 1
85 250 1
85 265 1
85 400 1
85 430 1
85 445 1
86 41 1
86 71 1
86 86 1
86 221 1
86 251 1
86 266 1
86 401 1
86 431 1
86 446 1
87 42 1
87 72 1
87 87 1
87 222 1
87 252 1
87 267 1
87 402 1
87 432 1
87 447 1
88 43 1
88 73 1
88 88 1
88 223 1
88 253 1
88 268 1
88 403 1
88 433 1
88 448 1
89 44 1
89 74 1
89 89 1
89 224 1
89 254 1
89 269 1
89 404 1
89 434 1
89 449 1
90 45 1
90 75 1
90 90 1
90 225 1
90 255 1
90 270 1
90 405 1
90 435 1
90 450 1
91 91 1
91 136 1
91 151 1
91 181 1
91 226 1
91 241 1
91 451 1
91 496 1
91 511 1
92 92 1
92 137 1
92 152 1
92 182 1
92 227 1
92 242 1
92 452 1
92 497 1
92 512 1
93 93 1
93 138 1
93 153 1
93 183 1
93 228 1
93 243 1
93 453 1
93 498 1
93 513 1
94 94 1
94 139 1
94 154 1
94 184 1
94 229 1
94 244 1
94 454 1
94 499 1
94 514 1
95 95 1
95 140 1
95 155 1
95 185 1
95 230 1
95 245 1
95 455 1
95 500 1
95 515 1
96 96 1
96 141 1
96 156 1
96 186 1
96 231 1
96 246 1
96 456 1
96 501 1
96 516 1
97 97 1
97 142 1
97 157 1
97 187 1
97 232 1
97 247 1
97 457 1
97 502 1
97 517 1
98 98 1
98 143 1
98 158 1
98 188 1
98 233 1
98 248 1
98 458 1
98 503 1
98 518 1
99 99 1
99 144 1
99 159 1
99 189 1
99 234 1
99 249 1
99 459 1
99 504 1
99 519 1
100 100 1
100 145 1
100 160 1
100 190 1
100 235 1
100 250 1
100 460 1
100 505 1
100 520 1
101 101 1
101 146 1
101 161 1
101 191 1
101 236 1
101 251 1
101 461 1
101 506 1
101 521 1
102 102 1
102 147 1
102 162 1
102 192 1
102 237 1
102 252 1
102 462 1
102 507 1
102 522 1
103 103 1
103 148 1
103 163 1
103 193 1
103 238 1
103 253 1
103 463 1
103 508 1
103 523 1
104 104 1
104 149 1
104 164 1
104 194 1
104 239 1
104 254 1
104 464 1
104 509 1
104 524 1
105 105 1
105 150 1
105 165 1
105 195 1
105 240 1
105 255 1
105 465 1
105 510 1
105 525 1
106 106 1
106 136 1
106 166 1
106 196 1
106 226 1
106 256 1
106 466 1
106 496 1
106 526 1
107 107 1
107 137 1
107 167 1
107 197 1
107 227 1
107 257 1
107 467 1
107 497 1
107 527 1
108 108 1
108 138 1
108 168 1
108 198 1
108 228 1
108 258 1
108 468 1
108 498 1
108 528 1
109 109 1
109 139 1
109 169 1
109 199 1
109 229 1
109 259 1
109 469 1
109 499 1
109 529 1
110 110 1
110 140 1
110 170 1
110 200 1
110 230 1
110 260 1
110 470 1
110 500 1
110 530 1
111 111 1
111 141 1
111 171 1
111 201 1
111 231 1
111 261 1
111 471 1
111 501 1
111 531 1
112 112 1
112 142 1
112 172 1
112 202 1
112 232 1
112 262 1
112 472 1
112 502 1
112 532 1
113 113 1
113 143 1
113 173 1
113 203 1
113 233 1
113 263 1
113 473 1
113 503 1
113 533 1
114 114 1
114 144 1
114 174 1
114 204 1
114 234 1
114 264 1
114 474 1
114 504 1
114 534 1
115 115 1
115 145 1
115 175 1
115 205 1
115 235 1
115 265 1
115 475 1
115 505 1
115 535 1
116 116 1
116 146 1
116 176 1
116 206 1
116 236 1
116 266 1
116 476 1
116 506 1
116 536 1
117 117 1
117 147 1
117 177 1
117 207 1
117 237 1
117 267 1
117 477 1
117 507 1
117 537 1
118 118 1
118 148 1
118 178 1
118 208 1
118 238 1
118 268 1
118 478 1
118 508 1
118 538 1
119 119 1
119 149 1
119 179 1
119 209 1
119 239 1
119 269 1
119 479 1
119 509 1
119 539 1
120 120 1
120 150 1
120 180 1
120 210 1
120 240 1
120 270 1
120 480 1
120 510 1
120 540 1
121 121 1
121 151 1
121 166 1
121 211 1
121 241 1
121 256 1
121 481 1
121 511 1
121 526 1
122 122 1
122 152 1
122 167 1
122 212 1
122 242 1
122 257 1
122 482 1
122 512 1
122 527 1
123 123 1
123 153 1
123 168 1
123 213 1
123 243 1
123 258 1
123 483 1
123 513 1
123 528 1
124 124 1
124 154 1
124 169 1
124 214 1
124 244 1
124 259 1
124 484 1
124 514 1
124 529 1
125 125 1
125 155 1
125 170 1
125 215 1
125 245 1
125 260 1
125 485 1
125 515 1
125 530 1
126 126 1
126 156 1
126 171 1
126 216 1
126 246 1
126 261 1
126 486 1
126 516 1
126 531 1
127 127 1
127 157 1
127 172 1
127 217 1
127 247 1
127 262 1
127 487 1
127 517 1
127 532 1
128 128 1
128 158 1
128 173 1
128 218 1
128 248 1
128 263 1
128 488 1
128 518 1
128 533 1
129 129 1
129 159 1
129 174 1
129 219 1
129 249 1
129 264 1
129 489 1
129 519 1
129 534 1
130 130 1
130 160 1
130 175 1
130 220 1
130 250 1
130 265 1
130 490 1
130 520 1
130 535 1
131 131 1
131 161 1
131 176 1
131 221 1
131 251 1
131 266 1
131 491 1
131 521 1
131 536 1
132 132 1
132 162 1
132 177 1
132 222 1
132 252 1
132 267 1
132 492 1
132 522 1
132 537 1
133 133 1
133 163 1
133 178 1
133 223 1
133 253 1
133 268 1
133 493 1
133 523 1
133 538 1
134 134 1
134 164 1
134 179 1
134 224 1
134 254 1
134 269 1
134 494 1
134 524 1
134 539 1
135 135 1
135 165 1
135 180 1
135 225 1
135 255 1
135 270 1
135 495 1
135 525 1
135 540 1
136 1 1
136 44 1
136 85 1
136 187 1
136 211 1
136 266 1
136 463 1
136 486 1
136 527 1
137 2 1
137 45 1
137 81 1
137 183 1
137 212 1
137 268 1
137 459 1
137 488 1
137 529 1
138 3 1
138 32 1
138 88 1
138 190 1
138 213 1
138 269 1
138 465 1
138 489 1
138 530 1
139 4 1
139 42 1
139 83 1
139 185 1
139 214 1
139 264 1
139 461 1
139 490 1
139 526 1
140 5 1
140 34 1
140 84 1
140 186 1
140 215 1
140 270 1
140 462 1
140 491 1
140 532 1
141 6 1
141 35 1
141 90 1
141 193 1
141 216 1
141 257 1
141 454 1
141 492 1
141 533 1
142 7 1
142 31 1
142 86 1
142 188 1
142 217 1
142 267 1
142 464 1
142 493 1
142 528 1
143 8 1
143 37 1
143 87 1
143 189 1
143 218 1
143 259 1
143 451 1
143 494 1
143 535 1
144 9 1
144 38 1
144 79 1
144 195 1
144 219 1
144 260 1
144 457 1
144 481 1
144 536 1
145 10 1
145 33 1
145 89 1
145 191 1
145 220 1
145 256 1
145 452 1
145 495 1
145 531 1
146 11 1
146 40 1
146 76 1
146 192 1
146 221 1
146 262 1
146 453 1
146 482 1
146 538 1
147 12 1
147 41 1
147 82 1
147 184 1
147 222 1
147 263 1
147 460 1
147 483 1
147 539 1
148 13 1
148 36 1
148 77 1
148 194 1
148 223 1
148 258 1
148 455 1
148 484 1
148 534 1
149 14 1
149 43 1
149 78 1
149 181 1
149 224 1
149 265 1
149 456 1
149 485 1
149 540 1
150 15 1
150 39 1
150 80 1
150 182 1
150 225 1
150 261 1
150 458 1
150 487 1
150 537 1
151 19 1
151 44 1
151 71 1
151 200 1
151 211 1
151 252 1
151 476 1
151 486 1
151 513 1
152 16 1
152 45 1
152 73 1
152 202 1
152 212 1
152 254 1
152 478 1
152 488 1
152 515 1
153 22 1
153 32 1
153 74 1
153 203 1
153 213 1
153 241 1
153 479 1
153 489 1
153 516 1
154 17 1
154 42 1
154 69 1
154 198 1
154 214 1
154 255 1
154 474 1
154 490 1
154 517 1
155 18 1
155 34 1
155 75 1
155 205 1
155 215 1
155 242 1
155 480 1
155 491 1
155 518 1
156 25 1
156 35 1
156 62 1
156 206 1
156 216 1
156 243 1
156 467 1
156 492 1
156 519 1
157 20 1
157 31 1
157 72 1
157 201 1
157 217 1
157 244 1
157 477 1
157 493 1
157 520 1
158 21 1
158 37 1
158 64 1
158 208 1
158 218 1
158 245 1
158 469 1
158 494 1
158 521 1
159 28 1
159 38 1
159 65 1
159 209 1
159 219 1
159 246 1
159 470 1
159 481 1
159 522 1
160 23 1
160 33 1
160 61 1
160 204 1
160 220 1
160 247 1
160 466 1
160 495 1
160 523 1
161 24 1
161 40 1
161 67 1
161 210 1
161 221 1
161 248 1
161 472 1
161 482 1
161 524 1
162 30 1
162 41 1
162 68 1
162 197 1
162 222 1
162 249 1
162 473 1
162 483 1
162 511 1
163 26 1
163 36 1
163 63 1
163 207 1
163 223 1
163 250 1
163 468 1
163 484 1
163 525 1
164 27 1
164 43 1
164 70 1
164 199 1
164 224 1
164 251 1
164 475 1
164 485 1
164 512 1
165 29 1
165 39 1
165 66 1
165 196 1
165 225 1
165 253 1
165 471 1
165 487 1
165 514 1
166 51 1
166 71 1
166 85 1
166 238 1
166 252 1
166 266 1
166 499 1
166 513 1
166 527 1
167 53 1
167 73 1
167 81 1
167 234 1
167 254 1
167 268 1
167 496 1
167 515 1
167 529 1
168 54 1
168 74 1
168 88 1
168 240 1
168 241 1
168 269 1
168 502 1
168 516 1
168 530 1
169 55 1
169 69 1
169 83 1
169 236 1
169 255 1
169 264 1
169 497 1
169 517 1
169 526 1
170 56 1
170 75 1
170 84 1
170 237 1
170 242 1
170 270 1
170 498 1
170 518 1
170 532 1
171 57 1
171 62 1
171 90 1
171 229 1
171 243 1
171 257 1
171 505 1
171 519 1
171 533 1
172 58 1
172 72 1
172 86 1
172 239 1
172 244 1
172 267 1
172 500 1
172 520 1
172 528 1
173 59 1
173 64 1
173 87 1
173 226 1
173 245 1
173 259 1
173 501 1
173 521 1
173 535 1
174 46 1
174 65 1
174 79 1
174 232 1
174 246 1
174 260 1
174 508 1
174 522 1
174 536 1
175 60 1
175 61 1
175 89 1
175 227 1
175 247 1
175 256 1
175 503 1
175 523 1
175 531 1
176 47 1
176 67 1
176 76 1
176 228 1
176 248 1
176 262 1
176 504 1
176 524 1
176 538 1
177 48 1
177 68 1
177 82 1
177 235 1
177 249 1
177 263 1
177 510 1
177 511 1
177 539 1
178 49 1
178 63 1
178 77 1
178 230 1
178 250 1
178 258 1
178 506 1
178 525 1
178 534 1
179 50 1
179 70 1
179 78 1
179 231 1
179 251 1
179 265 1
179 507 1
179 512 1
179 540 1
180 52 1
180 66 1
180 80 1
180 233 1
180 253 1
180 261 1
180 509 1
180 514 1
180 537 1
181 1 1
181 44 1
181 85 1
181 277 1
181 301 1
181 356 1
181 368 1
181 397 1
181 447 1
182 2 1
182 45 1
182 81 1
182 273 1
182 302 1
182 358 1
182 370 1
182 393 1
182 449 1
183 3 1
183 32 1
183 88 1
183 280 1
183 303 1
183 359 1
183 371 1
183 400 1
183 436 1
184 4 1
184 42 1
184 83 1
184 275 1
184 304 1
184 354 1
184 366 1
184 395 1
184 450 1
185 5 1
185 34 1
185 84 1
185 276 1
185 305 1
185 360 1
185 373 1
185 396 1
185 437 1
186 6 1
186 35 1
186 90 1
186 283 1
186 306 1
186 347 1
186 374 1
186 403 1
186 438 1
187 7 1
187 31 1
187 86 1
187 278 1
187 307 1
187 357 1
187 369 1
187 398 1
187 439 1
188 8 1
188 37 1
188 87 1
188 279 1
188 308 1
188 349 1
188 375 1
188 399 1
188 440 1
189 9 1
189 38 1
189 79 1
189 285 1
189 309 1
189 350 1
189 362 1
189 405 1
189 441 1
190 10 1
190 33 1
190 89 1
190 281 1
190 310 1
190 346 1
190 372 1
190 401 1
190 442 1
191 11 1
191 40 1
191 76 1
191 282 1
191 311 1
191 352 1
191 364 1
191 402 1
191 443 1
192 12 1
192 41 1
192 82 1
192 274 1
192 312 1
192 353 1
192 365 1
192 394 1
192 444 1
193 13 1
193 36 1
193 77 1
193 284 1
193 313 1
193 348 1
193 361 1
193 404 1
193 445 1
194 14 1
194 43 1
194 78 1
194 271 1
194 314 1
194 355 1
194 367 1
194 391 1
194 446 1
195 15 1
195 39 1
195 80 1
195 272 1
195 315 1
195 351 1
195 363 1
195 392 1
195 448 1
196 19 1
196 44 1
196 71 1
196 290 1
196 301 1
196 342 1
196 381 1
196 397 1
196 424 1
197 16 1
197 45 1
197 73 1
197 292 1
197 302 1
197 344 1
197 383 1
197 393 1
197 421 1
198 22 1
198 32 1
198 74 1
198 293 1
198 303 1
198 331 1
198 384 1
198 400 1
198 427 1
199 17 1
199 42 1
199 69 1
199 288 1
199 304 1
199 345 1
199 385 1
199 395 1
199 422 1
200 18 1
200 34 1
200 75 1
200 295 1
200 305 1
200 332 1
200 386 1
200 396 1
200 423 1
201 25 1
201 35 1
201 62 1
201 296 1
201 306 1
201 333 1
201 387 1
201 403 1
201 430 1
202 20 1
202 31 1
202 72 1
202 291 1
202 307 1
202 334 1
202 388 1
202 398 1
202 425 1
203 21 1
203 37 1
203 64 1
203 298 1
203 308 1
203 335 1
203 389 1
203 399 1
203 426 1
204 28 1
204 38 1
204 65 1
204 299 1
204 309 1
204 336 1
204 376 1
204 405 1
204 433 1
205 23 1
205 33 1
205 61 1
205 294 1
205 310 1
205 337 1
205 390 1
205 401 1
205 428 1
206 24 1
206 40 1
206 67 1
206 300 1
206 311 1
206 338 1
206 377 1
206 402 1
206 429 1
207 30 1
207 41 1
207 68 1
207 287 1
207 312 1
207 339 1
207 378 1
207 394 1
207 435 1
208 26 1
208 36 1
208 63 1
208 297 1
208 313 1
208 340 1
208 379 1
208 404 1
208 431 1
209 27 1
209 43 1
209 70 1
209 289 1
209 314 1
209 341 1
209 380 1
209 391 1
209 432 1
210 29 1
210 39 1
210 66 1
210 286 1
210 315 1
210 343 1
210 382 1
210 392 1
210 434 1
211 51 1
211 71 1
211 85 1
211 328 1
211 342 1
211 356 1
211 419 1
211 424 1
211 447 1
212 53 1
212 73 1
212 81 1
212 324 1
212 344 1
212 358 1
212 420 1
212 421 1
212 449 1
213 54 1
213 74 1
213 88 1
213 330 1
213 331 1
213 359 1
213 407 1
213 427 1
213 436 1
214 55 1
214 69 1
214 83 1
214 326 1
214 345 1
214 354 1
214 417 1
214 422 1
214 450 1
215 56 1
215 75 1
215 84 1
215 327 1
215 332 1
215 360 1
215 409 1
215 423 1
215 437 1
216 57 1
216 62 1
216 90 1
216 319 1
216 333 1
216 347 1
216 410 1
216 430 1
216 438 1
217 58 1
217 72 1
217 86 1
217 329 1
217 334 1
217 357 1
217 406 1
217 425 1
217 439 1
218 59 1
218 64 1
218 87 1
218 316 1
218 335 1
218 349 1
218 412 1
218 426 1
218 440 1
219 46 1
219 65 1
219 79 1
219 322 1
219 336 1
219 350 1
219 413 1
219 433 1
219 441 1
220 60 1
220 61 1
220 89 1
220 317 1
220 337 1
220 346 1
220 408 1
220 428 1
220 442 1
221 47 1
221 67 1
221 76 1
221 318 1
221 338 1
221 352 1
221 415 1
221 429 1
221 443 1
222 48 1
222 68 1
222 82 1
222 325 1
222 339 1
222 353 1
222 416 1
222 435 1
222 444 1
223 49 1
223 63 1
223 77 1
223 320 1
223 340 1
223 348 1
223 411 1
223 431 1
223 445 1
224 50 1
224 70 1
224 78 1
224 321 1
224 341 1
224 355 1
224 418 1
224 432 1
224 446 1
225 52 1
225 66 1
225 80 1
225 323 1
225 343 1
225 351 1
225 414 1
225 434 1
225 448 1
226 92 1
226 135 1
226 171 1
226 187 1
226 211 1
226 266 1
226 368 1
226 397 1
226 447 1
227 94 1
227 132 1
227 173 1
227 183 1
227 212 1
227 268 1
227 370 1
227 393 1
227 449 1
228 95 1
228 124 1
228 174 1
228 190 1
228 213 1
228 269 1
228 371 1
228 400 1
228 436 1
229 91 1
229 134 1
229 175 1
229 185 1
229 214 1
229 264 1
229 366 1
229 395 1
229 450 1
230 97 1
230 121 1
230 176 1
230 186 1
230 215 1
230 270 1
230 373 1
230 396 1
230 437 1
231 98 1
231 127 1
231 177 1
231 193 1
231 216 1
231 257 1
231 374 1
231 403 1
231 438 1
232 93 1
232 122 1
232 178 1
232 188 1
232 217 1
232 267 1
232 369 1
232 398 1
232 439 1
233 100 1
233 123 1
233 179 1
233 189 1
233 218 1
233 259 1
233 375 1
233 399 1
233 440 1
234 101 1
234 130 1
234 166 1
234 195 1
234 219 1
234 260 1
234 362 1
234 405 1
234 441 1
235 96 1
235 125 1
235 180 1
235 191 1
235 220 1
235 256 1
235 372 1
235 401 1
235 442 1
236 103 1
236 126 1
236 167 1
236 192 1
236 221 1
236 262 1
236 364 1
236 402 1
236 443 1
237 104 1
237 133 1
237 168 1
237 184 1
237 222 1
237 263 1
237 365 1
237 394 1
237 444 1
238 99 1
238 128 1
238 169 1
238 194 1
238 223 1
238 258 1
238 361 1
238 404 1
238 445 1
239 105 1
239 129 1
239 170 1
239 181 1
239 224 1
239 265 1
239 367 1
239 391 1
239 446 1
240 102 1
240 131 1
240 172 1
240 182 1
240 225 1
240 261 1
240 363 1
240 392 1
240 448 1
241 106 1
241 135 1
241 163 1
241 200 1
241 211 1
241 252 1
241 381 1
241 397 1
241 424 1
242 107 1
242 132 1
242 159 1
242 202 1
242 212 1
242 254 1
242 383 1
242 393 1
242 421 1
243 108 1
243 124 1
243 165 1
243 203 1
243 213 1
243 241 1
243 384 1
243 400 1
243 427 1
244 109 1
244 134 1
244 161 1
244 198 1
244 214 1
244 255 1
244 385 1
244 395 1
244 422 1
245 110 1
245 121 1
245 162 1
245 205 1
245 215 1
245 242 1
245 386 1
245 396 1
245 423 1
246 111 1
246 127 1
246 154 1
246 206 1
246 216 1
246 243 1
246 387 1
246 403 1
246 430 1
247 112 1
247 122 1
247 164 1
247 201 1
247 217 1
247 244 1
247 388 1
247 398 1
247 425 1
248 113 1
248 123 1
248 151 1
248 208 1
248 218 1
248 245 1
248 389 1
248 399 1
248 426 1
249 114 1
249 130 1
249 157 1
249 209 1
249 219 1
249 246 1
249 376 1
249 405 1
249 433 1
250 115 1
250 125 1
250 152 1
250 204 1
250 220 1
250 247 1
250 390 1
250 401 1
250 428 1
251 116 1
251 126 1
251 153 1
251 210 1
251 221 1
251 248 1
251 377 1
251 402 1
251 429 1
252 117 1
252 133 1
252 160 1
252 197 1
252 222 1
252 249 1
252 378 1
252 394 1
252 435 1
253 118 1
253 128 1
253 155 1
253 207 1
253 223 1
253 250 1
253 379 1
253 404 1
253 431 1
254 119 1
254 129 1
254 156 1
254 199 1
254 224 1
254 251 1
254 380 1
254 391 1
254 432 1
255 120 1
255 131 1
255 158 1
255 196 1
255 225 1
255 253 1
255 382 1
255 392 1
255 434 1
256 143 1
256 163 1
256 171 1
256 238 1
256 252 1
256 266 1
256 419 1
256 424 1
256 447 1
257 145 1
257 159 1
257 173 1
257 234 1
257 254 1
257 268 1
257 420 1
257 421 1
257 449 1
258 146 1
258 165 1
258 174 1
258 240 1
258 241 1
258 269 1
258 407 1
258 427 1
258 436 1
259 141 1
259 161 1
259 175 1
259 236 1
259 255 1
259 264 1
259 417 1
259 422 1
259 450 1
260 148 1
260 162 1
260 176 1
260 237 1
260 242 1
260 270 1
260 409 1
260 423 1
260 437 1
261 149 1
261 154 1
261 177 1
261 229 1
261 243 1
261 257 1
261 410 1
261 430 1
261 438 1
262 144 1
262 164 1
262 178 1
262 239 1
262 244 1
262 267 1
262 406 1
262 425 1
262 439 1
263 150 1
263 151 1
263 179 1
263 226 1
263 245 1
263 259 1
263 412 1
263 426 1
263 440 1
264 137 1
264 157 1
264 166 1
264 232 1
264 246 1
264 260 1
264 413 1
264 433 1
264 441 1
265 147 1
265 152 1
265 180 1
265 227 1
265 247 1
265 256 1
265 408 1
265 428 1
265 442 1
266 139 1
266 153 1
266 167 1
266 228 1
266 248 1
266 262 1
266 415 1
266 429 1
266 443 1
267 140 1
267 160 1
267 168 1
267 235 1
267 249 1
267 263 1
267 416 1
267 435 1
267 444 1
268 136 1
268 155 1
268 169 1
268 230 1
268 250 1
268 258 1
268 411 1
268 431 1
268 445 1
269 142 1
269 156 1
269 170 1
269 231 1
269 251 1
269 265 1
269 418 1
269 432 1
269 446 1
270 138 1
270 158 1
270 172 1
270 233 1
270 253 1
270 261 1
270 414 1
270 434 1
270 448 1
