%%MatrixMarket matrix coordinate integer general
160 320 2560
1 1 1
1 25 1
1 30 1
1 35 1
1 161 1
1 185 1
1 190 1
1 195 1
1 201 1
1 225 1
1 230 1
1 235 1
1 241 1
1 265 1
1 270 1
1 275 1
2 2 1
2 21 1
2 26 1
2 31 1
2 162 1
2 181 1
2 186 1
2 191 1
2 202 1
2 221 1
2 226 1
2 231 1
2 242 1
2 261 1
2 266 1
2 271 1
3 3 1
3 22 1
3 27 1
3 32 1
3 163 1
3 182 1
3 187 1
3 192 1
3 203 1
3 222 1
3 227 1
3 232 1
3 243 1
3 262 1
3 267 1
3 272 1
4 4 1
4 23 1
4 28 1
4 33 1
4 164 1
4 183 1
4 188 1
4 193 1
4 204 1
4 223 1
4 228 1
4 233 1
4 244 1
4 263 1
4 268 1
4 273 1
5 5 1
5 24 1
5 29 1
5 34 1
5 165 1
5 184 1
5 189 1
5 194 1
5 205 1
5 224 1
5 229 1
5 234 1
5 245 1
5 264 1
5 269 1
5 274 1
6 6 1
6 25 1
6 30 1
6 40 1
6 166 1
6 185 1
6 190 1
6 200 1
6 206 1
6 225 1
6 230 1
6 240 1
6 246 1
6 265 1
6 270 1
6 280 1
7 7 1
7 21 1
7 26 1
7 36 1
7 167 1
7 181 1
7 186 1
7 196 1
7 207 1
7 221 1
7 226 1
7 236 1
7 247 1
7 261 1
7 266 1
7 276 1
8 8 1
8 22 1
8 27 1
8 37 1
8 168 1
8 182 1
8 187 1
8 197 1
8 208 1
8 222 1
8 227 1
8 237 1
8 248 1
8 262 1
8 267 1
8 277 1
9 9 1
9 23 1
9 28 1
9 38 1
9 169 1
9 183 1
9 188 1
9 198 1
9 209 1
9 223 1
9 228 1
9 238 1
9 249 1
9 263 1
9 268 1
9 278 1
10 10 1
10 24 1
10 29 1
10 39 1
10 170 1
10 184 1
10 189 1
10 199 1
10 210 1
10 224 1
10 229 1
10 239 1
10 250 1
10 264 1
10 269 1
10 279 1
11 11 1
11 25 1
11 35 1
11 40 1
11 171 1
11 185 1
11 195 1
11 200 1
11 211 1
11 225 1
11 235 1
11 240 1
11 251 1
11 265 1
11 275 1
11 280 1
12 12 1
12 21 1
12 31 1
12 36 1
12 172 1
12 181 1
12 191 1
12 196 1
12 212 1
12 221 1
12 231 1
12 236 1
12 252 1
12 261 1
12 271 1
12 276 1
13 13 1
13 22 1
13 32 1
13 37 1
13 173 1
13 182 1
13 192 1
13 197 1
13 213 1
13 222 1
13 232 1
13 237 1
13 253 1
13 262 1
13 272 1
13 277 1
14 14 1
14 23 1
14 33 1
14 38 1
14 174 1
14 183 1
14 193 1
14 198 1
14 214 1
14 223 1
14 233 1
14 238 1
14 254 1
14 263 1
14 273 1
14 278 1
15 15 1
15 24 1
15 34 1
15 39 1
15 175 1
15 184 1
15 194 1
15 199 1
15 215 1
15 224 1
15 234 1
15 239 1
15 255 1
15 264 1
15 274 1
15 279 1
16 16 1
16 30 1
16 35 1
16 40 1
16 176 1
16 190 1
16 195 1
16 200 1
16 216 1
16 230 1
16 235 1
16 240 1
16 256 1
16 270 1
16 275 1
16 280 1
17 17 1
17 26 1
17 31 1
17 36 1
17 177 1
17 186 1
17 191 1
17 196 1
17 217 1
17 226 1
17 231 1
17 236 1
17 257 1
17 266 1
17 271 1
17 276 1
18 18 1
18 27 1
18 32 1
18 37 1
18 178 1
18 187 1
18 192 1
18 197 1
18 218 1
18 227 1
18 232 1
18 237 1
18 258 1
18 267 1
18 272 1
18 277 1
19 19 1
19 28 1
19 33 1
19 38 1
19 179 1
19 188 1
19 193 1
19 198 1
19 219 1
19 228 1
19 233 1
19 238 1
19 259 1
19 268 1
19 273 1
19 278 1
20 20 1
20 29 1
20 34 1
20 39 1
20 180 1
20 189 1
20 194 1
20 199 1
20 220 1
20 229 1
20 234 1
20 239 1
20 260 1
20 269 1
20 274 1
20 279 1
21 41 1
21 65 1
21 70 1
21 75 1
21 161 1
21 185 1
21 190 1
21 195 1
21 201 1
21 225 1
21 230 1
21 235 1
21 281 1
21 305 1
21 310 1
21 315 1
22 42 1
22 61 1
22 66 1
22 71 1
22 162 1
22 181 1
22 186 1
22 191 1
22 202 1
22 221 1
22 226 1
22 231 1
22 282 1
22 301 1
22 306 1
22 311 1
23 43 1
23 62 1
23 67 1
23 72 1
23 163 1
23 182 1
23 187 1
23 192 1
23 203 1
23 222 1
23 227 1
23 232 1
23 283 1
23 302 1
23 307 1
23 312 1
24 44 1
24 63 1
24 68 1
24 73 1
24 164 1
24 183 1
24 188 1
24 193 1
24 204 1
24 223 1
24 228 1
24 233 1
24 284 1
24 303 1
24 308 1
24 313 1
25 45 1
25 64 1
25 69 1
25 74 1
25 165 1
25 184 1
25 189 1
25 194 1
25 205 1
25 224 1
25 229 1
25 234 1
25 285 1
25 304 1
25 309 1
25 314 1
26 46 1
26 65 1
26 70 1
26 80 1
26 166 1
26 185 1
26 190 1
26 200 1
26 206 1
26 225 1
26 230 1
26 240 1
26 286 1
26 305 1
26 310 1
26 320 1
27 47 1
27 61 1
27 66 1
27 76 1
27 167 1
27 181 1
27 186 1
27 196 1
27 207 1
27 221 1
27 226 1
27 236 1
27 287 1
27 301 1
27 306 1
27 316 1
28 48 1
28 62 1
28 67 1
28 77 1
28 168 1
28 182 1
28 187 1
28 197 1
28 208 1
28 222 1
28 227 1
28 237 1
28 288 1
28 302 1
28 307 1
28 317 1
29 49 1
29 63 1
29 68 1
29 78 1
29 169 1
29 183 1
29 188 1
29 198 1
29 209 1
29 223 1
29 228 1
29 238 1
29 289 1
29 303 1
29 308 1
29 318 1
30 50 1
30 64 1
30 69 1
30 79 1
30 170 1
30 184 1
30 189 1
30 199 1
30 210 1
30 224 1
30 229 1
30 239 1
30 290 1
30 304 1
30 309 1
30 319 1
31 51 1
31 65 1
31 75 1
31 80 1
31 171 1
31 185 1
31 195 1
31 200 1
31 211 1
31 225 1
31 235 1
31 240 1
31 291 1
31 305 1
31 315 1
31 320 1
32 52 1
32 61 1
32 71 1
32 76 1
32 172 1
32 181 1
32 191 1
32 196 1
32 212 1
32 221 1
32 231 1
32 236 1
32 292 1
32 301 1
32 311 1
32 316 1
33 53 1
33 62 1
33 72 1
33 77 1
33 173 1
33 182 1
33 192 1
33 197 1
33 213 1
33 222 1
33 232 1
33 237 1
33 293 1
33 302 1
33 312 1
33 317 1
34 54 1
34 63 1
34 73 1
34 78 1
34 174 1
34 183 1
34 193 1
34 198 1
34 214 1
34 223 1
34 233 1
34 238 1
34 294 1
34 303 1
34 313 1
34 318 1
35 55 1
35 64 1
35 74 1
35 79 1
35 175 1
35 184 1
35 194 1
35 199 1
35 215 1
35 224 1
35 234 1
35 239 1
35 295 1
35 304 1
35 314 1
35 319 1
36 56 1
36 70 1
36 75 1
36 80 1
36 176 1
36 190 1
36 195 1
36 200 1
36 216 1
36 230 1
36 235 1
36 240 1
36 296 1
36 310 1
36 315 1
36 320 1
37 57 1
37 66 1
37 71 1
37 76 1
37 177 1
37 186 1
37 191 1
37 196 1
37 217 1
37 226 1
37 231 1
37 236 1
37 297 1
37 306 1
37 311 1
37 316 1
38 58 1
38 67 1
38 72 1
38 77 1
38 178 1
38 187 1
38 192 1
38 197 1
38 218 1
38 227 1
38 232 1
38 237 1
38 298 1
38 307 1
38 312 1
38 317 1
39 59 1
39 68 1
39 73 1
39 78 1
39 179 1
39 188 1
39 193 1
39 198 1
39 219 1
39 228 1
39 233 1
39 238 1
39 299 1
39 308 1
39 313 1
39 318 1
40 60 1
40 69 1
40 74 1
40 79 1
40 180 1
40 189 1
40 194 1
40 199 1
40 220 1
40 229 1
40 234 1
40 239 1
40 300 1
40 309 1
40 314 1
40 319 1
41 81 1
41 105 1
41 110 1
41 115 1
41 161 1
41 185 1
41 190 1
41 195 1
41 241 1
41 265 1
41 270 1
41 275 1
41 281 1
41 305 1
41 310 1
41 315 1
42 82 1
42 101 1
42 106 1
42 111 1
42 162 1
42 181 1
42 186 1
42 191 1
42 242 1
42 261 1
42 266 1
42 271 1
42 282 1
42 301 1
42 306 1
42 311 1
43 83 1
43 102 1
43 107 1
43 112 1
43 163 1
43 182 1
43 187 1
43 192 1
43 243 1
43 262 1
43 267 1
43 272 1
43 283 1
43 302 1
43 307 1
43 312 1
44 84 1
44 103 1
44 108 1
44 113 1
44 164 1
44 183 1
44 188 1
44 193 1
44 244 1
44 263 1
44 268 1
44 273 1
44 284 1
44 303 1
44 308 1
44 313 1
45 85 1
45 104 1
45 109 1
45 114 1
45 165 1
45 184 1
45 189 1
45 194 1
45 245 1
45 264 1
45 269 1
45 274 1
45 285 1
45 304 1
45 309 1
45 314 1
46 86 1
46 105 1
46 110 1
46 120 1
46 166 1
46 185 1
46 190 1
46 200 1
46 246 1
46 265 1
46 270 1
46 280 1
46 286 1
46 305 1
46 310 1
46 320 1
47 87 1
47 101 1
47 106 1
47 116 1
47 167 1
47 181 1
47 186 1
47 196 1
47 247 1
47 261 1
47 266 1
47 276 1
47 287 1
47 301 1
47 306 1
47 316 1
48 88 1
48 102 1
48 107 1
48 117 1
48 168 1
48 182 1
48 187 1
48 197 1
48 248 1
48 262 1
48 267 1
48 277 1
48 288 1
48 302 1
48 307 1
48 317 1
49 89 1
49 103 1
49 108 1
49 118 1
49 169 1
49 183 1
49 188 1
49 198 1
49 249 1
49 263 1
49 268 1
49 278 1
49 289 1
49 303 1
49 308 1
49 318 1
50 90 1
50 104 1
50 109 1
50 119 1
50 170 1
50 184 1
50 189 1
50 199 1
50 250 1
50 264 1
50 269 1
50 279 1
50 290 1
50 304 1
50 309 1
50 319 1
51 91 1
51 105 1
51 115 1
51 120 1
51 171 1
51 185 1
51 195 1
51 200 1
51 251 1
51 265 1
51 275 1
51 280 1
51 291 1
51 305 1
51 315 1
51 320 1
52 92 1
52 101 1
52 111 1
52 116 1
52 172 1
52 181 1
52 191 1
52 196 1
52 252 1
52 261 1
52 271 1
52 276 1
52 292 1
52 301 1
52 311 1
52 316 1
53 93 1
53 102 1
53 112 1
53 117 1
53 173 1
53 182 1
53 192 1
53 197 1
53 253 1
53 262 1
53 272 1
53 277 1
53 293 1
53 302 1
53 312 1
53 317 1
54 94 1
54 103 1
54 113 1
54 118 1
54 174 1
54 183 1
54 193 1
54 198 1
54 254 1
54 263 1
54 273 1
54 278 1
54 294 1
54 303 1
54 313 1
54 318 1
55 95 1
55 104 1
55 114 1
55 119 1
55 175 1
55 184 1
55 194 1
55 199 1
55 255 1
55 264 1
55 274 1
55 279 1
55 295 1
55 304 1
55 314 1
55 319 1
56 96 1
56 110 1
56 115 1
56 120 1
56 176 1
56 190 1
56 195 1
56 200 1
56 256 1
56 270 1
56 275 1
56 280 1
56 296 1
56 310 1
56 315 1
56 320 1
57 97 1
57 106 1
57 111 1
57 116 1
57 177 1
57 186 1
57 191 1
57 196 1
57 257 1
57 266 1
57 271 1
57 276 1
57 297 1
57 306 1
57 311 1
57 316 1
58 98 1
58 107 1
58 112 1
58 117 1
58 178 1
58 187 1
58 192 1
58 197 1
58 258 1
58 267 1
58 272 1
58 277 1
58 298 1
58 307 1
58 312 1
58 317 1
59 99 1
59 108 1
59 113 1
59 118 1
59 179 1
59 188 1
59 193 1
59 198 1
59 259 1
59 268 1
59 273 1
59 278 1
59 299 1
59 308 1
59 313 1
59 318 1
60 100 1
60 109 1
60 114 1
60 119 1
60 180 1
60 189 1
60 194 1
60 199 1
60 260 1
60 269 1
60 274 1
60 279 1
60 300 1
60 309 1
60 314 1
60 319 1
61 121 1
61 145 1
61 150 1
61 155 1
61 201 1
61 225 1
61 230 1
61 235 1
61 241 1
61 265 1
61 270 1
61 275 1
61 281 1
61 305 1
61 310 1
61 315 1
62 122 1
62 141 1
62 146 1
62 151 1
62 202 1
62 221 1
62 226 1
62 231 1
62 242 1
62 261 1
62 266 1
62 271 1
62 282 1
62 301 1
62 306 1
62 311 1
63 123 1
63 142 1
63 147 1
63 152 1
63 203 1
63 222 1
63 227 1
63 232 1
63 243 1
63 262 1
63 267 1
63 272 1
63 283 1
63 302 1
63 307 1
63 312 1
64 124 1
64 143 1
64 148 1
64 153 1
64 204 1
64 223 1
64 228 1
64 233 1
64 244 1
64 263 1
64 268 1
64 273 1
64 284 1
64 303 1
64 308 1
64 313 1
65 125 1
65 144 1
65 149 1
65 154 1
65 205 1
65 224 1
65 229 1
65 234 1
65 245 1
65 264 1
65 269 1
65 274 1
65 285 1
65 304 1
65 309 1
65 314 1
66 126 1
66 145 1
66 150 1
66 160 1
66 206 1
66 225 1
66 230 1
66 240 1
66 246 1
66 265 1
66 270 1
66 280 1
66 286 1
66 305 1
66 310 1
66 320 1
67 127 1
67 141 1
67 146 1
67 156 1
67 207 1
67 221 1
67 226 1
67 236 1
67 247 1
67 261 1
67 266 1
67 276 1
67 287 1
67 301 1
67 306 1
67 316 1
68 128 1
68 142 1
68 147 1
68 157 1
68 208 1
68 222 1
68 227 1
68 237 1
68 248 1
68 262 1
68 267 1
68 277 1
68 288 1
68 302 1
68 307 1
68 317 1
69 129 1
69 143 1
69 148 1
69 158 1
69 209 1
69 223 1
69 228 1
69 238 1
69 249 1
69 263 1
69 268 1
69 278 1
69 289 1
69 303 1
69 308 1
69 318 1
70 130 1
70 144 1
70 149 1
70 159 1
70 210 1
70 224 1
70 229 1
70 239 1
70 250 1
70 264 1
70 269 1
70 279 1
70 290 1
70 304 1
70 309 1
70 319 1
71 131 1
71 145 1
71 155 1
71 160 1
71 211 1
71 225 1
71 235 1
71 240 1
71 251 1
71 265 1
71 275 1
71 280 1
71 291 1
71 305 1
71 315 1
71 320 1
72 132 1
72 141 1
72 151 1
72 156 1
72 212 1
72 221 1
72 231 1
72 236 1
72 252 1
72 261 1
72 271 1
72 276 1
72 292 1
72 301 1
72 311 1
72 316 1
73 133 1
73 142 1
73 152 1
73 157 1
73 213 1
73 222 1
73 232 1
73 237 1
73 253 1
73 262 1
73 272 1
73 277 1
73 293 1
73 302 1
73 312 1
73 317 1
74 134 1
74 143 1
74 153 1
74 158 1
74 214 1
74 223 1
74 233 1
74 238 1
74 254 1
74 263 1
74 273 1
74 278 1
74 294 1
74 303 1
74 313 1
74 318 1
75 135 1
75 144 1
75 154 1
75 159 1
75 215 1
75 224 1
75 234 1
75 239 1
75 255 1
75 264 1
75 274 1
75 279 1
75 295 1
75 304 1
75 314 1
75 319 1
76 136 1
76 150 1
76 155 1
76 160 1
76 216 1
76 230 1
76 235 1
76 240 1
76 256 1
76 270 1
76 275 1
76 280 1
76 296 1
76 310 1
76 315 1
76 320 1
77 137 1
77 146 1
77 151 1
77 156 1
77 217 1
77 226 1
77 231 1
77 236 1
77 257 1
77 266 1
77 271 1
77 276 1
77 297 1
77 306 1
77 311 1
77 316 1
78 138 1
78 147 1
78 152 1
78 157 1
78 218 1
78 227 1
78 232 1
78 237 1
78 258 1
78 267 1
78 272 1
78 277 1
78 298 1
78 307 1
78 312 1
78 317 1
79 139 1
79 148 1
79 153 1
79 158 1
79 219 1
79 228 1
79 233 1
79 238 1
79 259 1
79 268 1
79 273 1
79 278 1
79 299 1
79 308 1
79 313 1
79 318 1
80 140 1
80 149 1
80 154 1
80 159 1
80 220 1
80 229 1
80 234 1
80 239 1
80 260 1
80 269 1
80 274 1
80 279 1
80 300 1
80 309 1
80 314 1
80 319 1
81 1 1
81 21 1
81 26 1
81 31 1
81 161 1
81 181 1
81 186 1
81 191 1
81 201 1
81 221 1
81 226 1
81 231 1
81 282 1
81 302 1
81 307 1
81 312 1
82 2 1
82 22 1
82 27 1
82 32 1
82 162 1
82 182 1
82 187 1
82 192 1
82 202 1
82 222 1
82 227 1
82 232 1
82 283 1
82 303 1
82 308 1
82 313 1
83 3 1
83 23 1
83 28 1
83 33 1
83 163 1
83 183 1
83 188 1
83 193 1
83 203 1
83 223 1
83 228 1
83 233 1
83 284 1
83 304 1
83 309 1
83 314 1
84 4 1
84 24 1
84 29 1
84 34 1
84 164 1
84 184 1
84 189 1
84 194 1
84 204 1
84 224 1
84 229 1
84 234 1
84 285 1
84 305 1
84 310 1
84 315 1
85 5 1
85 25 1
85 30 1
85 35 1
85 165 1
85 185 1
85 190 1
85 195 1
85 205 1
85 225 1
85 230 1
85 235 1
85 281 1
85 301 1
85 306 1
85 311 1
86 6 1
86 21 1
86 26 1
86 36 1
86 166 1
86 181 1
86 186 1
86 196 1
86 206 1
86 221 1
86 226 1
86 236 1
86 287 1
86 302 1
86 307 1
86 317 1
87 7 1
87 22 1
87 27 1
87 37 1
87 167 1
87 182 1
87 187 1
87 197 1
87 207 1
87 222 1
87 227 1
87 237 1
87 288 1
87 303 1
87 308 1
87 318 1
88 8 1
88 23 1
88 28 1
88 38 1
88 168 1
88 183 1
88 188 1
88 198 1
88 208 1
88 223 1
88 228 1
88 238 1
88 289 1
88 304 1
88 309 1
88 319 1
89 9 1
89 24 1
89 29 1
89 39 1
89 169 1
89 184 1
89 189 1
89 199 1
89 209 1
89 224 1
89 229 1
89 239 1
89 290 1
89 305 1
89 310 1
89 320 1
90 10 1
90 25 1
90 30 1
90 40 1
90 170 1
90 185 1
90 190 1
90 200 1
90 210 1
90 225 1
90 230 1
90 240 1
90 286 1
90 301 1
90 306 1
90 316 1
91 11 1
91 21 1
91 31 1
91 36 1
91 171 1
91 181 1
91 191 1
91 196 1
91 211 1
91 221 1
91 231 1
91 236 1
91 292 1
91 302 1
91 312 1
91 317 1
92 12 1
92 22 1
92 32 1
92 37 1
92 172 1
92 182 1
92 192 1
92 197 1
92 212 1
92 222 1
92 232 1
92 237 1
92 293 1
92 303 1
92 313 1
92 318 1
93 13 1
93 23 1
93 33 1
93 38 1
93 173 1
93 183 1
93 193 1
93 198 1
93 213 1
93 223 1
93 233 1
93 238 1
93 294 1
93 304 1
93 314 1
93 319 1
94 14 1
94 24 1
94 34 1
94 39 1
94 174 1
94 184 1
94 194 1
94 199 1
94 214 1
94 224 1
94 234 1
94 239 1
94 295 1
94 305 1
94 315 1
94 320 1
95 15 1
95 25 1
95 35 1
95 40 1
95 175 1
95 185 1
95 195 1
95 200 1
95 215 1
95 225 1
95 235 1
95 240 1
95 291 1
95 301 1
95 311 1
95 316 1
96 16 1
96 26 1
96 31 1
96 36 1
96 176 1
96 186 1
96 191 1
96 196 1
96 216 1
96 226 1
96 231 1
96 236 1
96 297 1
96 307 1
96 312 1
96 317 1
97 17 1
97 27 1
97 32 1
97 37 1
97 177 1
97 187 1
97 192 1
97 197 1
97 217 1
97 227 1
97 232 1
97 237 1
97 298 1
97 308 1
97 313 1
97 318 1
98 18 1
98 28 1
98 33 1
98 38 1
98 178 1
98 188 1
98 193 1
98 198 1
98 218 1
98 228 1
98 233 1
98 238 1
98 299 1
98 309 1
98 314 1
98 319 1
99 19 1
99 29 1
99 34 1
99 39 1
99 179 1
99 189 1
99 194 1
99 199 1
99 219 1
99 229 1
99 234 1
99 239 1
99 300 1
99 310 1
99 315 1
99 320 1
100 20 1
100 30 1
100 35 1
100 40 1
100 180 1
100 190 1
100 195 1
100 200 1
100 220 1
100 230 1
100 235 1
100 240 1
100 296 1
100 306 1
100 311 1
100 316 1
101 41 1
101 61 1
101 66 1
101 71 1
101 161 1
101 181 1
101 186 1
101 191 1
101 241 1
101 261 1
101 266 1
101 271 1
101 282 1
101 302 1
101 307 1
101 312 1
102 42 1
102 62 1
102 67 1
102 72 1
102 162 1
102 182 1
102 187 1
102 192 1
102 242 1
102 262 1
102 267 1
102 272 1
102 283 1
102 303 1
102 308 1
102 313 1
103 43 1
103 63 1
103 68 1
103 73 1
103 163 1
103 183 1
103 188 1
103 193 1
103 243 1
103 263 1
103 268 1
103 273 1
103 284 1
103 304 1
103 309 1
103 314 1
104 44 1
104 64 1
104 69 1
104 74 1
104 164 1
104 184 1
104 189 1
104 194 1
104 244 1
104 264 1
104 269 1
104 274 1
104 285 1
104 305 1
104 310 1
104 315 1
105 45 1
105 65 1
105 70 1
105 75 1
105 165 1
105 185 1
105 190 1
105 195 1
105 245 1
105 265 1
105 270 1
105 275 1
105 281 1
105 301 1
105 306 1
105 311 1
106 46 1
106 61 1
106 66 1
106 76 1
106 166 1
106 181 1
106 186 1
106 196 1
106 246 1
106 261 1
106 266 1
106 276 1
106 287 1
106 302 1
106 307 1
106 317 1
107 47 1
107 62 1
107 67 1
107 77 1
107 167 1
107 182 1
107 187 1
107 197 1
107 247 1
107 262 1
107 267 1
107 277 1
107 288 1
107 303 1
107 308 1
107 318 1
108 48 1
108 63 1
108 68 1
108 78 1
108 168 1
108 183 1
108 188 1
108 198 1
108 248 1
108 263 1
108 268 1
108 278 1
108 289 1
108 304 1
108 309 1
108 319 1
109 49 1
109 64 1
109 69 1
109 79 1
109 169 1
109 184 1
109 189 1
109 199 1
109 249 1
109 264 1
109 269 1
109 279 1
109 290 1
109 305 1
109 310 1
109 320 1
110 50 1
110 65 1
110 70 1
110 80 1
110 170 1
110 185 1
110 190 1
110 200 1
110 250 1
110 265 1
110 270 1
110 280 1
110 286 1
110 301 1
110 306 1
110 316 1
111 51 1
111 61 1
111 71 1
111 76 1
111 171 1
111 181 1
111 191 1
111 196 1
111 251 1
111 261 1
111 271 1
111 276 1
111 292 1
111 302 1
111 312 1
111 317 1
112 52 1
112 62 1
112 72 1
112 77 1
112 172 1
112 182 1
112 192 1
112 197 1
112 252 1
112 262 1
112 272 1
112 277 1
112 293 1
112 303 1
112 313 1
112 318 1
113 53 1
113 63 1
113 73 1
113 78 1
113 173 1
113 183 1
113 193 1
113 198 1
113 253 1
113 263 1
113 273 1
113 278 1
113 294 1
113 304 1
113 314 1
113 319 1
114 54 1
114 64 1
114 74 1
114 79 1
114 174 1
114 184 1
114 194 1
114 199 1
114 254 1
114 264 1
114 274 1
114 279 1
114 295 1
114 305 1
114 315 1
114 320 1
115 55 1
115 65 1
115 75 1
115 80 1
115 175 1
115 185 1
115 195 1
115 200 1
115 255 1
115 265 1
115 275 1
115 280 1
115 291 1
115 301 1
115 311 1
115 316 1
116 56 1
116 66 1
116 71 1
116 76 1
116 176 1
116 186 1
116 191 1
116 196 1
116 256 1
116 266 1
116 271 1
116 276 1
116 297 1
116 307 1
116 312 1
116 317 1
117 57 1
117 67 1
117 72 1
117 77 1
117 177 1
117 187 1
117 192 1
117 197 1
117 257 1
117 267 1
117 272 1
117 277 1
117 298 1
117 308 1
117 313 1
117 318 1
118 58 1
118 68 1
118 73 1
118 78 1
118 178 1
118 188 1
118 193 1
118 198 1
118 258 1
118 268 1
118 273 1
118 278 1
118 299 1
118 309 1
118 314 1
118 319 1
119 59 1
119 69 1
119 74 1
119 79 1
119 179 1
119 189 1
119 194 1
119 199 1
119 259 1
119 269 1
119 274 1
119 279 1
119 300 1
119 310 1
119 315 1
119 320 1
120 60 1
120 70 1
120 75 1
120 80 1
120 180 1
120 190 1
120 195 1
120 200 1
120 260 1
120 270 1
120 275 1
120 280 1
120 296 1
120 306 1
120 311 1
120 316 1
121 81 1
121 101 1
121 106 1
121 111 1
121 201 1
121 221 1
121 226 1
121 231 1
121 241 1
121 261 1
121 266 1
121 271 1
121 282 1
121 302 1
121 307 1
121 312 1
122 82 1
122 102 1
122 107 1
122 112 1
122 202 1
122 222 1
122 227 1
122 232 1
122 242 1
122 262 1
122 267 1
122 272 1
122 283 1
122 303 1
122 308 1
122 313 1
123 83 1
123 103 1
123 108 1
123 113 1
123 203 1
123 223 1
123 228 1
123 233 1
123 243 1
123 263 1
123 268 1
123 273 1
123 284 1
123 304 1
123 309 1
123 314 1
124 84 1
124 104 1
124 109 1
124 114 1
124 204 1
124 224 1
124 229 1
124 234 1
124 244 1
124 264 1
124 269 1
124 274 1
124 285 1
124 305 1
124 310 1
124 315 1
125 85 1
125 105 1
125 110 1
125 115 1
125 205 1
125 225 1
125 230 1
125 235 1
125 245 1
125 265 1
125 270 1
125 275 1
125 281 1
125 301 1
125 306 1
125 311 1
126 86 1
126 101 1
126 106 1
126 116 1
126 206 1
126 221 1
126 226 1
126 236 1
126 246 1
126 261 1
126 266 1
126 276 1
126 287 1
126 302 1
126 307 1
126 317 1
127 87 1
127 102 1
127 107 1
127 117 1
127 207 1
127 222 1
127 227 1
127 237 1
127 247 1
127 262 1
127 267 1
127 277 1
127 288 1
127 303 1
127 308 1
127 318 1
128 88 1
128 103 1
128 108 1
128 118 1
128 208 1
128 223 1
128 228 1
128 238 1
128 248 1
128 263 1
128 268 1
128 278 1
128 289 1
128 304 1
128 309 1
128 319 1
129 89 1
129 104 1
129 109 1
129 119 1
129 209 1
129 224 1
129 229 1
129 239 1
129 249 1
129 264 1
129 269 1
129 279 1
129 290 1
129 305 1
129 310 1
129 320 1
130 90 1
130 105 1
130 110 1
130 120 1
130 210 1
130 225 1
130 230 1
130 240 1
130 250 1
130 265 1
130 270 1
130 280 1
130 286 1
130 301 1
130 306 1
130 316 1
131 91 1
131 101 1
131 111 1
131 116 1
131 211 1
131 221 1
131 231 1
131 236 1
131 251 1
131 261 1
131 271 1
131 276 1
131 292 1
131 302 1
131 312 1
131 317 1
132 92 1
132 102 1
132 112 1
132 117 1
132 212 1
132 222 1
132 232 1
132 237 1
132 252 1
132 262 1
132 272 1
132 277 1
132 293 1
132 303 1
132 313 1
132 318 1
133 93 1
133 103 1
133 113 1
133 118 1
133 213 1
133 223 1
133 233 1
133 238 1
133 253 1
133 263 1
133 273 1
133 278 1
133 294 1
133 304 1
133 314 1
133 319 1
134 94 1
134 104 1
134 114 1
134 119 1
134 214 1
134 224 1
134 234 1
134 239 1
134 254 1
134 264 1
134 274 1
134 279 1
134 295 1
134 305 1
134 315 1
134 320 1
135 95 1
135 105 1
135 115 1
135 120 1
135 215 1
135 225 1
135 235 1
135 240 1
135 255 1
135 265 1
135 275 1
135 280 1
135 291 1
135 301 1
135 311 1
135 316 1
136 96 1
136 106 1
136 111 1
136 116 1
136 216 1
136 226 1
136 231 1
136 236 1
136 256 1
136 266 1
136 271 1
136 276 1
136 297 1
136 307 1
136 312 1
136 317 1
137 97 1
137 107 1
137 112 1
137 117 1
137 217 1
137 227 1
137 232 1
137 237 1
137 257 1
137 267 1
137 272 1
137 277 1
137 298 1
137 308 1
137 313 1
137 318 1
138 98 1
138 108 1
138 113 1
138 118 1
138 218 1
138 228 1
138 233 1
138 238 1
138 258 1
138 268 1
138 273 1
138 278 1
138 299 1
138 309 1
138 314 1
138 319 1
139 99 1
139 109 1
139 114 1
139 119 1
139 219 1
139 229 1
139 234 1
139 239 1
139 259 1
139 269 1
139 274 1
139 279 1
139 300 1
139 310 1
139 315 1
139 320 1
140 100 1
140 110 1
140 115 1
140 120 1
140 220 1
140 230 1
140 235 1
140 240 1
140 260 1
140 270 1
140 275 1
140 280 1
140 296 1
140 306 1
140 311 1
140 316 1
141 121 1
141 141 1
141 146 1
141 151 1
141 161 1
141 181 1
141 186 1
141 191 1
141 201 1
141 221 1
141 226 1
141 231 1
141 241 1
141 261 1
141 266 1
141 271 1
142 122 1
142 142 1
142 147 1
142 152 1
142 162 1
142 182 1
142 187 1
142 192 1
142 202 1
142 222 1
142 227 1
142 232 1
142 242 1
142 262 1
142 267 1
142 272 1
143 123 1
143 143 1
143 148 1
143 153 1
143 163 1
143 183 1
143 188 1
143 193 1
143 203 1
143 223 1
143 228 1
143 233 1
143 243 1
143 263 1
143 268 1
143 273 1
144 124 1
144 144 1
144 149 1
144 154 1
144 164 1
144 184 1
144 189 1
144 194 1
144 204 1
144 224 1
144 229 1
144 234 1
144 244 1
144 264 1
144 269 1
144 274 1
145 125 1
145 145 1
145 150 1
145 155 1
145 165 1
145 185 1
145 190 1
145 195 1
145 205 1
145 225 1
145 230 1
145 235 1
145 245 1
145 265 1
145 270 1
145 275 1
146 126 1
146 141 1
146 146 1
146 156 1
146 166 1
146 181 1
146 186 1
146 196 1
146 206 1
146 221 1
146 226 1
146 236 1
146 246 1
146 261 1
146 266 1
146 276 1
147 127 1
147 142 1
147 147 1
147 157 1
147 167 1
147 182 1
147 187 1
147 197 1
147 207 1
147 222 1
147 227 1
147 237 1
147 247 1
147 262 1
147 267 1
147 277 1
148 128 1
148 143 1
148 148 1
148 158 1
148 168 1
148 183 1
148 188 1
148 198 1
148 208 1
148 223 1
148 228 1
148 238 1
148 248 1
148 263 1
148 268 1
148 278 1
149 129 1
149 144 1
149 149 1
149 159 1
149 169 1
149 184 1
149 189 1
149 199 1
149 209 1
149 224 1
149 229 1
149 239 1
149 249 1
149 264 1
149 269 1
149 279 1
150 130 1
150 145 1
150 150 1
150 160 1
150 170 1
150 185 1
150 190 1
150 200 1
150 210 1
150 225 1
150 230 1
150 240 1
150 250 1
150 265 1
150 270 1
150 280 1
151 131 1
151 141 1
151 151 1
151 156 1
151 171 1
151 181 1
151 191 1
151 196 1
151 211 1
151 221 1
151 231 1
151 236 1
151 251 1
151 261 1
151 271 1
151 276 1
152 132 1
152 142 1
152 152 1
152 157 1
152 172 1
152 182 1
152 192 1
152 197 1
152 212 1
152 222 1
152 232 1
152 237 1
152 252 1
152 262 1
152 272 1
152 277 1
153 133 1
153 143 1
153 153 1
153 158 1
153 173 1
153 183 1
153 193 1
153 198 1
153 213 1
153 223 1
153 233 1
153 238 1
153 253 1
153 263 1
153 273 1
153 278 1
154 134 1
154 144 1
154 154 1
154 159 1
154 174 1
154 184 1
154 194 1
154 199 1
154 214 1
154 224 1
154 234 1
154 239 1
154 254 1
154 264 1
154 274 1
154 279 1
155 135 1
155 145 1
155 155 1
155 160 1
155 175 1
155 185 1
155 195 1
155 200 1
155 215 1
155 225 1
155 235 1
155 240 1
155 255 1
155 265 1
155 275 1
155 280 1
156 136 1
156 146 1
156 151 1
156 156 1
156 176 1
156 186 1
156 191 1
156 196 1
156 216 1
156 226 1
156 231 1
156 236 1
156 256 1
156 266 1
156 271 1
156 276 1
157 137 1
157 147 1
157 152 1
157 157 1
157 177 1
157 187 1
157 192 1
157 197 1
157 217 1
157 227 1
157 232 1
157 237 1
157 257 1
157 267 1
157 272 1
157 277 1
158 138 1
158 148 1
158 153 1
158 158 1
158 178 1
158 188 1
158 193 1
158 198 1
158 218 1
158 228 1
158 233 1
158 238 1
158 258 1
158 268 1
158 273 1
158 278 1
159 139 1
159 149 1
159 154 1
159 159 1
159 179 1
159 189 1
159 194 1
159 199 1
159 219 1
159 229 1
159 234 1
159 239 1
159 259 1
159 269 1
159 274 1
159 279 1
160 140 1
160 150 1
160 155 1
160 160 1
160 180 1
160 190 1
160 195 1
160 200 1
160 220 1
160 230 1
160 235 1
160 240 1
160 260 1
160 270 1
160 275 1
160 280 1
