%%MatrixMarket matrix coordinate integer general
306 612 2754
1 1 1
1 34 1
1 58 1
1 307 1
1 340 1
1 364 1
1 409 1
1 442 1
1 466 1
2 2 1
2 18 1
2 59 1
2 308 1
2 324 1
2 365 1
2 410 1
2 426 1
2 467 1
3 3 1
3 19 1
3 60 1
3 309 1
3 325 1
3 366 1
3 411 1
3 427 1
3 468 1
4 4 1
4 20 1
4 61 1
4 310 1
4 326 1
4 367 1
4 412 1
4 428 1
4 469 1
5 5 1
5 21 1
5 62 1
5 311 1
5 327 1
5 368 1
5 413 1
5 429 1
5 470 1
6 6 1
6 22 1
6 63 1
6 312 1
6 328 1
6 369 1
6 414 1
6 430 1
6 471 1
7 7 1
7 23 1
7 64 1
7 313 1
7 329 1
7 370 1
7 415 1
7 431 1
7 472 1
8 8 1
8 24 1
8 65 1
8 314 1
8 330 1
8 371 1
8 416 1
8 432 1
8 473 1
9 9 1
9 25 1
9 66 1
9 315 1
9 331 1
9 372 1
9 417 1
9 433 1
9 474 1
10 10 1
10 26 1
10 67 1
10 316 1
10 332 1
10 373 1
10 418 1
10 434 1
10 475 1
11 11 1
11 27 1
11 68 1
11 317 1
11 333 1
11 374 1
11 419 1
11 435 1
11 476 1
12 12 1
12 28 1
12 52 1
12 318 1
12 334 1
12 358 1
12 420 1
12 436 1
12 460 1
13 13 1
13 29 1
13 53 1
13 319 1
13 335 1
13 359 1
13 421 1
13 437 1
13 461 1
14 14 1
14 30 1
14 54 1
14 320 1
14 336 1
14 360 1
14 422 1
14 438 1
14 462 1
15 15 1
15 31 1
15 55 1
15 321 1
15 337 1
15 361 1
15 423 1
15 439 1
15 463 1
16 16 1
16 32 1
16 56 1
16 322 1
16 338 1
16 362 1
16 424 1
16 440 1
16 464 1
17 17 1
17 33 1
17 57 1
17 323 1
17 339 1
17 363 1
17 425 1
17 441 1
17 465 1
18 1 1
18 42 1
18 75 1
18 307 1
18 348 1
18 381 1
18 409 1
18 450 1
18 483 1
19 2 1
19 43 1
19 76 1
19 308 1
19 349 1
19 382 1
19 410 1
19 451 1
19 484 1
20 3 1
20 44 1
20 77 1
20 309 1
20 350 1
20 383 1
20 411 1
20 452 1
20 485 1
21 4 1
21 45 1
21 78 1
21 310 1
21 351 1
21 384 1
21 412 1
21 453 1
21 486 1
22 5 1
22 46 1
22 79 1
22 311 1
22 352 1
22 385 1
22 413 1
22 454 1
22 487 1
23 6 1
23 47 1
23 80 1
23 312 1
23 353 1
23 386 1
23 414 1
23 455 1
23 488 1
24 7 1
24 48 1
24 81 1
24 313 1
24 354 1
24 387 1
24 415 1
24 456 1
24 489 1
25 8 1
25 49 1
25 82 1
25 314 1
25 355 1
25 388 1
25 416 1
25 457 1
25 490 1
26 9 1
26 50 1
26 83 1
26 315 1
26 356 1
26 389 1
26 417 1
26 458 1
26 491 1
27 10 1
27 51 1
27 84 1
27 316 1
27 357 1
27 390 1
27 418 1
27 459 1
27 492 1
28 11 1
28 35 1
28 85 1
28 317 1
28 341 1
28 391 1
28 419 1
28 443 1
28 493 1
29 12 1
29 36 1
29 69 1
29 318 1
29 342 1
29 375 1
29 420 1
29 444 1
29 477 1
30 13 1
30 37 1
30 70 1
30 319 1
30 343 1
30 376 1
30 421 1
30 445 1
30 478 1
31 14 1
31 38 1
31 71 1
31 320 1
31 344 1
31 377 1
31 422 1
31 446 1
31 479 1
32 15 1
32 39 1
32 72 1
32 321 1
32 345 1
32 378 1
32 423 1
32 447 1
32 480 1
33 16 1
33 40 1
33 73 1
33 322 1
33 346 1
33 379 1
33 424 1
33 448 1
33 481 1
34 17 1
34 41 1
34 74 1
34 323 1
34 347 1
34 380 1
34 425 1
34 449 1
34 482 1
35 34 1
35 42 1
35 89 1
35 340 1
35 348 1
35 395 1
35 442 1
35 450 1
35 497 1
36 18 1
36 43 1
36 90 1
36 324 1
36 349 1
36 396 1
36 426 1
36 451 1
36 498 1
37 19 1
37 44 1
37 91 1
37 325 1
37 350 1
37 397 1
37 427 1
37 452 1
37 499 1
38 20 1
38 45 1
38 92 1
38 326 1
38 351 1
38 398 1
38 428 1
38 453 1
38 500 1
39 21 1
39 46 1
39 93 1
39 327 1
39 352 1
39 399 1
39 429 1
39 454 1
39 501 1
40 22 1
40 47 1
40 94 1
40 328 1
40 353 1
40 400 1
40 430 1
40 455 1
40 502 1
41 23 1
41 48 1
41 95 1
41 329 1
41 354 1
41 401 1
41 431 1
41 456 1
41 503 1
42 24 1
42 49 1
42 96 1
42 330 1
42 355 1
42 402 1
42 432 1
42 457 1
42 504 1
43 25 1
43 50 1
43 97 1
43 331 1
43 356 1
43 403 1
43 433 1
43 458 1
43 505 1
44 26 1
44 51 1
44 98 1
44 332 1
44 357 1
44 404 1
44 434 1
44 459 1
44 506 1
45 27 1
45 35 1
45 99 1
45 333 1
45 341 1
45 405 1
45 435 1
45 443 1
45 507 1
46 28 1
46 36 1
46 100 1
46 334 1
46 342 1
46 406 1
46 436 1
46 444 1
46 508 1
47 29 1
47 37 1
47 101 1
47 335 1
47 343 1
47 407 1
47 437 1
47 445 1
47 509 1
48 30 1
48 38 1
48 102 1
48 336 1
48 344 1
48 408 1
48 438 1
48 446 1
48 510 1
49 31 1
49 39 1
49 86 1
49 337 1
49 345 1
49 392 1
49 439 1
49 447 1
49 494 1
50 32 1
50 40 1
50 87 1
50 338 1
50 346 1
50 393 1
50 440 1
50 448 1
50 495 1
51 33 1
51 41 1
51 88 1
51 339 1
51 347 1
51 394 1
51 441 1
51 449 1
51 496 1
52 103 1
52 136 1
52 160 1
52 307 1
52 340 1
52 364 1
52 511 1
52 544 1
52 568 1
53 104 1
53 120 1
53 161 1
53 308 1
53 324 1
53 365 1
53 512 1
53 528 1
53 569 1
54 105 1
54 121 1
54 162 1
54 309 1
54 325 1
54 366 1
54 513 1
54 529 1
54 570 1
55 106 1
55 122 1
55 163 1
55 310 1
55 326 1
55 367 1
55 514 1
55 530 1
55 571 1
56 107 1
56 123 1
56 164 1
56 311 1
56 327 1
56 368 1
56 515 1
56 531 1
56 572 1
57 108 1
57 124 1
57 165 1
57 312 1
57 328 1
57 369 1
57 516 1
57 532 1
57 573 1
58 109 1
58 125 1
58 166 1
58 313 1
58 329 1
58 370 1
58 517 1
58 533 1
58 574 1
59 110 1
59 126 1
59 167 1
59 314 1
59 330 1
59 371 1
59 518 1
59 534 1
59 575 1
60 111 1
60 127 1
60 168 1
60 315 1
60 331 1
60 372 1
60 519 1
60 535 1
60 576 1
61 112 1
61 128 1
61 169 1
61 316 1
61 332 1
61 373 1
61 520 1
61 536 1
61 577 1
62 113 1
62 129 1
62 170 1
62 317 1
62 333 1
62 374 1
62 521 1
62 537 1
62 578 1
63 114 1
63 130 1
63 154 1
63 318 1
63 334 1
63 358 1
63 522 1
63 538 1
63 562 1
64 115 1
64 131 1
64 155 1
64 319 1
64 335 1
64 359 1
64 523 1
64 539 1
64 563 1
65 116 1
65 132 1
65 156 1
65 320 1
65 336 1
65 360 1
65 524 1
65 540 1
65 564 1
66 117 1
66 133 1
66 157 1
66 321 1
66 337 1
66 361 1
66 525 1
66 541 1
66 565 1
67 118 1
67 134 1
67 158 1
67 322 1
67 338 1
67 362 1
67 526 1
67 542 1
67 566 1
68 119 1
68 135 1
68 159 1
68 323 1
68 339 1
68 363 1
68 527 1
68 543 1
68 567 1
69 103 1
69 144 1
69 177 1
69 307 1
69 348 1
69 381 1
69 511 1
69 552 1
69 585 1
70 104 1
70 145 1
70 178 1
70 308 1
70 349 1
70 382 1
70 512 1
70 553 1
70 586 1
71 105 1
71 146 1
71 179 1
71 309 1
71 350 1
71 383 1
71 513 1
71 554 1
71 587 1
72 106 1
72 147 1
72 180 1
72 310 1
72 351 1
72 384 1
72 514 1
72 555 1
72 588 1
73 107 1
73 148 1
73 181 1
73 311 1
73 352 1
73 385 1
73 515 1
73 556 1
73 589 1
74 108 1
74 149 1
74 182 1
74 312 1
74 353 1
74 386 1
74 516 1
74 557 1
74 590 1
75 109 1
75 150 1
75 183 1
75 313 1
75 354 1
75 387 1
75 517 1
75 558 1
75 591 1
76 110 1
76 151 1
76 184 1
76 314 1
76 355 1
76 388 1
76 518 1
76 559 1
76 592 1
77 111 1
77 152 1
77 185 1
77 315 1
77 356 1
77 389 1
77 519 1
77 560 1
77 593 1
78 112 1
78 153 1
78 186 1
78 316 1
78 357 1
78 390 1
78 520 1
78 561 1
78 594 1
79 113 1
79 137 1
79 187 1
79 317 1
79 341 1
79 391 1
79 521 1
79 545 1
79 595 1
80 114 1
80 138 1
80 171 1
80 318 1
80 342 1
80 375 1
80 522 1
80 546 1
80 579 1
81 115 1
81 139 1
81 172 1
81 319 1
81 343 1
81 376 1
81 523 1
81 547 1
81 580 1
82 116 1
82 140 1
82 173 1
82 320 1
82 344 1
82 377 1
82 524 1
82 548 1
82 581 1
83 117 1
83 141 1
83 174 1
83 321 1
83 345 1
83 378 1
83 525 1
83 549 1
83 582 1
84 118 1
84 142 1
84 175 1
84 322 1
84 346 1
84 379 1
84 526 1
84 550 1
84 583 1
85 119 1
85 143 1
85 176 1
85 323 1
85 347 1
85 380 1
85 527 1
85 551 1
85 584 1
86 136 1
86 144 1
86 191 1
86 340 1
86 348 1
86 395 1
86 544 1
86 552 1
86 599 1
87 120 1
87 145 1
87 192 1
87 324 1
87 349 1
87 396 1
87 528 1
87 553 1
87 600 1
88 121 1
88 146 1
88 193 1
88 325 1
88 350 1
88 397 1
88 529 1
88 554 1
88 601 1
89 122 1
89 147 1
89 194 1
89 326 1
89 351 1
89 398 1
89 530 1
89 555 1
89 602 1
90 123 1
90 148 1
90 195 1
90 327 1
90 352 1
90 399 1
90 531 1
90 556 1
90 603 1
91 124 1
91 149 1
91 196 1
91 328 1
91 353 1
91 400 1
91 532 1
91 557 1
91 604 1
92 125 1
92 150 1
92 197 1
92 329 1
92 354 1
92 401 1
92 533 1
92 558 1
92 605 1
93 126 1
93 151 1
93 198 1
93 330 1
93 355 1
93 402 1
93 534 1
93 559 1
93 606 1
94 127 1
94 152 1
94 199 1
94 331 1
94 356 1
94 403 1
94 535 1
94 560 1
94 607 1
95 128 1
95 153 1
95 200 1
95 332 1
95 357 1
95 404 1
95 536 1
95 561 1
95 608 1
96 129 1
96 137 1
96 201 1
96 333 1
96 341 1
96 405 1
96 537 1
96 545 1
96 609 1
97 130 1
97 138 1
97 202 1
97 334 1
97 342 1
97 406 1
97 538 1
97 546 1
97 610 1
98 131 1
98 139 1
98 203 1
98 335 1
98 343 1
98 407 1
98 539 1
98 547 1
98 611 1
99 132 1
99 140 1
99 204 1
99 336 1
99 344 1
99 408 1
99 540 1
99 548 1
99 612 1
100 133 1
100 141 1
100 188 1
100 337 1
100 345 1
100 392 1
100 541 1
100 549 1
100 596 1
101 134 1
101 142 1
101 189 1
101 338 1
101 346 1
101 393 1
101 542 1
101 550 1
101 597 1
102 135 1
102 143 1
102 190 1
102 339 1
102 347 1
102 394 1
102 543 1
102 551 1
102 598 1
103 205 1
103 238 1
103 262 1
103 409 1
103 442 1
103 466 1
103 511 1
103 544 1
103 568 1
104 206 1
104 222 1
104 263 1
104 410 1
104 426 1
104 467 1
104 512 1
104 528 1
104 569 1
105 207 1
105 223 1
105 264 1
105 411 1
105 427 1
105 468 1
105 513 1
105 529 1
105 570 1
106 208 1
106 224 1
106 265 1
106 412 1
106 428 1
106 469 1
106 514 1
106 530 1
106 571 1
107 209 1
107 225 1
107 266 1
107 413 1
107 429 1
107 470 1
107 515 1
107 531 1
107 572 1
108 210 1
108 226 1
108 267 1
108 414 1
108 430 1
108 471 1
108 516 1
108 532 1
108 573 1
109 211 1
109 227 1
109 268 1
109 415 1
109 431 1
109 472 1
109 517 1
109 533 1
109 574 1
110 212 1
110 228 1
110 269 1
110 416 1
110 432 1
110 473 1
110 518 1
110 534 1
110 575 1
111 213 1
111 229 1
111 270 1
111 417 1
111 433 1
111 474 1
111 519 1
111 535 1
111 576 1
112 214 1
112 230 1
112 271 1
112 418 1
112 434 1
112 475 1
112 520 1
112 536 1
112 577 1
113 215 1
113 231 1
113 272 1
113 419 1
113 435 1
113 476 1
113 521 1
113 537 1
113 578 1
114 216 1
114 232 1
114 256 1
114 420 1
114 436 1
114 460 1
114 522 1
114 538 1
114 562 1
115 217 1
115 233 1
115 257 1
115 421 1
115 437 1
115 461 1
115 523 1
115 539 1
115 563 1
116 218 1
116 234 1
116 258 1
116 422 1
116 438 1
116 462 1
116 524 1
116 540 1
116 564 1
117 219 1
117 235 1
117 259 1
117 423 1
117 439 1
117 463 1
117 525 1
117 541 1
117 565 1
118 220 1
118 236 1
118 260 1
118 424 1
118 440 1
118 464 1
118 526 1
118 542 1
118 566 1
119 221 1
119 237 1
119 261 1
119 425 1
119 441 1
119 465 1
119 527 1
119 543 1
119 567 1
120 205 1
120 246 1
120 279 1
120 409 1
120 450 1
120 483 1
120 511 1
120 552 1
120 585 1
121 206 1
121 247 1
121 280 1
121 410 1
121 451 1
121 484 1
121 512 1
121 553 1
121 586 1
122 207 1
122 248 1
122 281 1
122 411 1
122 452 1
122 485 1
122 513 1
122 554 1
122 587 1
123 208 1
123 249 1
123 282 1
123 412 1
123 453 1
123 486 1
123 514 1
123 555 1
123 588 1
124 209 1
124 250 1
124 283 1
124 413 1
124 454 1
124 487 1
124 515 1
124 556 1
124 589 1
125 210 1
125 251 1
125 284 1
125 414 1
125 455 1
125 488 1
125 516 1
125 557 1
125 590 1
126 211 1
126 252 1
126 285 1
126 415 1
126 456 1
126 489 1
126 517 1
126 558 1
126 591 1
127 212 1
127 253 1
127 286 1
127 416 1
127 457 1
127 490 1
127 518 1
127 559 1
127 592 1
128 213 1
128 254 1
128 287 1
128 417 1
128 458 1
128 491 1
128 519 1
128 560 1
128 593 1
129 214 1
129 255 1
129 288 1
129 418 1
129 459 1
129 492 1
129 520 1
129 561 1
129 594 1
130 215 1
130 239 1
130 289 1
130 419 1
130 443 1
130 493 1
130 521 1
130 545 1
130 595 1
131 216 1
131 240 1
131 273 1
131 420 1
131 444 1
131 477 1
131 522 1
131 546 1
131 579 1
132 217 1
132 241 1
132 274 1
132 421 1
132 445 1
132 478 1
132 523 1
132 547 1
132 580 1
133 218 1
133 242 1
133 275 1
133 422 1
133 446 1
133 479 1
133 524 1
133 548 1
133 581 1
134 219 1
134 243 1
134 276 1
134 423 1
134 447 1
134 480 1
134 525 1
134 549 1
134 582 1
135 220 1
135 244 1
135 277 1
135 424 1
135 448 1
135 481 1
135 526 1
135 550 1
135 583 1
136 221 1
136 245 1
136 278 1
136 425 1
136 449 1
136 482 1
136 527 1
136 551 1
136 584 1
137 238 1
137 246 1
137 293 1
137 442 1
137 450 1
137 497 1
137 544 1
137 552 1
137 599 1
138 222 1
138 247 1
138 294 1
138 426 1
138 451 1
138 498 1
138 528 1
138 553 1
138 600 1
139 223 1
139 248 1
139 295 1
139 427 1
139 452 1
139 499 1
139 529 1
139 554 1
139 601 1
140 224 1
140 249 1
140 296 1
140 428 1
140 453 1
140 500 1
140 530 1
140 555 1
140 602 1
141 225 1
141 250 1
141 297 1
141 429 1
141 454 1
141 501 1
141 531 1
141 556 1
141 603 1
142 226 1
142 251 1
142 298 1
142 430 1
142 455 1
142 502 1
142 532 1
142 557 1
142 604 1
143 227 1
143 252 1
143 299 1
143 431 1
143 456 1
143 503 1
143 533 1
143 558 1
143 605 1
144 228 1
144 253 1
144 300 1
144 432 1
144 457 1
144 504 1
144 534 1
144 559 1
144 606 1
145 229 1
145 254 1
145 301 1
145 433 1
145 458 1
145 505 1
145 535 1
145 560 1
145 607 1
146 230 1
146 255 1
146 302 1
146 434 1
146 459 1
146 506 1
146 536 1
146 561 1
146 608 1
147 231 1
147 239 1
147 303 1
147 435 1
147 443 1
147 507 1
147 537 1
147 545 1
147 609 1
148 232 1
148 240 1
148 304 1
148 436 1
148 444 1
148 508 1
148 538 1
148 546 1
148 610 1
149 233 1
149 241 1
149 305 1
149 437 1
149 445 1
149 509 1
149 539 1
149 547 1
149 611 1
150 234 1
150 242 1
150 306 1
150 438 1
150 446 1
150 510 1
150 540 1
150 548 1
150 612 1
151 235 1
151 243 1
151 290 1
151 439 1
151 447 1
151 494 1
151 541 1
151 549 1
151 596 1
152 236 1
152 244 1
152 291 1
152 440 1
152 448 1
152 495 1
152 542 1
152 550 1
152 597 1
153 237 1
153 245 1
153 292 1
153 441 1
153 449 1
153 496 1
153 543 1
153 551 1
153 598 1
154 1 1
154 18 1
154 52 1
154 322 1
154 339 1
154 373 1
154 424 1
154 441 1
154 475 1
155 2 1
155 19 1
155 53 1
155 323 1
155 340 1
155 374 1
155 425 1
155 442 1
155 476 1
156 3 1
156 20 1
156 54 1
156 307 1
156 324 1
156 358 1
156 409 1
156 426 1
156 460 1
157 4 1
157 21 1
157 55 1
157 308 1
157 325 1
157 359 1
157 410 1
157 427 1
157 461 1
158 5 1
158 22 1
158 56 1
158 309 1
158 326 1
158 360 1
158 411 1
158 428 1
158 462 1
159 6 1
159 23 1
159 57 1
159 310 1
159 327 1
159 361 1
159 412 1
159 429 1
159 463 1
160 7 1
160 24 1
160 58 1
160 311 1
160 328 1
160 362 1
160 413 1
160 430 1
160 464 1
161 8 1
161 25 1
161 59 1
161 312 1
161 329 1
161 363 1
161 414 1
161 431 1
161 465 1
162 9 1
162 26 1
162 60 1
162 313 1
162 330 1
162 364 1
162 415 1
162 432 1
162 466 1
163 10 1
163 27 1
163 61 1
163 314 1
163 331 1
163 365 1
163 416 1
163 433 1
163 467 1
164 11 1
164 28 1
164 62 1
164 315 1
164 332 1
164 366 1
164 417 1
164 434 1
164 468 1
165 12 1
165 29 1
165 63 1
165 316 1
165 333 1
165 367 1
165 418 1
165 435 1
165 469 1
166 13 1
166 30 1
166 64 1
166 317 1
166 334 1
166 368 1
166 419 1
166 436 1
166 470 1
167 14 1
167 31 1
167 65 1
167 318 1
167 335 1
167 369 1
167 420 1
167 437 1
167 471 1
168 15 1
168 32 1
168 66 1
168 319 1
168 336 1
168 370 1
168 421 1
168 438 1
168 472 1
169 16 1
169 33 1
169 67 1
169 320 1
169 337 1
169 371 1
169 422 1
169 439 1
169 473 1
170 17 1
170 34 1
170 68 1
170 321 1
170 338 1
170 372 1
170 423 1
170 440 1
170 474 1
171 1 1
171 35 1
171 69 1
171 322 1
171 356 1
171 390 1
171 424 1
171 458 1
171 492 1
172 2 1
172 36 1
172 70 1
172 323 1
172 357 1
172 391 1
172 425 1
172 459 1
172 493 1
173 3 1
173 37 1
173 71 1
173 307 1
173 341 1
173 375 1
173 409 1
173 443 1
173 477 1
174 4 1
174 38 1
174 72 1
174 308 1
174 342 1
174 376 1
174 410 1
174 444 1
174 478 1
175 5 1
175 39 1
175 73 1
175 309 1
175 343 1
175 377 1
175 411 1
175 445 1
175 479 1
176 6 1
176 40 1
176 74 1
176 310 1
176 344 1
176 378 1
176 412 1
176 446 1
176 480 1
177 7 1
177 41 1
177 75 1
177 311 1
177 345 1
177 379 1
177 413 1
177 447 1
177 481 1
178 8 1
178 42 1
178 76 1
178 312 1
178 346 1
178 380 1
178 414 1
178 448 1
178 482 1
179 9 1
179 43 1
179 77 1
179 313 1
179 347 1
179 381 1
179 415 1
179 449 1
179 483 1
180 10 1
180 44 1
180 78 1
180 314 1
180 348 1
180 382 1
180 416 1
180 450 1
180 484 1
181 11 1
181 45 1
181 79 1
181 315 1
181 349 1
181 383 1
181 417 1
181 451 1
181 485 1
182 12 1
182 46 1
182 80 1
182 316 1
182 350 1
182 384 1
182 418 1
182 452 1
182 486 1
183 13 1
183 47 1
183 81 1
183 317 1
183 351 1
183 385 1
183 419 1
183 453 1
183 487 1
184 14 1
184 48 1
184 82 1
184 318 1
184 352 1
184 386 1
184 420 1
184 454 1
184 488 1
185 15 1
185 49 1
185 83 1
185 319 1
185 353 1
185 387 1
185 421 1
185 455 1
185 489 1
186 16 1
186 50 1
186 84 1
186 320 1
186 354 1
186 388 1
186 422 1
186 456 1
186 490 1
187 17 1
187 51 1
187 85 1
187 321 1
187 355 1
187 389 1
187 423 1
187 457 1
187 491 1
188 18 1
188 35 1
188 86 1
188 339 1
188 356 1
188 407 1
188 441 1
188 458 1
188 509 1
189 19 1
189 36 1
189 87 1
189 340 1
189 357 1
189 408 1
189 442 1
189 459 1
189 510 1
190 20 1
190 37 1
190 88 1
190 324 1
190 341 1
190 392 1
190 426 1
190 443 1
190 494 1
191 21 1
191 38 1
191 89 1
191 325 1
191 342 1
191 393 1
191 427 1
191 444 1
191 495 1
192 22 1
192 39 1
192 90 1
192 326 1
192 343 1
192 394 1
192 428 1
192 445 1
192 496 1
193 23 1
193 40 1
193 91 1
193 327 1
193 344 1
193 395 1
193 429 1
193 446 1
193 497 1
194 24 1
194 41 1
194 92 1
194 328 1
194 345 1
194 396 1
194 430 1
194 447 1
194 498 1
195 25 1
195 42 1
195 93 1
195 329 1
195 346 1
195 397 1
195 431 1
195 448 1
195 499 1
196 26 1
196 43 1
196 94 1
196 330 1
196 347 1
196 398 1
196 432 1
196 449 1
196 500 1
197 27 1
197 44 1
197 95 1
197 331 1
197 348 1
197 399 1
197 433 1
197 450 1
197 501 1
198 28 1
198 45 1
198 96 1
198 332 1
198 349 1
198 400 1
198 434 1
198 451 1
198 502 1
199 29 1
199 46 1
199 97 1
199 333 1
199 350 1
199 401 1
199 435 1
199 452 1
199 503 1
200 30 1
200 47 1
200 98 1
200 334 1
200 351 1
200 402 1
200 436 1
200 453 1
200 504 1
201 31 1
201 48 1
201 99 1
201 335 1
201 352 1
201 403 1
201 437 1
201 454 1
201 505 1
202 32 1
202 49 1
202 100 1
202 336 1
202 353 1
202 404 1
202 438 1
202 455 1
202 506 1
203 33 1
203 50 1
203 101 1
203 337 1
203 354 1
203 405 1
203 439 1
203 456 1
203 507 1
204 34 1
204 51 1
204 102 1
204 338 1
204 355 1
204 406 1
204 440 1
204 457 1
204 508 1
205 118 1
205 135 1
205 169 1
205 322 1
205 339 1
205 373 1
205 526 1
205 543 1
205 577 1
206 119 1
206 136 1
206 170 1
206 323 1
206 340 1
206 374 1
206 527 1
206 544 1
206 578 1
207 103 1
207 120 1
207 154 1
207 307 1
207 324 1
207 358 1
207 511 1
207 528 1
207 562 1
208 104 1
208 121 1
208 155 1
208 308 1
208 325 1
208 359 1
208 512 1
208 529 1
208 563 1
209 105 1
209 122 1
209 156 1
209 309 1
209 326 1
209 360 1
209 513 1
209 530 1
209 564 1
210 106 1
210 123 1
210 157 1
210 310 1
210 327 1
210 361 1
210 514 1
210 531 1
210 565 1
211 107 1
211 124 1
211 158 1
211 311 1
211 328 1
211 362 1
211 515 1
211 532 1
211 566 1
212 108 1
212 125 1
212 159 1
212 312 1
212 329 1
212 363 1
212 516 1
212 533 1
212 567 1
213 109 1
213 126 1
213 160 1
213 313 1
213 330 1
213 364 1
213 517 1
213 534 1
213 568 1
214 110 1
214 127 1
214 161 1
214 314 1
214 331 1
214 365 1
214 518 1
214 535 1
214 569 1
215 111 1
215 128 1
215 162 1
215 315 1
215 332 1
215 366 1
215 519 1
215 536 1
215 570 1
216 112 1
216 129 1
216 163 1
216 316 1
216 333 1
216 367 1
216 520 1
216 537 1
216 571 1
217 113 1
217 130 1
217 164 1
217 317 1
217 334 1
217 368 1
217 521 1
217 538 1
217 572 1
218 114 1
218 131 1
218 165 1
218 318 1
218 335 1
218 369 1
218 522 1
218 539 1
218 573 1
219 115 1
219 132 1
219 166 1
219 319 1
219 336 1
219 370 1
219 523 1
219 540 1
219 574 1
220 116 1
220 133 1
220 167 1
220 320 1
220 337 1
220 371 1
220 524 1
220 541 1
220 575 1
221 117 1
221 134 1
221 168 1
221 321 1
221 338 1
221 372 1
221 525 1
221 542 1
221 576 1
222 118 1
222 152 1
222 186 1
222 322 1
222 356 1
222 390 1
222 526 1
222 560 1
222 594 1
223 119 1
223 153 1
223 187 1
223 323 1
223 357 1
223 391 1
223 527 1
223 561 1
223 595 1
224 103 1
224 137 1
224 171 1
224 307 1
224 341 1
224 375 1
224 511 1
224 545 1
224 579 1
225 104 1
225 138 1
225 172 1
225 308 1
225 342 1
225 376 1
225 512 1
225 546 1
225 580 1
226 105 1
226 139 1
226 173 1
226 309 1
226 343 1
226 377 1
226 513 1
226 547 1
226 581 1
227 106 1
227 140 1
227 174 1
227 310 1
227 344 1
227 378 1
227 514 1
227 548 1
227 582 1
228 107 1
228 141 1
228 175 1
228 311 1
228 345 1
228 379 1
228 515 1
228 549 1
228 583 1
229 108 1
229 142 1
229 176 1
229 312 1
229 346 1
229 380 1
229 516 1
229 550 1
229 584 1
230 109 1
230 143 1
230 177 1
230 313 1
230 347 1
230 381 1
230 517 1
230 551 1
230 585 1
231 110 1
231 144 1
231 178 1
231 314 1
231 348 1
231 382 1
231 518 1
231 552 1
231 586 1
232 111 1
232 145 1
232 179 1
232 315 1
232 349 1
232 383 1
232 519 1
232 553 1
232 587 1
233 112 1
233 146 1
233 180 1
233 316 1
233 350 1
233 384 1
233 520 1
233 554 1
233 588 1
234 113 1
234 147 1
234 181 1
234 317 1
234 351 1
234 385 1
234 521 1
234 555 1
234 589 1
235 114 1
235 148 1
235 182 1
235 318 1
235 352 1
235 386 1
235 522 1
235 556 1
235 590 1
236 115 1
236 149 1
236 183 1
236 319 1
236 353 1
236 387 1
236 523 1
236 557 1
236 591 1
237 116 1
237 150 1
237 184 1
237 320 1
237 354 1
237 388 1
237 524 1
237 558 1
237 592 1
238 117 1
238 151 1
238 185 1
238 321 1
238 355 1
238 389 1
238 525 1
238 559 1
238 593 1
239 135 1
239 152 1
239 203 1
239 339 1
239 356 1
239 407 1
239 543 1
239 560 1
239 611 1
240 136 1
240 153 1
240 204 1
240 340 1
240 357 1
240 408 1
240 544 1
240 561 1
240 612 1
241 120 1
241 137 1
241 188 1
241 324 1
241 341 1
241 392 1
241 528 1
241 545 1
241 596 1
242 121 1
242 138 1
242 189 1
242 325 1
242 342 1
242 393 1
242 529 1
242 546 1
242 597 1
243 122 1
243 139 1
243 190 1
243 326 1
243 343 1
243 394 1
243 530 1
243 547 1
243 598 1
244 123 1
244 140 1
244 191 1
244 327 1
244 344 1
244 395 1
244 531 1
244 548 1
244 599 1
245 124 1
245 141 1
245 192 1
245 328 1
245 345 1
245 396 1
245 532 1
245 549 1
245 600 1
246 125 1
246 142 1
246 193 1
246 329 1
246 346 1
246 397 1
246 533 1
246 550 1
246 601 1
247 126 1
247 143 1
247 194 1
247 330 1
247 347 1
247 398 1
247 534 1
247 551 1
247 602 1
248 127 1
248 144 1
248 195 1
248 331 1
248 348 1
248 399 1
248 535 1
248 552 1
248 603 1
249 128 1
249 145 1
249 196 1
249 332 1
249 349 1
249 400 1
249 536 1
249 553 1
249 604 1
250 129 1
250 146 1
250 197 1
250 333 1
250 350 1
250 401 1
250 537 1
250 554 1
250 605 1
251 130 1
251 147 1
251 198 1
251 334 1
251 351 1
251 402 1
251 538 1
251 555 1
251 606 1
252 131 1
252 148 1
252 199 1
252 335 1
252 352 1
252 403 1
252 539 1
252 556 1
252 607 1
253 132 1
253 149 1
253 200 1
253 336 1
253 353 1
253 404 1
253 540 1
253 557 1
253 608 1
254 133 1
254 150 1
254 201 1
254 337 1
254 354 1
254 405 1
254 541 1
254 558 1
254 609 1
255 134 1
255 151 1
255 202 1
255 338 1
255 355 1
255 406 1
255 542 1
255 559 1
255 610 1
256 220 1
256 237 1
256 271 1
256 424 1
256 441 1
256 475 1
256 526 1
256 543 1
256 577 1
257 221 1
257 238 1
257 272 1
257 425 1
257 442 1
257 476 1
257 527 1
257 544 1
257 578 1
258 205 1
258 222 1
258 256 1
258 409 1
258 426 1
258 460 1
258 511 1
258 528 1
258 562 1
259 206 1
259 223 1
259 257 1
259 410 1
259 427 1
259 461 1
259 512 1
259 529 1
259 563 1
260 207 1
260 224 1
260 258 1
260 411 1
260 428 1
260 462 1
260 513 1
260 530 1
260 564 1
261 208 1
261 225 1
261 259 1
261 412 1
261 429 1
261 463 1
261 514 1
261 531 1
261 565 1
262 209 1
262 226 1
262 260 1
262 413 1
262 430 1
262 464 1
262 515 1
262 532 1
262 566 1
263 210 1
263 227 1
263 261 1
263 414 1
263 431 1
263 465 1
263 516 1
263 533 1
263 567 1
264 211 1
264 228 1
264 262 1
264 415 1
264 432 1
264 466 1
264 517 1
264 534 1
264 568 1
265 212 1
265 229 1
265 263 1
265 416 1
265 433 1
265 467 1
265 518 1
265 535 1
265 569 1
266 213 1
266 230 1
266 264 1
266 417 1
266 434 1
266 468 1
266 519 1
266 536 1
266 570 1
267 214 1
267 231 1
267 265 1
267 418 1
267 435 1
267 469 1
267 520 1
267 537 1
267 571 1
268 215 1
268 232 1
268 266 1
268 419 1
268 436 1
268 470 1
268 521 1
268 538 1
268 572 1
269 216 1
269 233 1
269 267 1
269 420 1
269 437 1
269 471 1
269 522 1
269 539 1
269 573 1
270 217 1
270 234 1
270 268 1
270 421 1
270 438 1
270 472 1
270 523 1
270 540 1
270 574 1
271 218 1
271 235 1
271 269 1
271 422 1
271 439 1
271 473 1
271 524 1
271 541 1
271 575 1
272 219 1
272 236 1
272 270 1
272 423 1
272 440 1
272 474 1
272 525 1
272 542 1
272 576 1
273 220 1
273 254 1
273 288 1
273 424 1
273 458 1
273 492 1
273 526 1
273 560 1
273 594 1
274 221 1
274 255 1
274 289 1
274 425 1
274 459 1
274 493 1
274 527 1
274 561 1
274 595 1
275 205 1
275 239 1
275 273 1
275 409 1
275 443 1
275 477 1
275 511 1
275 545 1
275 579 1
276 206 1
276 240 1
276 274 1
276 410 1
276 444 1
276 478 1
276 512 1
276 546 1
276 580 1
277 207 1
277 241 1
277 275 1
277 411 1
277 445 1
277 479 1
277 513 1
277 547 1
277 581 1
278 208 1
278 242 1
278 276 1
278 412 1
278 446 1
278 480 1
278 514 1
278 548 1
278 582 1
279 209 1
279 243 1
279 277 1
279 413 1
279 447 1
279 481 1
279 515 1
279 549 1
279 583 1
280 210 1
280 244 1
280 278 1
280 414 1
280 448 1
280 482 1
280 516 1
280 550 1
280 584 1
281 211 1
281 245 1
281 279 1
281 415 1
281 449 1
281 483 1
281 517 1
281 551 1
281 585 1
282 212 1
282 246 1
282 280 1
282 416 1
282 450 1
282 484 1
282 518 1
282 552 1
282 586 1
283 213 1
283 247 1
283 281 1
283 417 1
283 451 1
283 485 1
283 519 1
283 553 1
283 587 1
284 214 1
284 248 1
284 282 1
284 418 1
284 452 1
284 486 1
284 520 1
284 554 1
284 588 1
285 215 1
285 249 1
285 283 1
285 419 1
285 453 1
285 487 1
285 521 1
285 555 1
285 589 1
286 216 1
286 250 1
286 284 1
286 420 1
286 454 1
286 488 1
286 522 1
286 556 1
286 590 1
287 217 1
287 251 1
287 285 1
287 421 1
287 455 1
287 489 1
287 523 1
287 557 1
287 591 1
288 218 1
288 252 1
288 286 1
288 422 1
288 456 1
288 490 1
288 524 1
288 558 1
288 592 1
289 219 1
289 253 1
289 287 1
289 423 1
289 457 1
289 491 1
289 525 1
289 559 1
289 593 1
290 237 1
290 254 1
290 305 1
290 441 1
290 458 1
290 509 1
290 543 1
290 560 1
290 611 1
291 238 1
291 255 1
291 306 1
291 442 1
291 459 1
291 510 1
291 544 1
291 561 1
291 612 1
292 222 1
292 239 1
292 290 1
292 426 1
292 443 1
292 494 1
292 528 1
292 545 1
292 596 1
293 223 1
293 240 1
293 291 1
293 427 1
293 444 1
293 495 1
293 529 1
293 546 1
293 597 1
294 224 1
294 241 1
294 292 1
294 428 1
294 445 1
294 496 1
294 530 1
294 547 1
294 598 1
295 225 1
295 242 1
295 293 1
295 429 1
295 446 1
295 497 1
295 531 1
295 548 1
295 599 1
296 226 1
296 243 1
296 294 1
296 430 1
296 447 1
296 498 1
296 532 1
296 549 1
296 600 1
297 227 1
297 244 1
297 295 1
297 431 1
297 448 1
297 499 1
297 533 1
297 550 1
297 601 1
298 228 1
298 245 1
298 296 1
298 432 1
298 449 1
298 500 1
298 534 1
298 551 1
298 602 1
299 229 1
299 246 1
299 297 1
299 433 1
299 450 1
299 501 1
299 535 1
299 552 1
299 603 1
300 230 1
300 247 1
300 298 1
300 434 1
300 451 1
300 502 1
300 536 1
300 553 1
300 604 1
301 231 1
301 248 1
301 299 1
301 435 1
301 452 1
301 503 1
301 537 1
301 554 1
301 605 1
302 232 1
302 249 1
302 300 1
302 436 1
302 453 1
302 504 1
302 538 1
302 555 1
302 606 1
303 233 1
303 250 1
303 301 1
303 437 1
303 454 1
303 505 1
303 539 1
303 556 1
303 607 1
304 234 1
304 251 1
304 302 1
304 438 1
304 455 1
304 506 1
304 540 1
304 557 1
304 608 1
305 235 1
305 252 1
305 303 1
305 439 1
305 456 1
305 507 1
305 541 1
305 558 1
305 609 1
306 236 1
306 253 1
306 304 1
306 440 1
306 457 1
306 508 1
306 542 1
306 559 1
306 610 1
