%%MatrixMarket matrix coordinate integer general
216 432 1944
1 1 1
1 18 1
1 65 1
1 217 1
1 234 1
1 281 1
1 289 1
1 306 1
1 353 1
2 2 1
2 13 1
2 68 1
2 218 1
2 229 1
2 284 1
2 290 1
2 301 1
2 356 1
3 3 1
3 22 1
3 69 1
3 219 1
3 238 1
3 285 1
3 291 1
3 310 1
3 357 1
4 4 1
4 14 1
4 70 1
4 220 1
4 230 1
4 286 1
4 292 1
4 302 1
4 358 1
5 5 1
5 15 1
5 71 1
5 221 1
5 231 1
5 287 1
5 293 1
5 303 1
5 359 1
6 6 1
6 16 1
6 63 1
6 222 1
6 232 1
6 279 1
6 294 1
6 304 1
6 351 1
7 7 1
7 24 1
7 62 1
7 223 1
7 240 1
7 278 1
7 295 1
7 312 1
7 350 1
8 8 1
8 17 1
8 72 1
8 224 1
8 233 1
8 288 1
8 296 1
8 305 1
8 360 1
9 9 1
9 19 1
9 64 1
9 225 1
9 235 1
9 280 1
9 297 1
9 307 1
9 352 1
10 10 1
10 20 1
10 67 1
10 226 1
10 236 1
10 283 1
10 298 1
10 308 1
10 355 1
11 11 1
11 21 1
11 66 1
11 227 1
11 237 1
11 282 1
11 299 1
11 309 1
11 354 1
12 12 1
12 23 1
12 61 1
12 228 1
12 239 1
12 277 1
12 300 1
12 311 1
12 349 1
13 1 1
13 48 1
13 50 1
13 217 1
13 264 1
13 266 1
13 289 1
13 336 1
13 338 1
14 2 1
14 43 1
14 52 1
14 218 1
14 259 1
14 268 1
14 290 1
14 331 1
14 340 1
15 3 1
15 42 1
15 53 1
15 219 1
15 258 1
15 269 1
15 291 1
15 330 1
15 341 1
16 4 1
16 45 1
16 54 1
16 220 1
16 261 1
16 270 1
16 292 1
16 333 1
16 342 1
17 5 1
17 37 1
17 56 1
17 221 1
17 253 1
17 272 1
17 293 1
17 325 1
17 344 1
18 6 1
18 47 1
18 49 1
18 222 1
18 263 1
18 265 1
18 294 1
18 335 1
18 337 1
19 7 1
19 46 1
19 57 1
19 223 1
19 262 1
19 273 1
19 295 1
19 334 1
19 345 1
20 8 1
20 38 1
20 58 1
20 224 1
20 254 1
20 274 1
20 296 1
20 326 1
20 346 1
21 9 1
21 39 1
21 59 1
21 225 1
21 255 1
21 275 1
21 297 1
21 327 1
21 347 1
22 10 1
22 40 1
22 51 1
22 226 1
22 256 1
22 267 1
22 298 1
22 328 1
22 339 1
23 11 1
23 41 1
23 60 1
23 227 1
23 257 1
23 276 1
23 299 1
23 329 1
23 348 1
24 12 1
24 44 1
24 55 1
24 228 1
24 260 1
24 271 1
24 300 1
24 332 1
24 343 1
25 18 1
25 28 1
25 48 1
25 234 1
25 244 1
25 264 1
25 306 1
25 316 1
25 336 1
26 13 1
26 30 1
26 43 1
26 229 1
26 246 1
26 259 1
26 301 1
26 318 1
26 331 1
27 22 1
27 32 1
27 42 1
27 238 1
27 248 1
27 258 1
27 310 1
27 320 1
27 330 1
28 14 1
28 25 1
28 45 1
28 230 1
28 241 1
28 261 1
28 302 1
28 313 1
28 333 1
29 15 1
29 34 1
29 37 1
29 231 1
29 250 1
29 253 1
29 303 1
29 322 1
29 325 1
30 16 1
30 26 1
30 47 1
30 232 1
30 242 1
30 263 1
30 304 1
30 314 1
30 335 1
31 24 1
31 35 1
31 46 1
31 240 1
31 251 1
31 262 1
31 312 1
31 323 1
31 334 1
32 17 1
32 27 1
32 38 1
32 233 1
32 243 1
32 254 1
32 305 1
32 315 1
32 326 1
33 19 1
33 36 1
33 39 1
33 235 1
33 252 1
33 255 1
33 307 1
33 324 1
33 327 1
34 20 1
34 29 1
34 40 1
34 236 1
34 245 1
34 256 1
34 308 1
34 317 1
34 328 1
35 21 1
35 31 1
35 41 1
35 237 1
35 247 1
35 257 1
35 309 1
35 319 1
35 329 1
36 23 1
36 33 1
36 44 1
36 239 1
36 249 1
36 260 1
36 311 1
36 321 1
36 332 1
37 73 1
37 90 1
37 137 1
37 217 1
37 234 1
37 281 1
37 361 1
37 378 1
37 425 1
38 74 1
38 85 1
38 140 1
38 218 1
38 229 1
38 284 1
38 362 1
38 373 1
38 428 1
39 75 1
39 94 1
39 141 1
39 219 1
39 238 1
39 285 1
39 363 1
39 382 1
39 429 1
40 76 1
40 86 1
40 142 1
40 220 1
40 230 1
40 286 1
40 364 1
40 374 1
40 430 1
41 77 1
41 87 1
41 143 1
41 221 1
41 231 1
41 287 1
41 365 1
41 375 1
41 431 1
42 78 1
42 88 1
42 135 1
42 222 1
42 232 1
42 279 1
42 366 1
42 376 1
42 423 1
43 79 1
43 96 1
43 134 1
43 223 1
43 240 1
43 278 1
43 367 1
43 384 1
43 422 1
44 80 1
44 89 1
44 144 1
44 224 1
44 233 1
44 288 1
44 368 1
44 377 1
44 432 1
45 81 1
45 91 1
45 136 1
45 225 1
45 235 1
45 280 1
45 369 1
45 379 1
45 424 1
46 82 1
46 92 1
46 139 1
46 226 1
46 236 1
46 283 1
46 370 1
46 380 1
46 427 1
47 83 1
47 93 1
47 138 1
47 227 1
47 237 1
47 282 1
47 371 1
47 381 1
47 426 1
48 84 1
48 95 1
48 133 1
48 228 1
48 239 1
48 277 1
48 372 1
48 383 1
48 421 1
49 73 1
49 120 1
49 122 1
49 217 1
49 264 1
49 266 1
49 361 1
49 408 1
49 410 1
50 74 1
50 115 1
50 124 1
50 218 1
50 259 1
50 268 1
50 362 1
50 403 1
50 412 1
51 75 1
51 114 1
51 125 1
51 219 1
51 258 1
51 269 1
51 363 1
51 402 1
51 413 1
52 76 1
52 117 1
52 126 1
52 220 1
52 261 1
52 270 1
52 364 1
52 405 1
52 414 1
53 77 1
53 109 1
53 128 1
53 221 1
53 253 1
53 272 1
53 365 1
53 397 1
53 416 1
54 78 1
54 119 1
54 121 1
54 222 1
54 263 1
54 265 1
54 366 1
54 407 1
54 409 1
55 79 1
55 118 1
55 129 1
55 223 1
55 262 1
55 273 1
55 367 1
55 406 1
55 417 1
56 80 1
56 110 1
56 130 1
56 224 1
56 254 1
56 274 1
56 368 1
56 398 1
56 418 1
57 81 1
57 111 1
57 131 1
57 225 1
57 255 1
57 275 1
57 369 1
57 399 1
57 419 1
58 82 1
58 112 1
58 123 1
58 226 1
58 256 1
58 267 1
58 370 1
58 400 1
58 411 1
59 83 1
59 113 1
59 132 1
59 227 1
59 257 1
59 276 1
59 371 1
59 401 1
59 420 1
60 84 1
60 116 1
60 127 1
60 228 1
60 260 1
60 271 1
60 372 1
60 404 1
60 415 1
61 90 1
61 100 1
61 120 1
61 234 1
61 244 1
61 264 1
61 378 1
61 388 1
61 408 1
62 85 1
62 102 1
62 115 1
62 229 1
62 246 1
62 259 1
62 373 1
62 390 1
62 403 1
63 94 1
63 104 1
63 114 1
63 238 1
63 248 1
63 258 1
63 382 1
63 392 1
63 402 1
64 86 1
64 97 1
64 117 1
64 230 1
64 241 1
64 261 1
64 374 1
64 385 1
64 405 1
65 87 1
65 106 1
65 109 1
65 231 1
65 250 1
65 253 1
65 375 1
65 394 1
65 397 1
66 88 1
66 98 1
66 119 1
66 232 1
66 242 1
66 263 1
66 376 1
66 386 1
66 407 1
67 96 1
67 107 1
67 118 1
67 240 1
67 251 1
67 262 1
67 384 1
67 395 1
67 406 1
68 89 1
68 99 1
68 110 1
68 233 1
68 243 1
68 254 1
68 377 1
68 387 1
68 398 1
69 91 1
69 108 1
69 111 1
69 235 1
69 252 1
69 255 1
69 379 1
69 396 1
69 399 1
70 92 1
70 101 1
70 112 1
70 236 1
70 245 1
70 256 1
70 380 1
70 389 1
70 400 1
71 93 1
71 103 1
71 113 1
71 237 1
71 247 1
71 257 1
71 381 1
71 391 1
71 401 1
72 95 1
72 105 1
72 116 1
72 239 1
72 249 1
72 260 1
72 383 1
72 393 1
72 404 1
73 145 1
73 162 1
73 209 1
73 289 1
73 306 1
73 353 1
73 361 1
73 378 1
73 425 1
74 146 1
74 157 1
74 212 1
74 290 1
74 301 1
74 356 1
74 362 1
74 373 1
74 428 1
75 147 1
75 166 1
75 213 1
75 291 1
75 310 1
75 357 1
75 363 1
75 382 1
75 429 1
76 148 1
76 158 1
76 214 1
76 292 1
76 302 1
76 358 1
76 364 1
76 374 1
76 430 1
77 149 1
77 159 1
77 215 1
77 293 1
77 303 1
77 359 1
77 365 1
77 375 1
77 431 1
78 150 1
78 160 1
78 207 1
78 294 1
78 304 1
78 351 1
78 366 1
78 376 1
78 423 1
79 151 1
79 168 1
79 206 1
79 295 1
79 312 1
79 350 1
79 367 1
79 384 1
79 422 1
80 152 1
80 161 1
80 216 1
80 296 1
80 305 1
80 360 1
80 368 1
80 377 1
80 432 1
81 153 1
81 163 1
81 208 1
81 297 1
81 307 1
81 352 1
81 369 1
81 379 1
81 424 1
82 154 1
82 164 1
82 211 1
82 298 1
82 308 1
82 355 1
82 370 1
82 380 1
82 427 1
83 155 1
83 165 1
83 210 1
83 299 1
83 309 1
83 354 1
83 371 1
83 381 1
83 426 1
84 156 1
84 167 1
84 205 1
84 300 1
84 311 1
84 349 1
84 372 1
84 383 1
84 421 1
85 145 1
85 192 1
85 194 1
85 289 1
85 336 1
85 338 1
85 361 1
85 408 1
85 410 1
86 146 1
86 187 1
86 196 1
86 290 1
86 331 1
86 340 1
86 362 1
86 403 1
86 412 1
87 147 1
87 186 1
87 197 1
87 291 1
87 330 1
87 341 1
87 363 1
87 402 1
87 413 1
88 148 1
88 189 1
88 198 1
88 292 1
88 333 1
88 342 1
88 364 1
88 405 1
88 414 1
89 149 1
89 181 1
89 200 1
89 293 1
89 325 1
89 344 1
89 365 1
89 397 1
89 416 1
90 150 1
90 191 1
90 193 1
90 294 1
90 335 1
90 337 1
90 366 1
90 407 1
90 409 1
91 151 1
91 190 1
91 201 1
91 295 1
91 334 1
91 345 1
91 367 1
91 406 1
91 417 1
92 152 1
92 182 1
92 202 1
92 296 1
92 326 1
92 346 1
92 368 1
92 398 1
92 418 1
93 153 1
93 183 1
93 203 1
93 297 1
93 327 1
93 347 1
93 369 1
93 399 1
93 419 1
94 154 1
94 184 1
94 195 1
94 298 1
94 328 1
94 339 1
94 370 1
94 400 1
94 411 1
95 155 1
95 185 1
95 204 1
95 299 1
95 329 1
95 348 1
95 371 1
95 401 1
95 420 1
96 156 1
96 188 1
96 199 1
96 300 1
96 332 1
96 343 1
96 372 1
96 404 1
96 415 1
97 162 1
97 172 1
97 192 1
97 306 1
97 316 1
97 336 1
97 378 1
97 388 1
97 408 1
98 157 1
98 174 1
98 187 1
98 301 1
98 318 1
98 331 1
98 373 1
98 390 1
98 403 1
99 166 1
99 176 1
99 186 1
99 310 1
99 320 1
99 330 1
99 382 1
99 392 1
99 402 1
100 158 1
100 169 1
100 189 1
100 302 1
100 313 1
100 333 1
100 374 1
100 385 1
100 405 1
101 159 1
101 178 1
101 181 1
101 303 1
101 322 1
101 325 1
101 375 1
101 394 1
101 397 1
102 160 1
102 170 1
102 191 1
102 304 1
102 314 1
102 335 1
102 376 1
102 386 1
102 407 1
103 168 1
103 179 1
103 190 1
103 312 1
103 323 1
103 334 1
103 384 1
103 395 1
103 406 1
104 161 1
104 171 1
104 182 1
104 305 1
104 315 1
104 326 1
104 377 1
104 387 1
104 398 1
105 163 1
105 180 1
105 183 1
105 307 1
105 324 1
105 327 1
105 379 1
105 396 1
105 399 1
106 164 1
106 173 1
106 184 1
106 308 1
106 317 1
106 328 1
106 380 1
106 389 1
106 400 1
107 165 1
107 175 1
107 185 1
107 309 1
107 319 1
107 329 1
107 381 1
107 391 1
107 401 1
108 167 1
108 177 1
108 188 1
108 311 1
108 321 1
108 332 1
108 383 1
108 393 1
108 404 1
109 1 1
109 13 1
109 37 1
109 149 1
109 161 1
109 185 1
109 296 1
109 308 1
109 332 1
110 2 1
110 14 1
110 38 1
110 152 1
110 164 1
110 188 1
110 298 1
110 310 1
110 334 1
111 3 1
111 15 1
111 39 1
111 153 1
111 165 1
111 189 1
111 299 1
111 311 1
111 335 1
112 4 1
112 16 1
112 40 1
112 154 1
112 166 1
112 190 1
112 291 1
112 303 1
112 327 1
113 5 1
113 17 1
113 41 1
113 155 1
113 167 1
113 191 1
113 300 1
113 312 1
113 336 1
114 6 1
114 18 1
114 42 1
114 147 1
114 159 1
114 183 1
114 293 1
114 305 1
114 329 1
115 7 1
115 19 1
115 43 1
115 146 1
115 158 1
115 182 1
115 292 1
115 304 1
115 328 1
116 8 1
116 20 1
116 44 1
116 156 1
116 168 1
116 192 1
116 295 1
116 307 1
116 331 1
117 9 1
117 21 1
117 45 1
117 148 1
117 160 1
117 184 1
117 294 1
117 306 1
117 330 1
118 10 1
118 22 1
118 46 1
118 151 1
118 163 1
118 187 1
118 297 1
118 309 1
118 333 1
119 11 1
119 23 1
119 47 1
119 150 1
119 162 1
119 186 1
119 289 1
119 301 1
119 325 1
120 12 1
120 24 1
120 48 1
120 145 1
120 157 1
120 181 1
120 290 1
120 302 1
120 326 1
121 1 1
121 25 1
121 49 1
121 149 1
121 173 1
121 197 1
121 296 1
121 320 1
121 344 1
122 2 1
122 26 1
122 50 1
122 152 1
122 176 1
122 200 1
122 298 1
122 322 1
122 346 1
123 3 1
123 27 1
123 51 1
123 153 1
123 177 1
123 201 1
123 299 1
123 323 1
123 347 1
124 4 1
124 28 1
124 52 1
124 154 1
124 178 1
124 202 1
124 291 1
124 315 1
124 339 1
125 5 1
125 29 1
125 53 1
125 155 1
125 179 1
125 203 1
125 300 1
125 324 1
125 348 1
126 6 1
126 30 1
126 54 1
126 147 1
126 171 1
126 195 1
126 293 1
126 317 1
126 341 1
127 7 1
127 31 1
127 55 1
127 146 1
127 170 1
127 194 1
127 292 1
127 316 1
127 340 1
128 8 1
128 32 1
128 56 1
128 156 1
128 180 1
128 204 1
128 295 1
128 319 1
128 343 1
129 9 1
129 33 1
129 57 1
129 148 1
129 172 1
129 196 1
129 294 1
129 318 1
129 342 1
130 10 1
130 34 1
130 58 1
130 151 1
130 175 1
130 199 1
130 297 1
130 321 1
130 345 1
131 11 1
131 35 1
131 59 1
131 150 1
131 174 1
131 198 1
131 289 1
131 313 1
131 337 1
132 12 1
132 36 1
132 60 1
132 145 1
132 169 1
132 193 1
132 290 1
132 314 1
132 338 1
133 13 1
133 25 1
133 61 1
133 161 1
133 173 1
133 209 1
133 308 1
133 320 1
133 356 1
134 14 1
134 26 1
134 62 1
134 164 1
134 176 1
134 212 1
134 310 1
134 322 1
134 358 1
135 15 1
135 27 1
135 63 1
135 165 1
135 177 1
135 213 1
135 311 1
135 323 1
135 359 1
136 16 1
136 28 1
136 64 1
136 166 1
136 178 1
136 214 1
136 303 1
136 315 1
136 351 1
137 17 1
137 29 1
137 65 1
137 167 1
137 179 1
137 215 1
137 312 1
137 324 1
137 360 1
138 18 1
138 30 1
138 66 1
138 159 1
138 171 1
138 207 1
138 305 1
138 317 1
138 353 1
139 19 1
139 31 1
139 67 1
139 158 1
139 170 1
139 206 1
139 304 1
139 316 1
139 352 1
140 20 1
140 32 1
140 68 1
140 168 1
140 180 1
140 216 1
140 307 1
140 319 1
140 355 1
141 21 1
141 33 1
141 69 1
141 160 1
141 172 1
141 208 1
141 306 1
141 318 1
141 354 1
142 22 1
142 34 1
142 70 1
142 163 1
142 175 1
142 211 1
142 309 1
142 321 1
142 357 1
143 23 1
143 35 1
143 71 1
143 162 1
143 174 1
143 210 1
143 301 1
143 313 1
143 349 1
144 24 1
144 36 1
144 72 1
144 157 1
144 169 1
144 205 1
144 302 1
144 314 1
144 350 1
145 76 1
145 88 1
145 112 1
145 149 1
145 161 1
145 185 1
145 372 1
145 384 1
145 408 1
146 78 1
146 90 1
146 114 1
146 152 1
146 164 1
146 188 1
146 367 1
146 379 1
146 403 1
147 80 1
147 92 1
147 116 1
147 153 1
147 165 1
147 189 1
147 366 1
147 378 1
147 402 1
148 73 1
148 85 1
148 109 1
148 154 1
148 166 1
148 190 1
148 369 1
148 381 1
148 405 1
149 82 1
149 94 1
149 118 1
149 155 1
149 167 1
149 191 1
149 361 1
149 373 1
149 397 1
150 74 1
150 86 1
150 110 1
150 147 1
150 159 1
150 183 1
150 371 1
150 383 1
150 407 1
151 83 1
151 95 1
151 119 1
151 146 1
151 158 1
151 182 1
151 370 1
151 382 1
151 406 1
152 75 1
152 87 1
152 111 1
152 156 1
152 168 1
152 192 1
152 362 1
152 374 1
152 398 1
153 84 1
153 96 1
153 120 1
153 148 1
153 160 1
153 184 1
153 363 1
153 375 1
153 399 1
154 77 1
154 89 1
154 113 1
154 151 1
154 163 1
154 187 1
154 364 1
154 376 1
154 400 1
155 79 1
155 91 1
155 115 1
155 150 1
155 162 1
155 186 1
155 365 1
155 377 1
155 401 1
156 81 1
156 93 1
156 117 1
156 145 1
156 157 1
156 181 1
156 368 1
156 380 1
156 404 1
157 76 1
157 100 1
157 124 1
157 149 1
157 173 1
157 197 1
157 372 1
157 396 1
157 420 1
158 78 1
158 102 1
158 126 1
158 152 1
158 176 1
158 200 1
158 367 1
158 391 1
158 415 1
159 80 1
159 104 1
159 128 1
159 153 1
159 177 1
159 201 1
159 366 1
159 390 1
159 414 1
160 73 1
160 97 1
160 121 1
160 154 1
160 178 1
160 202 1
160 369 1
160 393 1
160 417 1
161 82 1
161 106 1
161 130 1
161 155 1
161 179 1
161 203 1
161 361 1
161 385 1
161 409 1
162 74 1
162 98 1
162 122 1
162 147 1
162 171 1
162 195 1
162 371 1
162 395 1
162 419 1
163 83 1
163 107 1
163 131 1
163 146 1
163 170 1
163 194 1
163 370 1
163 394 1
163 418 1
164 75 1
164 99 1
164 123 1
164 156 1
164 180 1
164 204 1
164 362 1
164 386 1
164 410 1
165 84 1
165 108 1
165 132 1
165 148 1
165 172 1
165 196 1
165 363 1
165 387 1
165 411 1
166 77 1
166 101 1
166 125 1
166 151 1
166 175 1
166 199 1
166 364 1
166 388 1
166 412 1
167 79 1
167 103 1
167 127 1
167 150 1
167 174 1
167 198 1
167 365 1
167 389 1
167 413 1
168 81 1
168 105 1
168 129 1
168 145 1
168 169 1
168 193 1
168 368 1
168 392 1
168 416 1
169 88 1
169 100 1
169 136 1
169 161 1
169 173 1
169 209 1
169 384 1
169 396 1
169 432 1
170 90 1
170 102 1
170 138 1
170 164 1
170 176 1
170 212 1
170 379 1
170 391 1
170 427 1
171 92 1
171 104 1
171 140 1
171 165 1
171 177 1
171 213 1
171 378 1
171 390 1
171 426 1
172 85 1
172 97 1
172 133 1
172 166 1
172 178 1
172 214 1
172 381 1
172 393 1
172 429 1
173 94 1
173 106 1
173 142 1
173 167 1
173 179 1
173 215 1
173 373 1
173 385 1
173 421 1
174 86 1
174 98 1
174 134 1
174 159 1
174 171 1
174 207 1
174 383 1
174 395 1
174 431 1
175 95 1
175 107 1
175 143 1
175 158 1
175 170 1
175 206 1
175 382 1
175 394 1
175 430 1
176 87 1
176 99 1
176 135 1
176 168 1
176 180 1
176 216 1
176 374 1
176 386 1
176 422 1
177 96 1
177 108 1
177 144 1
177 160 1
177 172 1
177 208 1
177 375 1
177 387 1
177 423 1
178 89 1
178 101 1
178 137 1
178 163 1
178 175 1
178 211 1
178 376 1
178 388 1
178 424 1
179 91 1
179 103 1
179 139 1
179 162 1
179 174 1
179 210 1
179 377 1
179 389 1
179 425 1
180 93 1
180 105 1
180 141 1
180 157 1
180 169 1
180 205 1
180 380 1
180 392 1
180 428 1
181 221 1
181 233 1
181 257 1
181 296 1
181 308 1
181 332 1
181 372 1
181 384 1
181 408 1
182 224 1
182 236 1
182 260 1
182 298 1
182 310 1
182 334 1
182 367 1
182 379 1
182 403 1
183 225 1
183 237 1
183 261 1
183 299 1
183 311 1
183 335 1
183 366 1
183 378 1
183 402 1
184 226 1
184 238 1
184 262 1
184 291 1
184 303 1
184 327 1
184 369 1
184 381 1
184 405 1
185 227 1
185 239 1
185 263 1
185 300 1
185 312 1
185 336 1
185 361 1
185 373 1
185 397 1
186 219 1
186 231 1
186 255 1
186 293 1
186 305 1
186 329 1
186 371 1
186 383 1
186 407 1
187 218 1
187 230 1
187 254 1
187 292 1
187 304 1
187 328 1
187 370 1
187 382 1
187 406 1
188 228 1
188 240 1
188 264 1
188 295 1
188 307 1
188 331 1
188 362 1
188 374 1
188 398 1
189 220 1
189 232 1
189 256 1
189 294 1
189 306 1
189 330 1
189 363 1
189 375 1
189 399 1
190 223 1
190 235 1
190 259 1
190 297 1
190 309 1
190 333 1
190 364 1
190 376 1
190 400 1
191 222 1
191 234 1
191 258 1
191 289 1
191 301 1
191 325 1
191 365 1
191 377 1
191 401 1
192 217 1
192 229 1
192 253 1
192 290 1
192 302 1
192 326 1
192 368 1
192 380 1
192 404 1
193 221 1
193 245 1
193 269 1
193 296 1
193 320 1
193 344 1
193 372 1
193 396 1
193 420 1
194 224 1
194 248 1
194 272 1
194 298 1
194 322 1
194 346 1
194 367 1
194 391 1
194 415 1
195 225 1
195 249 1
195 273 1
195 299 1
195 323 1
195 347 1
195 366 1
195 390 1
195 414 1
196 226 1
196 250 1
196 274 1
196 291 1
196 315 1
196 339 1
196 369 1
196 393 1
196 417 1
197 227 1
197 251 1
197 275 1
197 300 1
197 324 1
197 348 1
197 361 1
197 385 1
197 409 1
198 219 1
198 243 1
198 267 1
198 293 1
198 317 1
198 341 1
198 371 1
198 395 1
198 419 1
199 218 1
199 242 1
199 266 1
199 292 1
199 316 1
199 340 1
199 370 1
199 394 1
199 418 1
200 228 1
200 252 1
200 276 1
200 295 1
200 319 1
200 343 1
200 362 1
200 386 1
200 410 1
201 220 1
201 244 1
201 268 1
201 294 1
201 318 1
201 342 1
201 363 1
201 387 1
201 411 1
202 223 1
202 247 1
202 271 1
202 297 1
202 321 1
202 345 1
202 364 1
202 388 1
202 412 1
203 222 1
203 246 1
203 270 1
203 289 1
203 313 1
203 337 1
203 365 1
203 389 1
203 413 1
204 217 1
204 241 1
204 265 1
204 290 1
204 314 1
204 338 1
204 368 1
204 392 1
204 416 1
205 233 1
205 245 1
205 281 1
205 308 1
205 320 1
205 356 1
205 384 1
205 396 1
205 432 1
206 236 1
206 248 1
206 284 1
206 310 1
206 322 1
206 358 1
206 379 1
206 391 1
206 427 1
207 237 1
207 249 1
207 285 1
207 311 1
207 323 1
207 359 1
207 378 1
207 390 1
207 426 1
208 238 1
208 250 1
208 286 1
208 303 1
208 315 1
208 351 1
208 381 1
208 393 1
208 429 1
209 239 1
209 251 1
209 287 1
209 312 1
209 324 1
209 360 1
209 373 1
209 385 1
209 421 1
210 231 1
210 243 1
210 279 1
210 305 1
210 317 1
210 353 1
210 383 1
210 395 1
210 431 1
211 230 1
211 242 1
211 278 1
211 304 1
211 316 1
211 352 1
211 382 1
211 394 1
211 430 1
212 240 1
212 252 1
212 288 1
212 307 1
212 319 1
212 355 1
212 374 1
212 386 1
212 422 1
213 232 1
213 244 1
213 280 1
213 306 1
213 318 1
213 354 1
213 375 1
213 387 1
213 423 1
214 235 1
214 247 1
214 283 1
214 309 1
214 321 1
214 357 1
214 376 1
214 388 1
214 424 1
215 234 1
215 246 1
215 282 1
215 301 1
215 313 1
215 349 1
215 377 1
215 389 1
215 425 1
216 229 1
216 241 1
216 277 1
216 302 1
216 314 1
216 350 1
216 380 1
216 392 1
216 428 1
