%%MatrixMarket matrix coordinate integer general
288 576 2592
1 1 1
1 49 1
1 65 1
1 97 1
1 145 1
1 161 1
1 289 1
1 337 1
1 353 1
2 2 1
2 50 1
2 66 1
2 98 1
2 146 1
2 162 1
2 290 1
2 338 1
2 354 1
3 3 1
3 51 1
3 67 1
3 99 1
3 147 1
3 163 1
3 291 1
3 339 1
3 355 1
4 4 1
4 52 1
4 68 1
4 100 1
4 148 1
4 164 1
4 292 1
4 340 1
4 356 1
5 5 1
5 53 1
5 69 1
5 101 1
5 149 1
5 165 1
5 293 1
5 341 1
5 357 1
6 6 1
6 54 1
6 70 1
6 102 1
6 150 1
6 166 1
6 294 1
6 342 1
6 358 1
7 7 1
7 55 1
7 71 1
7 103 1
7 151 1
7 167 1
7 295 1
7 343 1
7 359 1
8 8 1
8 56 1
8 72 1
8 104 1
8 152 1
8 168 1
8 296 1
8 344 1
8 360 1
9 9 1
9 57 1
9 73 1
9 105 1
9 153 1
9 169 1
9 297 1
9 345 1
9 361 1
10 10 1
10 58 1
10 74 1
10 106 1
10 154 1
10 170 1
10 298 1
10 346 1
10 362 1
11 11 1
11 59 1
11 75 1
11 107 1
11 155 1
11 171 1
11 299 1
11 347 1
11 363 1
12 12 1
12 60 1
12 76 1
12 108 1
12 156 1
12 172 1
12 300 1
12 348 1
12 364 1
13 13 1
13 61 1
13 77 1
13 109 1
13 157 1
13 173 1
13 301 1
13 349 1
13 365 1
14 14 1
14 62 1
14 78 1
14 110 1
14 158 1
14 174 1
14 302 1
14 350 1
14 366 1
15 15 1
15 63 1
15 79 1
15 111 1
15 159 1
15 175 1
15 303 1
15 351 1
15 367 1
16 16 1
16 64 1
16 80 1
16 112 1
16 160 1
16 176 1
16 304 1
16 352 1
16 368 1
17 17 1
17 49 1
17 81 1
17 113 1
17 145 1
17 177 1
17 305 1
17 337 1
17 369 1
18 18 1
18 50 1
18 82 1
18 114 1
18 146 1
18 178 1
18 306 1
18 338 1
18 370 1
19 19 1
19 51 1
19 83 1
19 115 1
19 147 1
19 179 1
19 307 1
19 339 1
19 371 1
20 20 1
20 52 1
20 84 1
20 116 1
20 148 1
20 180 1
20 308 1
20 340 1
20 372 1
21 21 1
21 53 1
21 85 1
21 117 1
21 149 1
21 181 1
21 309 1
21 341 1
21 373 1
22 22 1
22 54 1
22 86 1
22 118 1
22 150 1
22 182 1
22 310 1
22 342 1
22 374 1
23 23 1
23 55 1
23 87 1
23 119 1
23 151 1
23 183 1
23 311 1
23 343 1
23 375 1
24 24 1
24 56 1
24 88 1
24 120 1
24 152 1
24 184 1
24 312 1
24 344 1
24 376 1
25 25 1
25 57 1
25 89 1
25 121 1
25 153 1
25 185 1
25 313 1
25 345 1
25 377 1
26 26 1
26 58 1
26 90 1
26 122 1
26 154 1
26 186 1
26 314 1
26 346 1
26 378 1
27 27 1
27 59 1
27 91 1
27 123 1
27 155 1
27 187 1
27 315 1
27 347 1
27 379 1
28 28 1
28 60 1
28 92 1
28 124 1
28 156 1
28 188 1
28 316 1
28 348 1
28 380 1
29 29 1
29 61 1
29 93 1
29 125 1
29 157 1
29 189 1
29 317 1
29 349 1
29 381 1
30 30 1
30 62 1
30 94 1
30 126 1
30 158 1
30 190 1
30 318 1
30 350 1
30 382 1
31 31 1
31 63 1
31 95 1
31 127 1
31 159 1
31 191 1
31 319 1
31 351 1
31 383 1
32 32 1
32 64 1
32 96 1
32 128 1
32 160 1
32 192 1
32 320 1
32 352 1
32 384 1
33 33 1
33 65 1
33 81 1
33 129 1
33 161 1
33 177 1
33 321 1
33 353 1
33 369 1
34 34 1
34 66 1
34 82 1
34 130 1
34 162 1
34 178 1
34 322 1
34 354 1
34 370 1
35 35 1
35 67 1
35 83 1
35 131 1
35 163 1
35 179 1
35 323 1
35 355 1
35 371 1
36 36 1
36 68 1
36 84 1
36 132 1
36 164 1
36 180 1
36 324 1
36 356 1
36 372 1
37 37 1
37 69 1
37 85 1
37 133 1
37 165 1
37 181 1
37 325 1
37 357 1
37 373 1
38 38 1
38 70 1
38 86 1
38 134 1
38 166 1
38 182 1
38 326 1
38 358 1
38 374 1
39 39 1
39 71 1
39 87 1
39 135 1
39 167 1
39 183 1
39 327 1
39 359 1
39 375 1
40 40 1
40 72 1
40 88 1
40 136 1
40 168 1
40 184 1
40 328 1
40 360 1
40 376 1
41 41 1
41 73 1
41 89 1
41 137 1
41 169 1
41 185 1
41 329 1
41 361 1
41 377 1
42 42 1
42 74 1
42 90 1
42 138 1
42 170 1
42 186 1
42 330 1
42 362 1
42 378 1
43 43 1
43 75 1
43 91 1
43 139 1
43 171 1
43 187 1
43 331 1
43 363 1
43 379 1
44 44 1
44 76 1
44 92 1
44 140 1
44 172 1
44 188 1
44 332 1
44 364 1
44 380 1
45 45 1
45 77 1
45 93 1
45 141 1
45 173 1
45 189 1
45 333 1
45 365 1
45 381 1
46 46 1
46 78 1
46 94 1
46 142 1
46 174 1
46 190 1
46 334 1
46 366 1
46 382 1
47 47 1
47 79 1
47 95 1
47 143 1
47 175 1
47 191 1
47 335 1
47 367 1
47 383 1
48 48 1
48 80 1
48 96 1
48 144 1
48 176 1
48 192 1
48 336 1
48 368 1
48 384 1
49 1 1
49 49 1
49 65 1
49 193 1
49 241 1
49 257 1
49 385 1
49 433 1
49 449 1
50 2 1
50 50 1
50 66 1
50 194 1
50 242 1
50 258 1
50 386 1
50 434 1
50 450 1
51 3 1
51 51 1
51 67 1
51 195 1
51 243 1
51 259 1
51 387 1
51 435 1
51 451 1
52 4 1
52 52 1
52 68 1
52 196 1
52 244 1
52 260 1
52 388 1
52 436 1
52 452 1
53 5 1
53 53 1
53 69 1
53 197 1
53 245 1
53 261 1
53 389 1
53 437 1
53 453 1
54 6 1
54 54 1
54 70 1
54 198 1
54 246 1
54 262 1
54 390 1
54 438 1
54 454 1
55 7 1
55 55 1
55 71 1
55 199 1
55 247 1
55 263 1
55 391 1
55 439 1
55 455 1
56 8 1
56 56 1
56 72 1
56 200 1
56 248 1
56 264 1
56 392 1
56 440 1
56 456 1
57 9 1
57 57 1
57 73 1
57 201 1
57 249 1
57 265 1
57 393 1
57 441 1
57 457 1
58 10 1
58 58 1
58 74 1
58 202 1
58 250 1
58 266 1
58 394 1
58 442 1
58 458 1
59 11 1
59 59 1
59 75 1
59 203 1
59 251 1
59 267 1
59 395 1
59 443 1
59 459 1
60 12 1
60 60 1
60 76 1
60 204 1
60 252 1
60 268 1
60 396 1
60 444 1
60 460 1
61 13 1
61 61 1
61 77 1
61 205 1
61 253 1
61 269 1
61 397 1
61 445 1
61 461 1
62 14 1
62 62 1
62 78 1
62 206 1
62 254 1
62 270 1
62 398 1
62 446 1
62 462 1
63 15 1
63 63 1
63 79 1
63 207 1
63 255 1
63 271 1
63 399 1
63 447 1
63 463 1
64 16 1
64 64 1
64 80 1
64 208 1
64 256 1
64 272 1
64 400 1
64 448 1
64 464 1
65 17 1
65 49 1
65 81 1
65 209 1
65 241 1
65 273 1
65 401 1
65 433 1
65 465 1
66 18 1
66 50 1
66 82 1
66 210 1
66 242 1
66 274 1
66 402 1
66 434 1
66 466 1
67 19 1
67 51 1
67 83 1
67 211 1
67 243 1
67 275 1
67 403 1
67 435 1
67 467 1
68 20 1
68 52 1
68 84 1
68 212 1
68 244 1
68 276 1
68 404 1
68 436 1
68 468 1
69 21 1
69 53 1
69 85 1
69 213 1
69 245 1
69 277 1
69 405 1
69 437 1
69 469 1
70 22 1
70 54 1
70 86 1
70 214 1
70 246 1
70 278 1
70 406 1
70 438 1
70 470 1
71 23 1
71 55 1
71 87 1
71 215 1
71 247 1
71 279 1
71 407 1
71 439 1
71 471 1
72 24 1
72 56 1
72 88 1
72 216 1
72 248 1
72 280 1
72 408 1
72 440 1
72 472 1
73 25 1
73 57 1
73 89 1
73 217 1
73 249 1
73 281 1
73 409 1
73 441 1
73 473 1
74 26 1
74 58 1
74 90 1
74 218 1
74 250 1
74 282 1
74 410 1
74 442 1
74 474 1
75 27 1
75 59 1
75 91 1
75 219 1
75 251 1
75 283 1
75 411 1
75 443 1
75 475 1
76 28 1
76 60 1
76 92 1
76 220 1
76 252 1
76 284 1
76 412 1
76 444 1
76 476 1
77 29 1
77 61 1
77 93 1
77 221 1
77 253 1
77 285 1
77 413 1
77 445 1
77 477 1
78 30 1
78 62 1
78 94 1
78 222 1
78 254 1
78 286 1
78 414 1
78 446 1
78 478 1
79 31 1
79 63 1
79 95 1
79 223 1
79 255 1
79 287 1
79 415 1
79 447 1
79 479 1
80 32 1
80 64 1
80 96 1
80 224 1
80 256 1
80 288 1
80 416 1
80 448 1
80 480 1
81 33 1
81 65 1
81 81 1
81 225 1
81 257 1
81 273 1
81 417 1
81 449 1
81 465 1
82 34 1
82 66 1
82 82 1
82 226 1
82 258 1
82 274 1
82 418 1
82 450 1
82 466 1
83 35 1
83 67 1
83 83 1
83 227 1
83 259 1
83 275 1
83 419 1
83 451 1
83 467 1
84 36 1
84 68 1
84 84 1
84 228 1
84 260 1
84 276 1
84 420 1
84 452 1
84 468 1
85 37 1
85 69 1
85 85 1
85 229 1
85 261 1
85 277 1
85 421 1
85 453 1
85 469 1
86 38 1
86 70 1
86 86 1
86 230 1
86 262 1
86 278 1
86 422 1
86 454 1
86 470 1
87 39 1
87 71 1
87 87 1
87 231 1
87 263 1
87 279 1
87 423 1
87 455 1
87 471 1
88 40 1
88 72 1
88 88 1
88 232 1
88 264 1
88 280 1
88 424 1
88 456 1
88 472 1
89 41 1
89 73 1
89 89 1
89 233 1
89 265 1
89 281 1
89 425 1
89 457 1
89 473 1
90 42 1
90 74 1
90 90 1
90 234 1
90 266 1
90 282 1
90 426 1
90 458 1
90 474 1
91 43 1
91 75 1
91 91 1
91 235 1
91 267 1
91 283 1
91 427 1
91 459 1
91 475 1
92 44 1
92 76 1
92 92 1
92 236 1
92 268 1
92 284 1
92 428 1
92 460 1
92 476 1
93 45 1
93 77 1
93 93 1
93 237 1
93 269 1
93 285 1
93 429 1
93 461 1
93 477 1
94 46 1
94 78 1
94 94 1
94 238 1
94 270 1
94 286 1
94 430 1
94 462 1
94 478 1
95 47 1
95 79 1
95 95 1
95 239 1
95 271 1
95 287 1
95 431 1
95 463 1
95 479 1
96 48 1
96 80 1
96 96 1
96 240 1
96 272 1
96 288 1
96 432 1
96 464 1
96 480 1
97 97 1
97 145 1
97 161 1
97 193 1
97 241 1
97 257 1
97 481 1
97 529 1
97 545 1
98 98 1
98 146 1
98 162 1
98 194 1
98 242 1
98 258 1
98 482 1
98 530 1
98 546 1
99 99 1
99 147 1
99 163 1
99 195 1
99 243 1
99 259 1
99 483 1
99 531 1
99 547 1
100 100 1
100 148 1
100 164 1
100 196 1
100 244 1
100 260 1
100 484 1
100 532 1
100 548 1
101 101 1
101 149 1
101 165 1
101 197 1
101 245 1
101 261 1
101 485 1
101 533 1
101 549 1
102 102 1
102 150 1
102 166 1
102 198 1
102 246 1
102 262 1
102 486 1
102 534 1
102 550 1
103 103 1
103 151 1
103 167 1
103 199 1
103 247 1
103 263 1
103 487 1
103 535 1
103 551 1
104 104 1
104 152 1
104 168 1
104 200 1
104 248 1
104 264 1
104 488 1
104 536 1
104 552 1
105 105 1
105 153 1
105 169 1
105 201 1
105 249 1
105 265 1
105 489 1
105 537 1
105 553 1
106 106 1
106 154 1
106 170 1
106 202 1
106 250 1
106 266 1
106 490 1
106 538 1
106 554 1
107 107 1
107 155 1
107 171 1
107 203 1
107 251 1
107 267 1
107 491 1
107 539 1
107 555 1
108 108 1
108 156 1
108 172 1
108 204 1
108 252 1
108 268 1
108 492 1
108 540 1
108 556 1
109 109 1
109 157 1
109 173 1
109 205 1
109 253 1
109 269 1
109 493 1
109 541 1
109 557 1
110 110 1
110 158 1
110 174 1
110 206 1
110 254 1
110 270 1
110 494 1
110 542 1
110 558 1
111 111 1
111 159 1
111 175 1
111 207 1
111 255 1
111 271 1
111 495 1
111 543 1
111 559 1
112 112 1
112 160 1
112 176 1
112 208 1
112 256 1
112 272 1
112 496 1
112 544 1
112 560 1
113 113 1
113 145 1
113 177 1
113 209 1
113 241 1
113 273 1
113 497 1
113 529 1
113 561 1
114 114 1
114 146 1
114 178 1
114 210 1
114 242 1
114 274 1
114 498 1
114 530 1
114 562 1
115 115 1
115 147 1
115 179 1
115 211 1
115 243 1
115 275 1
115 499 1
115 531 1
115 563 1
116 116 1
116 148 1
116 180 1
116 212 1
116 244 1
116 276 1
116 500 1
116 532 1
116 564 1
117 117 1
117 149 1
117 181 1
117 213 1
117 245 1
117 277 1
117 501 1
117 533 1
117 565 1
118 118 1
118 150 1
118 182 1
118 214 1
118 246 1
118 278 1
118 502 1
118 534 1
118 566 1
119 119 1
119 151 1
119 183 1
119 215 1
119 247 1
119 279 1
119 503 1
119 535 1
119 567 1
120 120 1
120 152 1
120 184 1
120 216 1
120 248 1
120 280 1
120 504 1
120 536 1
120 568 1
121 121 1
121 153 1
121 185 1
121 217 1
121 249 1
121 281 1
121 505 1
121 537 1
121 569 1
122 122 1
122 154 1
122 186 1
122 218 1
122 250 1
122 282 1
122 506 1
122 538 1
122 570 1
123 123 1
123 155 1
123 187 1
123 219 1
123 251 1
123 283 1
123 507 1
123 539 1
123 571 1
124 124 1
124 156 1
124 188 1
124 220 1
124 252 1
124 284 1
124 508 1
124 540 1
124 572 1
125 125 1
125 157 1
125 189 1
125 221 1
125 253 1
125 285 1
125 509 1
125 541 1
125 573 1
126 126 1
126 158 1
126 190 1
126 222 1
126 254 1
126 286 1
126 510 1
126 542 1
126 574 1
127 127 1
127 159 1
127 191 1
127 223 1
127 255 1
127 287 1
127 511 1
127 543 1
127 575 1
128 128 1
128 160 1
128 192 1
128 224 1
128 256 1
128 288 1
128 512 1
128 544 1
128 576 1
129 129 1
129 161 1
129 177 1
129 225 1
129 257 1
129 273 1
129 513 1
129 545 1
129 561 1
130 130 1
130 162 1
130 178 1
130 226 1
130 258 1
130 274 1
130 514 1
130 546 1
130 562 1
131 131 1
131 163 1
131 179 1
131 227 1
131 259 1
131 275 1
131 515 1
131 547 1
131 563 1
132 132 1
132 164 1
132 180 1
132 228 1
132 260 1
132 276 1
132 516 1
132 548 1
132 564 1
133 133 1
133 165 1
133 181 1
133 229 1
133 261 1
133 277 1
133 517 1
133 549 1
133 565 1
134 134 1
134 166 1
134 182 1
134 230 1
134 262 1
134 278 1
134 518 1
134 550 1
134 566 1
135 135 1
135 167 1
135 183 1
135 231 1
135 263 1
135 279 1
135 519 1
135 551 1
135 567 1
136 136 1
136 168 1
136 184 1
136 232 1
136 264 1
136 280 1
136 520 1
136 552 1
136 568 1
137 137 1
137 169 1
137 185 1
137 233 1
137 265 1
137 281 1
137 521 1
137 553 1
137 569 1
138 138 1
138 170 1
138 186 1
138 234 1
138 266 1
138 282 1
138 522 1
138 554 1
138 570 1
139 139 1
139 171 1
139 187 1
139 235 1
139 267 1
139 283 1
139 523 1
139 555 1
139 571 1
140 140 1
140 172 1
140 188 1
140 236 1
140 268 1
140 284 1
140 524 1
140 556 1
140 572 1
141 141 1
141 173 1
141 189 1
141 237 1
141 269 1
141 285 1
141 525 1
141 557 1
141 573 1
142 142 1
142 174 1
142 190 1
142 238 1
142 270 1
142 286 1
142 526 1
142 558 1
142 574 1
143 143 1
143 175 1
143 191 1
143 239 1
143 271 1
143 287 1
143 527 1
143 559 1
143 575 1
144 144 1
144 176 1
144 192 1
144 240 1
144 272 1
144 288 1
144 528 1
144 560 1
144 576 1
145 1 1
145 52 1
145 83 1
145 99 1
145 153 1
145 180 1
145 492 1
145 541 1
145 568 1
146 2 1
146 55 1
146 86 1
146 102 1
146 156 1
146 183 1
146 485 1
146 539 1
146 570 1
147 3 1
147 57 1
147 84 1
147 100 1
147 149 1
147 185 1
147 488 1
147 542 1
147 573 1
148 4 1
148 53 1
148 89 1
148 105 1
148 154 1
148 181 1
148 493 1
148 544 1
148 574 1
149 5 1
149 59 1
149 90 1
149 106 1
149 159 1
149 187 1
149 496 1
149 534 1
149 562 1
150 6 1
150 60 1
150 87 1
150 103 1
150 152 1
150 188 1
150 490 1
150 543 1
150 571 1
151 7 1
151 56 1
151 92 1
151 108 1
151 157 1
151 184 1
151 491 1
151 529 1
151 575 1
152 8 1
152 62 1
152 93 1
152 109 1
152 160 1
152 190 1
152 481 1
152 532 1
152 563 1
153 9 1
153 58 1
153 85 1
153 101 1
153 155 1
153 186 1
153 494 1
153 530 1
153 576 1
154 10 1
154 63 1
154 91 1
154 107 1
154 145 1
154 191 1
154 482 1
154 535 1
154 566 1
155 11 1
155 49 1
155 95 1
155 111 1
155 147 1
155 177 1
155 486 1
155 540 1
155 567 1
156 12 1
156 61 1
156 88 1
156 104 1
156 158 1
156 189 1
156 495 1
156 531 1
156 561 1
157 13 1
157 64 1
157 94 1
157 110 1
157 146 1
157 192 1
157 483 1
157 537 1
157 564 1
158 14 1
158 50 1
158 96 1
158 112 1
158 150 1
158 178 1
158 484 1
158 533 1
158 569 1
159 15 1
159 51 1
159 81 1
159 97 1
159 148 1
159 179 1
159 487 1
159 536 1
159 572 1
160 16 1
160 54 1
160 82 1
160 98 1
160 151 1
160 182 1
160 489 1
160 538 1
160 565 1
161 30 1
161 36 1
161 83 1
161 128 1
161 137 1
161 180 1
161 500 1
161 525 1
161 568 1
162 31 1
162 39 1
162 86 1
162 113 1
162 140 1
162 183 1
162 503 1
162 523 1
162 570 1
163 32 1
163 41 1
163 84 1
163 114 1
163 133 1
163 185 1
163 505 1
163 526 1
163 573 1
164 18 1
164 37 1
164 89 1
164 118 1
164 138 1
164 181 1
164 501 1
164 528 1
164 574 1
165 23 1
165 43 1
165 90 1
165 124 1
165 143 1
165 187 1
165 507 1
165 518 1
165 562 1
166 17 1
166 44 1
166 87 1
166 115 1
166 136 1
166 188 1
166 508 1
166 527 1
166 571 1
167 19 1
167 40 1
167 92 1
167 116 1
167 141 1
167 184 1
167 504 1
167 513 1
167 575 1
168 25 1
168 46 1
168 93 1
168 117 1
168 144 1
168 190 1
168 510 1
168 516 1
168 563 1
169 22 1
169 42 1
169 85 1
169 119 1
169 139 1
169 186 1
169 506 1
169 514 1
169 576 1
170 28 1
170 47 1
170 91 1
170 120 1
170 129 1
170 191 1
170 511 1
170 519 1
170 566 1
171 24 1
171 33 1
171 95 1
171 125 1
171 131 1
171 177 1
171 497 1
171 524 1
171 567 1
172 20 1
172 45 1
172 88 1
172 121 1
172 142 1
172 189 1
172 509 1
172 515 1
172 561 1
173 21 1
173 48 1
173 94 1
173 122 1
173 130 1
173 192 1
173 512 1
173 521 1
173 564 1
174 26 1
174 34 1
174 96 1
174 123 1
174 134 1
174 178 1
174 498 1
174 517 1
174 569 1
175 29 1
175 35 1
175 81 1
175 126 1
175 132 1
175 179 1
175 499 1
175 520 1
175 572 1
176 27 1
176 38 1
176 82 1
176 127 1
176 135 1
176 182 1
176 502 1
176 522 1
176 565 1
177 30 1
177 52 1
177 72 1
177 128 1
177 153 1
177 173 1
177 500 1
177 541 1
177 545 1
178 31 1
178 55 1
178 74 1
178 113 1
178 156 1
178 171 1
178 503 1
178 539 1
178 546 1
179 32 1
179 57 1
179 77 1
179 114 1
179 149 1
179 174 1
179 505 1
179 542 1
179 547 1
180 18 1
180 53 1
180 78 1
180 118 1
180 154 1
180 176 1
180 501 1
180 544 1
180 548 1
181 23 1
181 59 1
181 66 1
181 124 1
181 159 1
181 166 1
181 507 1
181 534 1
181 549 1
182 17 1
182 60 1
182 75 1
182 115 1
182 152 1
182 175 1
182 508 1
182 543 1
182 550 1
183 19 1
183 56 1
183 79 1
183 116 1
183 157 1
183 161 1
183 504 1
183 529 1
183 551 1
184 25 1
184 62 1
184 67 1
184 117 1
184 160 1
184 164 1
184 510 1
184 532 1
184 552 1
185 22 1
185 58 1
185 80 1
185 119 1
185 155 1
185 162 1
185 506 1
185 530 1
185 553 1
186 28 1
186 63 1
186 70 1
186 120 1
186 145 1
186 167 1
186 511 1
186 535 1
186 554 1
187 24 1
187 49 1
187 71 1
187 125 1
187 147 1
187 172 1
187 497 1
187 540 1
187 555 1
188 20 1
188 61 1
188 65 1
188 121 1
188 158 1
188 163 1
188 509 1
188 531 1
188 556 1
189 21 1
189 64 1
189 68 1
189 122 1
189 146 1
189 169 1
189 512 1
189 537 1
189 557 1
190 26 1
190 50 1
190 73 1
190 123 1
190 150 1
190 165 1
190 498 1
190 533 1
190 558 1
191 29 1
191 51 1
191 76 1
191 126 1
191 148 1
191 168 1
191 499 1
191 536 1
191 559 1
192 27 1
192 54 1
192 69 1
192 127 1
192 151 1
192 170 1
192 502 1
192 538 1
192 560 1
193 1 1
193 52 1
193 83 1
193 297 1
193 346 1
193 373 1
193 394 1
193 447 1
193 475 1
194 2 1
194 55 1
194 86 1
194 300 1
194 349 1
194 376 1
194 397 1
194 448 1
194 478 1
195 3 1
195 57 1
195 84 1
195 293 1
195 347 1
195 378 1
195 395 1
195 433 1
195 479 1
196 4 1
196 53 1
196 89 1
196 298 1
196 351 1
196 379 1
196 399 1
196 435 1
196 465 1
197 5 1
197 59 1
197 90 1
197 303 1
197 339 1
197 369 1
197 387 1
197 441 1
197 468 1
198 6 1
198 60 1
198 87 1
198 296 1
198 350 1
198 381 1
198 398 1
198 434 1
198 480 1
199 7 1
199 56 1
199 92 1
199 301 1
199 352 1
199 382 1
199 400 1
199 438 1
199 466 1
200 8 1
200 62 1
200 93 1
200 304 1
200 342 1
200 370 1
200 390 1
200 444 1
200 471 1
201 9 1
201 58 1
201 85 1
201 299 1
201 337 1
201 383 1
201 385 1
201 436 1
201 467 1
202 10 1
202 63 1
202 91 1
202 289 1
202 340 1
202 371 1
202 388 1
202 437 1
202 473 1
203 11 1
203 49 1
203 95 1
203 291 1
203 345 1
203 372 1
203 393 1
203 442 1
203 469 1
204 12 1
204 61 1
204 88 1
204 302 1
204 338 1
204 384 1
204 386 1
204 439 1
204 470 1
205 13 1
205 64 1
205 94 1
205 290 1
205 343 1
205 374 1
205 391 1
205 440 1
205 476 1
206 14 1
206 50 1
206 96 1
206 294 1
206 348 1
206 375 1
206 396 1
206 445 1
206 472 1
207 15 1
207 51 1
207 81 1
207 292 1
207 341 1
207 377 1
207 389 1
207 443 1
207 474 1
208 16 1
208 54 1
208 82 1
208 295 1
208 344 1
208 380 1
208 392 1
208 446 1
208 477 1
209 30 1
209 36 1
209 83 1
209 310 1
209 330 1
209 373 1
209 412 1
209 431 1
209 475 1
210 31 1
210 39 1
210 86 1
210 308 1
210 333 1
210 376 1
210 405 1
210 432 1
210 478 1
211 32 1
211 41 1
211 84 1
211 311 1
211 331 1
211 378 1
211 408 1
211 417 1
211 479 1
212 18 1
212 37 1
212 89 1
212 316 1
212 335 1
212 379 1
212 413 1
212 419 1
212 465 1
213 23 1
213 43 1
213 90 1
213 317 1
213 323 1
213 369 1
213 416 1
213 425 1
213 468 1
214 17 1
214 44 1
214 87 1
214 313 1
214 334 1
214 381 1
214 410 1
214 418 1
214 480 1
215 19 1
215 40 1
215 92 1
215 309 1
215 336 1
215 382 1
215 411 1
215 422 1
215 466 1
216 25 1
216 46 1
216 93 1
216 315 1
216 326 1
216 370 1
216 401 1
216 428 1
216 471 1
217 22 1
217 42 1
217 85 1
217 312 1
217 321 1
217 383 1
217 414 1
217 420 1
217 467 1
218 28 1
218 47 1
218 91 1
218 318 1
218 324 1
218 371 1
218 402 1
218 421 1
218 473 1
219 24 1
219 33 1
219 95 1
219 320 1
219 329 1
219 372 1
219 406 1
219 426 1
219 469 1
220 20 1
220 45 1
220 88 1
220 314 1
220 322 1
220 384 1
220 415 1
220 423 1
220 470 1
221 21 1
221 48 1
221 94 1
221 319 1
221 327 1
221 374 1
221 403 1
221 424 1
221 476 1
222 26 1
222 34 1
222 96 1
222 305 1
222 332 1
222 375 1
222 404 1
222 429 1
222 472 1
223 29 1
223 35 1
223 81 1
223 306 1
223 325 1
223 377 1
223 407 1
223 427 1
223 474 1
224 27 1
224 38 1
224 82 1
224 307 1
224 328 1
224 380 1
224 409 1
224 430 1
224 477 1
225 30 1
225 52 1
225 72 1
225 310 1
225 346 1
225 368 1
225 412 1
225 447 1
225 454 1
226 31 1
226 55 1
226 74 1
226 308 1
226 349 1
226 353 1
226 405 1
226 448 1
226 452 1
227 32 1
227 57 1
227 77 1
227 311 1
227 347 1
227 354 1
227 408 1
227 433 1
227 455 1
228 18 1
228 53 1
228 78 1
228 316 1
228 351 1
228 358 1
228 413 1
228 435 1
228 460 1
229 23 1
229 59 1
229 66 1
229 317 1
229 339 1
229 364 1
229 416 1
229 441 1
229 461 1
230 17 1
230 60 1
230 75 1
230 313 1
230 350 1
230 355 1
230 410 1
230 434 1
230 457 1
231 19 1
231 56 1
231 79 1
231 309 1
231 352 1
231 356 1
231 411 1
231 438 1
231 453 1
232 25 1
232 62 1
232 67 1
232 315 1
232 342 1
232 357 1
232 401 1
232 444 1
232 459 1
233 22 1
233 58 1
233 80 1
233 312 1
233 337 1
233 359 1
233 414 1
233 436 1
233 456 1
234 28 1
234 63 1
234 70 1
234 318 1
234 340 1
234 360 1
234 402 1
234 437 1
234 462 1
235 24 1
235 49 1
235 71 1
235 320 1
235 345 1
235 365 1
235 406 1
235 442 1
235 464 1
236 20 1
236 61 1
236 65 1
236 314 1
236 338 1
236 361 1
236 415 1
236 439 1
236 458 1
237 21 1
237 64 1
237 68 1
237 319 1
237 343 1
237 362 1
237 403 1
237 440 1
237 463 1
238 26 1
238 50 1
238 73 1
238 305 1
238 348 1
238 363 1
238 404 1
238 445 1
238 449 1
239 29 1
239 51 1
239 76 1
239 306 1
239 341 1
239 366 1
239 407 1
239 443 1
239 450 1
240 27 1
240 54 1
240 69 1
240 307 1
240 344 1
240 367 1
240 409 1
240 446 1
240 451 1
241 99 1
241 153 1
241 180 1
241 198 1
241 252 1
241 279 1
241 297 1
241 346 1
241 373 1
242 102 1
242 156 1
242 183 1
242 196 1
242 245 1
242 281 1
242 300 1
242 349 1
242 376 1
243 100 1
243 149 1
243 185 1
243 199 1
243 248 1
243 284 1
243 293 1
243 347 1
243 378 1
244 105 1
244 154 1
244 181 1
244 204 1
244 253 1
244 280 1
244 298 1
244 351 1
244 379 1
245 106 1
245 159 1
245 187 1
245 205 1
245 256 1
245 286 1
245 303 1
245 339 1
245 369 1
246 103 1
246 152 1
246 188 1
246 201 1
246 250 1
246 277 1
246 296 1
246 350 1
246 381 1
247 108 1
247 157 1
247 184 1
247 197 1
247 251 1
247 282 1
247 301 1
247 352 1
247 382 1
248 109 1
248 160 1
248 190 1
248 203 1
248 241 1
248 287 1
248 304 1
248 342 1
248 370 1
249 101 1
249 155 1
249 186 1
249 200 1
249 254 1
249 285 1
249 299 1
249 337 1
249 383 1
250 107 1
250 145 1
250 191 1
250 206 1
250 242 1
250 288 1
250 289 1
250 340 1
250 371 1
251 111 1
251 147 1
251 177 1
251 208 1
251 246 1
251 274 1
251 291 1
251 345 1
251 372 1
252 104 1
252 158 1
252 189 1
252 202 1
252 255 1
252 283 1
252 302 1
252 338 1
252 384 1
253 110 1
253 146 1
253 192 1
253 207 1
253 243 1
253 273 1
253 290 1
253 343 1
253 374 1
254 112 1
254 150 1
254 178 1
254 193 1
254 244 1
254 275 1
254 294 1
254 348 1
254 375 1
255 97 1
255 148 1
255 179 1
255 194 1
255 247 1
255 278 1
255 292 1
255 341 1
255 377 1
256 98 1
256 151 1
256 182 1
256 195 1
256 249 1
256 276 1
256 295 1
256 344 1
256 380 1
257 128 1
257 137 1
257 180 1
257 209 1
257 236 1
257 279 1
257 310 1
257 330 1
257 373 1
258 113 1
258 140 1
258 183 1
258 210 1
258 229 1
258 281 1
258 308 1
258 333 1
258 376 1
259 114 1
259 133 1
259 185 1
259 211 1
259 232 1
259 284 1
259 311 1
259 331 1
259 378 1
260 118 1
260 138 1
260 181 1
260 212 1
260 237 1
260 280 1
260 316 1
260 335 1
260 379 1
261 124 1
261 143 1
261 187 1
261 213 1
261 240 1
261 286 1
261 317 1
261 323 1
261 369 1
262 115 1
262 136 1
262 188 1
262 214 1
262 234 1
262 277 1
262 313 1
262 334 1
262 381 1
263 116 1
263 141 1
263 184 1
263 215 1
263 235 1
263 282 1
263 309 1
263 336 1
263 382 1
264 117 1
264 144 1
264 190 1
264 216 1
264 225 1
264 287 1
264 315 1
264 326 1
264 370 1
265 119 1
265 139 1
265 186 1
265 217 1
265 238 1
265 285 1
265 312 1
265 321 1
265 383 1
266 120 1
266 129 1
266 191 1
266 218 1
266 226 1
266 288 1
266 318 1
266 324 1
266 371 1
267 125 1
267 131 1
267 177 1
267 219 1
267 230 1
267 274 1
267 320 1
267 329 1
267 372 1
268 121 1
268 142 1
268 189 1
268 220 1
268 239 1
268 283 1
268 314 1
268 322 1
268 384 1
269 122 1
269 130 1
269 192 1
269 221 1
269 227 1
269 273 1
269 319 1
269 327 1
269 374 1
270 123 1
270 134 1
270 178 1
270 222 1
270 228 1
270 275 1
270 305 1
270 332 1
270 375 1
271 126 1
271 132 1
271 179 1
271 223 1
271 231 1
271 278 1
271 306 1
271 325 1
271 377 1
272 127 1
272 135 1
272 182 1
272 224 1
272 233 1
272 276 1
272 307 1
272 328 1
272 380 1
273 128 1
273 153 1
273 173 1
273 209 1
273 252 1
273 267 1
273 310 1
273 346 1
273 368 1
274 113 1
274 156 1
274 171 1
274 210 1
274 245 1
274 270 1
274 308 1
274 349 1
274 353 1
275 114 1
275 149 1
275 174 1
275 211 1
275 248 1
275 271 1
275 311 1
275 347 1
275 354 1
276 118 1
276 154 1
276 176 1
276 212 1
276 253 1
276 257 1
276 316 1
276 351 1
276 358 1
277 124 1
277 159 1
277 166 1
277 213 1
277 256 1
277 260 1
277 317 1
277 339 1
277 364 1
278 115 1
278 152 1
278 175 1
278 214 1
278 250 1
278 272 1
278 313 1
278 350 1
278 355 1
279 116 1
279 157 1
279 161 1
279 215 1
279 251 1
279 258 1
279 309 1
279 352 1
279 356 1
280 117 1
280 160 1
280 164 1
280 216 1
280 241 1
280 263 1
280 315 1
280 342 1
280 357 1
281 119 1
281 155 1
281 162 1
281 217 1
281 254 1
281 259 1
281 312 1
281 337 1
281 359 1
282 120 1
282 145 1
282 167 1
282 218 1
282 242 1
282 265 1
282 318 1
282 340 1
282 360 1
283 125 1
283 147 1
283 172 1
283 219 1
283 246 1
283 261 1
283 320 1
283 345 1
283 365 1
284 121 1
284 158 1
284 163 1
284 220 1
284 255 1
284 262 1
284 314 1
284 338 1
284 361 1
285 122 1
285 146 1
285 169 1
285 221 1
285 243 1
285 268 1
285 319 1
285 343 1
285 362 1
286 123 1
286 150 1
286 165 1
286 222 1
286 244 1
286 264 1
286 305 1
286 348 1
286 363 1
287 126 1
287 148 1
287 168 1
287 223 1
287 247 1
287 266 1
287 306 1
287 341 1
287 366 1
288 127 1
288 151 1
288 170 1
288 224 1
288 249 1
288 269 1
288 307 1
288 344 1
288 367 1
