%%MatrixMarket matrix coordinate integer general
224 448 3584
1 1 1
1 29 1
1 36 1
1 43 1
1 225 1
1 253 1
1 260 1
1 267 1
1 281 1
1 309 1
1 316 1
1 323 1
1 337 1
1 365 1
1 372 1
1 379 1
2 2 1
2 30 1
2 37 1
2 44 1
2 226 1
2 254 1
2 261 1
2 268 1
2 282 1
2 310 1
2 317 1
2 324 1
2 338 1
2 366 1
2 373 1
2 380 1
3 3 1
3 31 1
3 38 1
3 45 1
3 227 1
3 255 1
3 262 1
3 269 1
3 283 1
3 311 1
3 318 1
3 325 1
3 339 1
3 367 1
3 374 1
3 381 1
4 4 1
4 32 1
4 39 1
4 46 1
4 228 1
4 256 1
4 263 1
4 270 1
4 284 1
4 312 1
4 319 1
4 326 1
4 340 1
4 368 1
4 375 1
4 382 1
5 5 1
5 33 1
5 40 1
5 47 1
5 229 1
5 257 1
5 264 1
5 271 1
5 285 1
5 313 1
5 320 1
5 327 1
5 341 1
5 369 1
5 376 1
5 383 1
6 6 1
6 34 1
6 41 1
6 48 1
6 230 1
6 258 1
6 265 1
6 272 1
6 286 1
6 314 1
6 321 1
6 328 1
6 342 1
6 370 1
6 377 1
6 384 1
7 7 1
7 35 1
7 42 1
7 49 1
7 231 1
7 259 1
7 266 1
7 273 1
7 287 1
7 315 1
7 322 1
7 329 1
7 343 1
7 371 1
7 378 1
7 385 1
8 8 1
8 29 1
8 36 1
8 50 1
8 232 1
8 253 1
8 260 1
8 274 1
8 288 1
8 309 1
8 316 1
8 330 1
8 344 1
8 365 1
8 372 1
8 386 1
9 9 1
9 30 1
9 37 1
9 51 1
9 233 1
9 254 1
9 261 1
9 275 1
9 289 1
9 310 1
9 317 1
9 331 1
9 345 1
9 366 1
9 373 1
9 387 1
10 10 1
10 31 1
10 38 1
10 52 1
10 234 1
10 255 1
10 262 1
10 276 1
10 290 1
10 311 1
10 318 1
10 332 1
10 346 1
10 367 1
10 374 1
10 388 1
11 11 1
11 32 1
11 39 1
11 53 1
11 235 1
11 256 1
11 263 1
11 277 1
11 291 1
11 312 1
11 319 1
11 333 1
11 347 1
11 368 1
11 375 1
11 389 1
12 12 1
12 33 1
12 40 1
12 54 1
12 236 1
12 257 1
12 264 1
12 278 1
12 292 1
12 313 1
12 320 1
12 334 1
12 348 1
12 369 1
12 376 1
12 390 1
13 13 1
13 34 1
13 41 1
13 55 1
13 237 1
13 258 1
13 265 1
13 279 1
13 293 1
13 314 1
13 321 1
13 335 1
13 349 1
13 370 1
13 377 1
13 391 1
14 14 1
14 35 1
14 42 1
14 56 1
14 238 1
14 259 1
14 266 1
14 280 1
14 294 1
14 315 1
14 322 1
14 336 1
14 350 1
14 371 1
14 378 1
14 392 1
15 15 1
15 29 1
15 43 1
15 50 1
15 239 1
15 253 1
15 267 1
15 274 1
15 295 1
15 309 1
15 323 1
15 330 1
15 351 1
15 365 1
15 379 1
15 386 1
16 16 1
16 30 1
16 44 1
16 51 1
16 240 1
16 254 1
16 268 1
16 275 1
16 296 1
16 310 1
16 324 1
16 331 1
16 352 1
16 366 1
16 380 1
16 387 1
17 17 1
17 31 1
17 45 1
17 52 1
17 241 1
17 255 1
17 269 1
17 276 1
17 297 1
17 311 1
17 325 1
17 332 1
17 353 1
17 367 1
17 381 1
17 388 1
18 18 1
18 32 1
18 46 1
18 53 1
18 242 1
18 256 1
18 270 1
18 277 1
18 298 1
18 312 1
18 326 1
18 333 1
18 354 1
18 368 1
18 382 1
18 389 1
19 19 1
19 33 1
19 47 1
19 54 1
19 243 1
19 257 1
19 271 1
19 278 1
19 299 1
19 313 1
19 327 1
19 334 1
19 355 1
19 369 1
19 383 1
19 390 1
20 20 1
20 34 1
20 48 1
20 55 1
20 244 1
20 258 1
20 272 1
20 279 1
20 300 1
20 314 1
20 328 1
20 335 1
20 356 1
20 370 1
20 384 1
20 391 1
21 21 1
21 35 1
21 49 1
21 56 1
21 245 1
21 259 1
21 273 1
21 280 1
21 301 1
21 315 1
21 329 1
21 336 1
21 357 1
21 371 1
21 385 1
21 392 1
22 22 1
22 36 1
22 43 1
22 50 1
22 246 1
22 260 1
22 267 1
22 274 1
22 302 1
22 316 1
22 323 1
22 330 1
22 358 1
22 372 1
22 379 1
22 386 1
23 23 1
23 37 1
23 44 1
23 51 1
23 247 1
23 261 1
23 268 1
23 275 1
23 303 1
23 317 1
23 324 1
23 331 1
23 359 1
23 373 1
23 380 1
23 387 1
24 24 1
24 38 1
24 45 1
24 52 1
24 248 1
24 262 1
24 269 1
24 276 1
24 304 1
24 318 1
24 325 1
24 332 1
24 360 1
24 374 1
24 381 1
24 388 1
25 25 1
25 39 1
25 46 1
25 53 1
25 249 1
25 263 1
25 270 1
25 277 1
25 305 1
25 319 1
25 326 1
25 333 1
25 361 1
25 375 1
25 382 1
25 389 1
26 26 1
26 40 1
26 47 1
26 54 1
26 250 1
26 264 1
26 271 1
26 278 1
26 306 1
26 320 1
26 327 1
26 334 1
26 362 1
26 376 1
26 383 1
26 390 1
27 27 1
27 41 1
27 48 1
27 55 1
27 251 1
27 265 1
27 272 1
27 279 1
27 307 1
27 321 1
27 328 1
27 335 1
27 363 1
27 377 1
27 384 1
27 391 1
28 28 1
28 42 1
28 49 1
28 56 1
28 252 1
28 266 1
28 273 1
28 280 1
28 308 1
28 322 1
28 329 1
28 336 1
28 364 1
28 378 1
28 385 1
28 392 1
29 57 1
29 85 1
29 92 1
29 99 1
29 225 1
29 253 1
29 260 1
29 267 1
29 281 1
29 309 1
29 316 1
29 323 1
29 393 1
29 421 1
29 428 1
29 435 1
30 58 1
30 86 1
30 93 1
30 100 1
30 226 1
30 254 1
30 261 1
30 268 1
30 282 1
30 310 1
30 317 1
30 324 1
30 394 1
30 422 1
30 429 1
30 436 1
31 59 1
31 87 1
31 94 1
31 101 1
31 227 1
31 255 1
31 262 1
31 269 1
31 283 1
31 311 1
31 318 1
31 325 1
31 395 1
31 423 1
31 430 1
31 437 1
32 60 1
32 88 1
32 95 1
32 102 1
32 228 1
32 256 1
32 263 1
32 270 1
32 284 1
32 312 1
32 319 1
32 326 1
32 396 1
32 424 1
32 431 1
32 438 1
33 61 1
33 89 1
33 96 1
33 103 1
33 229 1
33 257 1
33 264 1
33 271 1
33 285 1
33 313 1
33 320 1
33 327 1
33 397 1
33 425 1
33 432 1
33 439 1
34 62 1
34 90 1
34 97 1
34 104 1
34 230 1
34 258 1
34 265 1
34 272 1
34 286 1
34 314 1
34 321 1
34 328 1
34 398 1
34 426 1
34 433 1
34 440 1
35 63 1
35 91 1
35 98 1
35 105 1
35 231 1
35 259 1
35 266 1
35 273 1
35 287 1
35 315 1
35 322 1
35 329 1
35 399 1
35 427 1
35 434 1
35 441 1
36 64 1
36 85 1
36 92 1
36 106 1
36 232 1
36 253 1
36 260 1
36 274 1
36 288 1
36 309 1
36 316 1
36 330 1
36 400 1
36 421 1
36 428 1
36 442 1
37 65 1
37 86 1
37 93 1
37 107 1
37 233 1
37 254 1
37 261 1
37 275 1
37 289 1
37 310 1
37 317 1
37 331 1
37 401 1
37 422 1
37 429 1
37 443 1
38 66 1
38 87 1
38 94 1
38 108 1
38 234 1
38 255 1
38 262 1
38 276 1
38 290 1
38 311 1
38 318 1
38 332 1
38 402 1
38 423 1
38 430 1
38 444 1
39 67 1
39 88 1
39 95 1
39 109 1
39 235 1
39 256 1
39 263 1
39 277 1
39 291 1
39 312 1
39 319 1
39 333 1
39 403 1
39 424 1
39 431 1
39 445 1
40 68 1
40 89 1
40 96 1
40 110 1
40 236 1
40 257 1
40 264 1
40 278 1
40 292 1
40 313 1
40 320 1
40 334 1
40 404 1
40 425 1
40 432 1
40 446 1
41 69 1
41 90 1
41 97 1
41 111 1
41 237 1
41 258 1
41 265 1
41 279 1
41 293 1
41 314 1
41 321 1
41 335 1
41 405 1
41 426 1
41 433 1
41 447 1
42 70 1
42 91 1
42 98 1
42 112 1
42 238 1
42 259 1
42 266 1
42 280 1
42 294 1
42 315 1
42 322 1
42 336 1
42 406 1
42 427 1
42 434 1
42 448 1
43 71 1
43 85 1
43 99 1
43 106 1
43 239 1
43 253 1
43 267 1
43 274 1
43 295 1
43 309 1
43 323 1
43 330 1
43 407 1
43 421 1
43 435 1
43 442 1
44 72 1
44 86 1
44 100 1
44 107 1
44 240 1
44 254 1
44 268 1
44 275 1
44 296 1
44 310 1
44 324 1
44 331 1
44 408 1
44 422 1
44 436 1
44 443 1
45 73 1
45 87 1
45 101 1
45 108 1
45 241 1
45 255 1
45 269 1
45 276 1
45 297 1
45 311 1
45 325 1
45 332 1
45 409 1
45 423 1
45 437 1
45 444 1
46 74 1
46 88 1
46 102 1
46 109 1
46 242 1
46 256 1
46 270 1
46 277 1
46 298 1
46 312 1
46 326 1
46 333 1
46 410 1
46 424 1
46 438 1
46 445 1
47 75 1
47 89 1
47 103 1
47 110 1
47 243 1
47 257 1
47 271 1
47 278 1
47 299 1
47 313 1
47 327 1
47 334 1
47 411 1
47 425 1
47 439 1
47 446 1
48 76 1
48 90 1
48 104 1
48 111 1
48 244 1
48 258 1
48 272 1
48 279 1
48 300 1
48 314 1
48 328 1
48 335 1
48 412 1
48 426 1
48 440 1
48 447 1
49 77 1
49 91 1
49 105 1
49 112 1
49 245 1
49 259 1
49 273 1
49 280 1
49 301 1
49 315 1
49 329 1
49 336 1
49 413 1
49 427 1
49 441 1
49 448 1
50 78 1
50 92 1
50 99 1
50 106 1
50 246 1
50 260 1
50 267 1
50 274 1
50 302 1
50 316 1
50 323 1
50 330 1
50 414 1
50 428 1
50 435 1
50 442 1
51 79 1
51 93 1
51 100 1
51 107 1
51 247 1
51 261 1
51 268 1
51 275 1
51 303 1
51 317 1
51 324 1
51 331 1
51 415 1
51 429 1
51 436 1
51 443 1
52 80 1
52 94 1
52 101 1
52 108 1
52 248 1
52 262 1
52 269 1
52 276 1
52 304 1
52 318 1
52 325 1
52 332 1
52 416 1
52 430 1
52 437 1
52 444 1
53 81 1
53 95 1
53 102 1
53 109 1
53 249 1
53 263 1
53 270 1
53 277 1
53 305 1
53 319 1
53 326 1
53 333 1
53 417 1
53 431 1
53 438 1
53 445 1
54 82 1
54 96 1
54 103 1
54 110 1
54 250 1
54 264 1
54 271 1
54 278 1
54 306 1
54 320 1
54 327 1
54 334 1
54 418 1
54 432 1
54 439 1
54 446 1
55 83 1
55 97 1
55 104 1
55 111 1
55 251 1
55 265 1
55 272 1
55 279 1
55 307 1
55 321 1
55 328 1
55 335 1
55 419 1
55 433 1
55 440 1
55 447 1
56 84 1
56 98 1
56 105 1
56 112 1
56 252 1
56 266 1
56 273 1
56 280 1
56 308 1
56 322 1
56 329 1
56 336 1
56 420 1
56 434 1
56 441 1
56 448 1
57 113 1
57 141 1
57 148 1
57 155 1
57 225 1
57 253 1
57 260 1
57 267 1
57 337 1
57 365 1
57 372 1
57 379 1
57 393 1
57 421 1
57 428 1
57 435 1
58 114 1
58 142 1
58 149 1
58 156 1
58 226 1
58 254 1
58 261 1
58 268 1
58 338 1
58 366 1
58 373 1
58 380 1
58 394 1
58 422 1
58 429 1
58 436 1
59 115 1
59 143 1
59 150 1
59 157 1
59 227 1
59 255 1
59 262 1
59 269 1
59 339 1
59 367 1
59 374 1
59 381 1
59 395 1
59 423 1
59 430 1
59 437 1
60 116 1
60 144 1
60 151 1
60 158 1
60 228 1
60 256 1
60 263 1
60 270 1
60 340 1
60 368 1
60 375 1
60 382 1
60 396 1
60 424 1
60 431 1
60 438 1
61 117 1
61 145 1
61 152 1
61 159 1
61 229 1
61 257 1
61 264 1
61 271 1
61 341 1
61 369 1
61 376 1
61 383 1
61 397 1
61 425 1
61 432 1
61 439 1
62 118 1
62 146 1
62 153 1
62 160 1
62 230 1
62 258 1
62 265 1
62 272 1
62 342 1
62 370 1
62 377 1
62 384 1
62 398 1
62 426 1
62 433 1
62 440 1
63 119 1
63 147 1
63 154 1
63 161 1
63 231 1
63 259 1
63 266 1
63 273 1
63 343 1
63 371 1
63 378 1
63 385 1
63 399 1
63 427 1
63 434 1
63 441 1
64 120 1
64 141 1
64 148 1
64 162 1
64 232 1
64 253 1
64 260 1
64 274 1
64 344 1
64 365 1
64 372 1
64 386 1
64 400 1
64 421 1
64 428 1
64 442 1
65 121 1
65 142 1
65 149 1
65 163 1
65 233 1
65 254 1
65 261 1
65 275 1
65 345 1
65 366 1
65 373 1
65 387 1
65 401 1
65 422 1
65 429 1
65 443 1
66 122 1
66 143 1
66 150 1
66 164 1
66 234 1
66 255 1
66 262 1
66 276 1
66 346 1
66 367 1
66 374 1
66 388 1
66 402 1
66 423 1
66 430 1
66 444 1
67 123 1
67 144 1
67 151 1
67 165 1
67 235 1
67 256 1
67 263 1
67 277 1
67 347 1
67 368 1
67 375 1
67 389 1
67 403 1
67 424 1
67 431 1
67 445 1
68 124 1
68 145 1
68 152 1
68 166 1
68 236 1
68 257 1
68 264 1
68 278 1
68 348 1
68 369 1
68 376 1
68 390 1
68 404 1
68 425 1
68 432 1
68 446 1
69 125 1
69 146 1
69 153 1
69 167 1
69 237 1
69 258 1
69 265 1
69 279 1
69 349 1
69 370 1
69 377 1
69 391 1
69 405 1
69 426 1
69 433 1
69 447 1
70 126 1
70 147 1
70 154 1
70 168 1
70 238 1
70 259 1
70 266 1
70 280 1
70 350 1
70 371 1
70 378 1
70 392 1
70 406 1
70 427 1
70 434 1
70 448 1
71 127 1
71 141 1
71 155 1
71 162 1
71 239 1
71 253 1
71 267 1
71 274 1
71 351 1
71 365 1
71 379 1
71 386 1
71 407 1
71 421 1
71 435 1
71 442 1
72 128 1
72 142 1
72 156 1
72 163 1
72 240 1
72 254 1
72 268 1
72 275 1
72 352 1
72 366 1
72 380 1
72 387 1
72 408 1
72 422 1
72 436 1
72 443 1
73 129 1
73 143 1
73 157 1
73 164 1
73 241 1
73 255 1
73 269 1
73 276 1
73 353 1
73 367 1
73 381 1
73 388 1
73 409 1
73 423 1
73 437 1
73 444 1
74 130 1
74 144 1
74 158 1
74 165 1
74 242 1
74 256 1
74 270 1
74 277 1
74 354 1
74 368 1
74 382 1
74 389 1
74 410 1
74 424 1
74 438 1
74 445 1
75 131 1
75 145 1
75 159 1
75 166 1
75 243 1
75 257 1
75 271 1
75 278 1
75 355 1
75 369 1
75 383 1
75 390 1
75 411 1
75 425 1
75 439 1
75 446 1
76 132 1
76 146 1
76 160 1
76 167 1
76 244 1
76 258 1
76 272 1
76 279 1
76 356 1
76 370 1
76 384 1
76 391 1
76 412 1
76 426 1
76 440 1
76 447 1
77 133 1
77 147 1
77 161 1
77 168 1
77 245 1
77 259 1
77 273 1
77 280 1
77 357 1
77 371 1
77 385 1
77 392 1
77 413 1
77 427 1
77 441 1
77 448 1
78 134 1
78 148 1
78 155 1
78 162 1
78 246 1
78 260 1
78 267 1
78 274 1
78 358 1
78 372 1
78 379 1
78 386 1
78 414 1
78 428 1
78 435 1
78 442 1
79 135 1
79 149 1
79 156 1
79 163 1
79 247 1
79 261 1
79 268 1
79 275 1
79 359 1
79 373 1
79 380 1
79 387 1
79 415 1
79 429 1
79 436 1
79 443 1
80 136 1
80 150 1
80 157 1
80 164 1
80 248 1
80 262 1
80 269 1
80 276 1
80 360 1
80 374 1
80 381 1
80 388 1
80 416 1
80 430 1
80 437 1
80 444 1
81 137 1
81 151 1
81 158 1
81 165 1
81 249 1
81 263 1
81 270 1
81 277 1
81 361 1
81 375 1
81 382 1
81 389 1
81 417 1
81 431 1
81 438 1
81 445 1
82 138 1
82 152 1
82 159 1
82 166 1
82 250 1
82 264 1
82 271 1
82 278 1
82 362 1
82 376 1
82 383 1
82 390 1
82 418 1
82 432 1
82 439 1
82 446 1
83 139 1
83 153 1
83 160 1
83 167 1
83 251 1
83 265 1
83 272 1
83 279 1
83 363 1
83 377 1
83 384 1
83 391 1
83 419 1
83 433 1
83 440 1
83 447 1
84 140 1
84 154 1
84 161 1
84 168 1
84 252 1
84 266 1
84 273 1
84 280 1
84 364 1
84 378 1
84 385 1
84 392 1
84 420 1
84 434 1
84 441 1
84 448 1
85 169 1
85 197 1
85 204 1
85 211 1
85 281 1
85 309 1
85 316 1
85 323 1
85 337 1
85 365 1
85 372 1
85 379 1
85 393 1
85 421 1
85 428 1
85 435 1
86 170 1
86 198 1
86 205 1
86 212 1
86 282 1
86 310 1
86 317 1
86 324 1
86 338 1
86 366 1
86 373 1
86 380 1
86 394 1
86 422 1
86 429 1
86 436 1
87 171 1
87 199 1
87 206 1
87 213 1
87 283 1
87 311 1
87 318 1
87 325 1
87 339 1
87 367 1
87 374 1
87 381 1
87 395 1
87 423 1
87 430 1
87 437 1
88 172 1
88 200 1
88 207 1
88 214 1
88 284 1
88 312 1
88 319 1
88 326 1
88 340 1
88 368 1
88 375 1
88 382 1
88 396 1
88 424 1
88 431 1
88 438 1
89 173 1
89 201 1
89 208 1
89 215 1
89 285 1
89 313 1
89 320 1
89 327 1
89 341 1
89 369 1
89 376 1
89 383 1
89 397 1
89 425 1
89 432 1
89 439 1
90 174 1
90 202 1
90 209 1
90 216 1
90 286 1
90 314 1
90 321 1
90 328 1
90 342 1
90 370 1
90 377 1
90 384 1
90 398 1
90 426 1
90 433 1
90 440 1
91 175 1
91 203 1
91 210 1
91 217 1
91 287 1
91 315 1
91 322 1
91 329 1
91 343 1
91 371 1
91 378 1
91 385 1
91 399 1
91 427 1
91 434 1
91 441 1
92 176 1
92 197 1
92 204 1
92 218 1
92 288 1
92 309 1
92 316 1
92 330 1
92 344 1
92 365 1
92 372 1
92 386 1
92 400 1
92 421 1
92 428 1
92 442 1
93 177 1
93 198 1
93 205 1
93 219 1
93 289 1
93 310 1
93 317 1
93 331 1
93 345 1
93 366 1
93 373 1
93 387 1
93 401 1
93 422 1
93 429 1
93 443 1
94 178 1
94 199 1
94 206 1
94 220 1
94 290 1
94 311 1
94 318 1
94 332 1
94 346 1
94 367 1
94 374 1
94 388 1
94 402 1
94 423 1
94 430 1
94 444 1
95 179 1
95 200 1
95 207 1
95 221 1
95 291 1
95 312 1
95 319 1
95 333 1
95 347 1
95 368 1
95 375 1
95 389 1
95 403 1
95 424 1
95 431 1
95 445 1
96 180 1
96 201 1
96 208 1
96 222 1
96 292 1
96 313 1
96 320 1
96 334 1
96 348 1
96 369 1
96 376 1
96 390 1
96 404 1
96 425 1
96 432 1
96 446 1
97 181 1
97 202 1
97 209 1
97 223 1
97 293 1
97 314 1
97 321 1
97 335 1
97 349 1
97 370 1
97 377 1
97 391 1
97 405 1
97 426 1
97 433 1
97 447 1
98 182 1
98 203 1
98 210 1
98 224 1
98 294 1
98 315 1
98 322 1
98 336 1
98 350 1
98 371 1
98 378 1
98 392 1
98 406 1
98 427 1
98 434 1
98 448 1
99 183 1
99 197 1
99 211 1
99 218 1
99 295 1
99 309 1
99 323 1
99 330 1
99 351 1
99 365 1
99 379 1
99 386 1
99 407 1
99 421 1
99 435 1
99 442 1
100 184 1
100 198 1
100 212 1
100 219 1
100 296 1
100 310 1
100 324 1
100 331 1
100 352 1
100 366 1
100 380 1
100 387 1
100 408 1
100 422 1
100 436 1
100 443 1
101 185 1
101 199 1
101 213 1
101 220 1
101 297 1
101 311 1
101 325 1
101 332 1
101 353 1
101 367 1
101 381 1
101 388 1
101 409 1
101 423 1
101 437 1
101 444 1
102 186 1
102 200 1
102 214 1
102 221 1
102 298 1
102 312 1
102 326 1
102 333 1
102 354 1
102 368 1
102 382 1
102 389 1
102 410 1
102 424 1
102 438 1
102 445 1
103 187 1
103 201 1
103 215 1
103 222 1
103 299 1
103 313 1
103 327 1
103 334 1
103 355 1
103 369 1
103 383 1
103 390 1
103 411 1
103 425 1
103 439 1
103 446 1
104 188 1
104 202 1
104 216 1
104 223 1
104 300 1
104 314 1
104 328 1
104 335 1
104 356 1
104 370 1
104 384 1
104 391 1
104 412 1
104 426 1
104 440 1
104 447 1
105 189 1
105 203 1
105 217 1
105 224 1
105 301 1
105 315 1
105 329 1
105 336 1
105 357 1
105 371 1
105 385 1
105 392 1
105 413 1
105 427 1
105 441 1
105 448 1
106 190 1
106 204 1
106 211 1
106 218 1
106 302 1
106 316 1
106 323 1
106 330 1
106 358 1
106 372 1
106 379 1
106 386 1
106 414 1
106 428 1
106 435 1
106 442 1
107 191 1
107 205 1
107 212 1
107 219 1
107 303 1
107 317 1
107 324 1
107 331 1
107 359 1
107 373 1
107 380 1
107 387 1
107 415 1
107 429 1
107 436 1
107 443 1
108 192 1
108 206 1
108 213 1
108 220 1
108 304 1
108 318 1
108 325 1
108 332 1
108 360 1
108 374 1
108 381 1
108 388 1
108 416 1
108 430 1
108 437 1
108 444 1
109 193 1
109 207 1
109 214 1
109 221 1
109 305 1
109 319 1
109 326 1
109 333 1
109 361 1
109 375 1
109 382 1
109 389 1
109 417 1
109 431 1
109 438 1
109 445 1
110 194 1
110 208 1
110 215 1
110 222 1
110 306 1
110 320 1
110 327 1
110 334 1
110 362 1
110 376 1
110 383 1
110 390 1
110 418 1
110 432 1
110 439 1
110 446 1
111 195 1
111 209 1
111 216 1
111 223 1
111 307 1
111 321 1
111 328 1
111 335 1
111 363 1
111 377 1
111 384 1
111 391 1
111 419 1
111 433 1
111 440 1
111 447 1
112 196 1
112 210 1
112 217 1
112 224 1
112 308 1
112 322 1
112 329 1
112 336 1
112 364 1
112 378 1
112 385 1
112 392 1
112 420 1
112 434 1
112 441 1
112 448 1
113 1 1
113 27 1
113 38 1
113 44 1
113 225 1
113 251 1
113 262 1
113 268 1
113 281 1
113 307 1
113 318 1
113 324 1
113 399 1
113 418 1
113 429 1
113 435 1
114 2 1
114 28 1
114 39 1
114 45 1
114 226 1
114 252 1
114 263 1
114 269 1
114 282 1
114 308 1
114 319 1
114 325 1
114 393 1
114 419 1
114 430 1
114 436 1
115 3 1
115 22 1
115 40 1
115 46 1
115 227 1
115 246 1
115 264 1
115 270 1
115 283 1
115 302 1
115 320 1
115 326 1
115 394 1
115 420 1
115 431 1
115 437 1
116 4 1
116 23 1
116 41 1
116 47 1
116 228 1
116 247 1
116 265 1
116 271 1
116 284 1
116 303 1
116 321 1
116 327 1
116 395 1
116 414 1
116 432 1
116 438 1
117 5 1
117 24 1
117 42 1
117 48 1
117 229 1
117 248 1
117 266 1
117 272 1
117 285 1
117 304 1
117 322 1
117 328 1
117 396 1
117 415 1
117 433 1
117 439 1
118 6 1
118 25 1
118 36 1
118 49 1
118 230 1
118 249 1
118 260 1
118 273 1
118 286 1
118 305 1
118 316 1
118 329 1
118 397 1
118 416 1
118 434 1
118 440 1
119 7 1
119 26 1
119 37 1
119 43 1
119 231 1
119 250 1
119 261 1
119 267 1
119 287 1
119 306 1
119 317 1
119 323 1
119 398 1
119 417 1
119 428 1
119 441 1
120 14 1
120 27 1
120 38 1
120 51 1
120 238 1
120 251 1
120 262 1
120 275 1
120 294 1
120 307 1
120 318 1
120 331 1
120 405 1
120 418 1
120 429 1
120 442 1
121 8 1
121 28 1
121 39 1
121 52 1
121 232 1
121 252 1
121 263 1
121 276 1
121 288 1
121 308 1
121 319 1
121 332 1
121 406 1
121 419 1
121 430 1
121 443 1
122 9 1
122 22 1
122 40 1
122 53 1
122 233 1
122 246 1
122 264 1
122 277 1
122 289 1
122 302 1
122 320 1
122 333 1
122 400 1
122 420 1
122 431 1
122 444 1
123 10 1
123 23 1
123 41 1
123 54 1
123 234 1
123 247 1
123 265 1
123 278 1
123 290 1
123 303 1
123 321 1
123 334 1
123 401 1
123 414 1
123 432 1
123 445 1
124 11 1
124 24 1
124 42 1
124 55 1
124 235 1
124 248 1
124 266 1
124 279 1
124 291 1
124 304 1
124 322 1
124 335 1
124 402 1
124 415 1
124 433 1
124 446 1
125 12 1
125 25 1
125 36 1
125 56 1
125 236 1
125 249 1
125 260 1
125 280 1
125 292 1
125 305 1
125 316 1
125 336 1
125 403 1
125 416 1
125 434 1
125 447 1
126 13 1
126 26 1
126 37 1
126 50 1
126 237 1
126 250 1
126 261 1
126 274 1
126 293 1
126 306 1
126 317 1
126 330 1
126 404 1
126 417 1
126 428 1
126 448 1
127 21 1
127 27 1
127 44 1
127 51 1
127 245 1
127 251 1
127 268 1
127 275 1
127 301 1
127 307 1
127 324 1
127 331 1
127 412 1
127 418 1
127 435 1
127 442 1
128 15 1
128 28 1
128 45 1
128 52 1
128 239 1
128 252 1
128 269 1
128 276 1
128 295 1
128 308 1
128 325 1
128 332 1
128 413 1
128 419 1
128 436 1
128 443 1
129 16 1
129 22 1
129 46 1
129 53 1
129 240 1
129 246 1
129 270 1
129 277 1
129 296 1
129 302 1
129 326 1
129 333 1
129 407 1
129 420 1
129 437 1
129 444 1
130 17 1
130 23 1
130 47 1
130 54 1
130 241 1
130 247 1
130 271 1
130 278 1
130 297 1
130 303 1
130 327 1
130 334 1
130 408 1
130 414 1
130 438 1
130 445 1
131 18 1
131 24 1
131 48 1
131 55 1
131 242 1
131 248 1
131 272 1
131 279 1
131 298 1
131 304 1
131 328 1
131 335 1
131 409 1
131 415 1
131 439 1
131 446 1
132 19 1
132 25 1
132 49 1
132 56 1
132 243 1
132 249 1
132 273 1
132 280 1
132 299 1
132 305 1
132 329 1
132 336 1
132 410 1
132 416 1
132 440 1
132 447 1
133 20 1
133 26 1
133 43 1
133 50 1
133 244 1
133 250 1
133 267 1
133 274 1
133 300 1
133 306 1
133 323 1
133 330 1
133 411 1
133 417 1
133 441 1
133 448 1
134 33 1
134 38 1
134 44 1
134 51 1
134 257 1
134 262 1
134 268 1
134 275 1
134 313 1
134 318 1
134 324 1
134 331 1
134 424 1
134 429 1
134 435 1
134 442 1
135 34 1
135 39 1
135 45 1
135 52 1
135 258 1
135 263 1
135 269 1
135 276 1
135 314 1
135 319 1
135 325 1
135 332 1
135 425 1
135 430 1
135 436 1
135 443 1
136 35 1
136 40 1
136 46 1
136 53 1
136 259 1
136 264 1
136 270 1
136 277 1
136 315 1
136 320 1
136 326 1
136 333 1
136 426 1
136 431 1
136 437 1
136 444 1
137 29 1
137 41 1
137 47 1
137 54 1
137 253 1
137 265 1
137 271 1
137 278 1
137 309 1
137 321 1
137 327 1
137 334 1
137 427 1
137 432 1
137 438 1
137 445 1
138 30 1
138 42 1
138 48 1
138 55 1
138 254 1
138 266 1
138 272 1
138 279 1
138 310 1
138 322 1
138 328 1
138 335 1
138 421 1
138 433 1
138 439 1
138 446 1
139 31 1
139 36 1
139 49 1
139 56 1
139 255 1
139 260 1
139 273 1
139 280 1
139 311 1
139 316 1
139 329 1
139 336 1
139 422 1
139 434 1
139 440 1
139 447 1
140 32 1
140 37 1
140 43 1
140 50 1
140 256 1
140 261 1
140 267 1
140 274 1
140 312 1
140 317 1
140 323 1
140 330 1
140 423 1
140 428 1
140 441 1
140 448 1
141 57 1
141 83 1
141 94 1
141 100 1
141 225 1
141 251 1
141 262 1
141 268 1
141 341 1
141 360 1
141 378 1
141 384 1
141 399 1
141 418 1
141 429 1
141 435 1
142 58 1
142 84 1
142 95 1
142 101 1
142 226 1
142 252 1
142 263 1
142 269 1
142 342 1
142 361 1
142 372 1
142 385 1
142 393 1
142 419 1
142 430 1
142 436 1
143 59 1
143 78 1
143 96 1
143 102 1
143 227 1
143 246 1
143 264 1
143 270 1
143 343 1
143 362 1
143 373 1
143 379 1
143 394 1
143 420 1
143 431 1
143 437 1
144 60 1
144 79 1
144 97 1
144 103 1
144 228 1
144 247 1
144 265 1
144 271 1
144 337 1
144 363 1
144 374 1
144 380 1
144 395 1
144 414 1
144 432 1
144 438 1
145 61 1
145 80 1
145 98 1
145 104 1
145 229 1
145 248 1
145 266 1
145 272 1
145 338 1
145 364 1
145 375 1
145 381 1
145 396 1
145 415 1
145 433 1
145 439 1
146 62 1
146 81 1
146 92 1
146 105 1
146 230 1
146 249 1
146 260 1
146 273 1
146 339 1
146 358 1
146 376 1
146 382 1
146 397 1
146 416 1
146 434 1
146 440 1
147 63 1
147 82 1
147 93 1
147 99 1
147 231 1
147 250 1
147 261 1
147 267 1
147 340 1
147 359 1
147 377 1
147 383 1
147 398 1
147 417 1
147 428 1
147 441 1
148 70 1
148 83 1
148 94 1
148 107 1
148 238 1
148 251 1
148 262 1
148 275 1
148 347 1
148 360 1
148 378 1
148 391 1
148 405 1
148 418 1
148 429 1
148 442 1
149 64 1
149 84 1
149 95 1
149 108 1
149 232 1
149 252 1
149 263 1
149 276 1
149 348 1
149 361 1
149 372 1
149 392 1
149 406 1
149 419 1
149 430 1
149 443 1
150 65 1
150 78 1
150 96 1
150 109 1
150 233 1
150 246 1
150 264 1
150 277 1
150 349 1
150 362 1
150 373 1
150 386 1
150 400 1
150 420 1
150 431 1
150 444 1
151 66 1
151 79 1
151 97 1
151 110 1
151 234 1
151 247 1
151 265 1
151 278 1
151 350 1
151 363 1
151 374 1
151 387 1
151 401 1
151 414 1
151 432 1
151 445 1
152 67 1
152 80 1
152 98 1
152 111 1
152 235 1
152 248 1
152 266 1
152 279 1
152 344 1
152 364 1
152 375 1
152 388 1
152 402 1
152 415 1
152 433 1
152 446 1
153 68 1
153 81 1
153 92 1
153 112 1
153 236 1
153 249 1
153 260 1
153 280 1
153 345 1
153 358 1
153 376 1
153 389 1
153 403 1
153 416 1
153 434 1
153 447 1
154 69 1
154 82 1
154 93 1
154 106 1
154 237 1
154 250 1
154 261 1
154 274 1
154 346 1
154 359 1
154 377 1
154 390 1
154 404 1
154 417 1
154 428 1
154 448 1
155 77 1
155 83 1
155 100 1
155 107 1
155 245 1
155 251 1
155 268 1
155 275 1
155 354 1
155 360 1
155 384 1
155 391 1
155 412 1
155 418 1
155 435 1
155 442 1
156 71 1
156 84 1
156 101 1
156 108 1
156 239 1
156 252 1
156 269 1
156 276 1
156 355 1
156 361 1
156 385 1
156 392 1
156 413 1
156 419 1
156 436 1
156 443 1
157 72 1
157 78 1
157 102 1
157 109 1
157 240 1
157 246 1
157 270 1
157 277 1
157 356 1
157 362 1
157 379 1
157 386 1
157 407 1
157 420 1
157 437 1
157 444 1
158 73 1
158 79 1
158 103 1
158 110 1
158 241 1
158 247 1
158 271 1
158 278 1
158 357 1
158 363 1
158 380 1
158 387 1
158 408 1
158 414 1
158 438 1
158 445 1
159 74 1
159 80 1
159 104 1
159 111 1
159 242 1
159 248 1
159 272 1
159 279 1
159 351 1
159 364 1
159 381 1
159 388 1
159 409 1
159 415 1
159 439 1
159 446 1
160 75 1
160 81 1
160 105 1
160 112 1
160 243 1
160 249 1
160 273 1
160 280 1
160 352 1
160 358 1
160 382 1
160 389 1
160 410 1
160 416 1
160 440 1
160 447 1
161 76 1
161 82 1
161 99 1
161 106 1
161 244 1
161 250 1
161 267 1
161 274 1
161 353 1
161 359 1
161 383 1
161 390 1
161 411 1
161 417 1
161 441 1
161 448 1
162 89 1
162 94 1
162 100 1
162 107 1
162 257 1
162 262 1
162 268 1
162 275 1
162 366 1
162 378 1
162 384 1
162 391 1
162 424 1
162 429 1
162 435 1
162 442 1
163 90 1
163 95 1
163 101 1
163 108 1
163 258 1
163 263 1
163 269 1
163 276 1
163 367 1
163 372 1
163 385 1
163 392 1
163 425 1
163 430 1
163 436 1
163 443 1
164 91 1
164 96 1
164 102 1
164 109 1
164 259 1
164 264 1
164 270 1
164 277 1
164 368 1
164 373 1
164 379 1
164 386 1
164 426 1
164 431 1
164 437 1
164 444 1
165 85 1
165 97 1
165 103 1
165 110 1
165 253 1
165 265 1
165 271 1
165 278 1
165 369 1
165 374 1
165 380 1
165 387 1
165 427 1
165 432 1
165 438 1
165 445 1
166 86 1
166 98 1
166 104 1
166 111 1
166 254 1
166 266 1
166 272 1
166 279 1
166 370 1
166 375 1
166 381 1
166 388 1
166 421 1
166 433 1
166 439 1
166 446 1
167 87 1
167 92 1
167 105 1
167 112 1
167 255 1
167 260 1
167 273 1
167 280 1
167 371 1
167 376 1
167 382 1
167 389 1
167 422 1
167 434 1
167 440 1
167 447 1
168 88 1
168 93 1
168 99 1
168 106 1
168 256 1
168 261 1
168 267 1
168 274 1
168 365 1
168 377 1
168 383 1
168 390 1
168 423 1
168 428 1
168 441 1
168 448 1
169 113 1
169 139 1
169 150 1
169 156 1
169 281 1
169 307 1
169 318 1
169 324 1
169 341 1
169 360 1
169 378 1
169 384 1
169 399 1
169 418 1
169 429 1
169 435 1
170 114 1
170 140 1
170 151 1
170 157 1
170 282 1
170 308 1
170 319 1
170 325 1
170 342 1
170 361 1
170 372 1
170 385 1
170 393 1
170 419 1
170 430 1
170 436 1
171 115 1
171 134 1
171 152 1
171 158 1
171 283 1
171 302 1
171 320 1
171 326 1
171 343 1
171 362 1
171 373 1
171 379 1
171 394 1
171 420 1
171 431 1
171 437 1
172 116 1
172 135 1
172 153 1
172 159 1
172 284 1
172 303 1
172 321 1
172 327 1
172 337 1
172 363 1
172 374 1
172 380 1
172 395 1
172 414 1
172 432 1
172 438 1
173 117 1
173 136 1
173 154 1
173 160 1
173 285 1
173 304 1
173 322 1
173 328 1
173 338 1
173 364 1
173 375 1
173 381 1
173 396 1
173 415 1
173 433 1
173 439 1
174 118 1
174 137 1
174 148 1
174 161 1
174 286 1
174 305 1
174 316 1
174 329 1
174 339 1
174 358 1
174 376 1
174 382 1
174 397 1
174 416 1
174 434 1
174 440 1
175 119 1
175 138 1
175 149 1
175 155 1
175 287 1
175 306 1
175 317 1
175 323 1
175 340 1
175 359 1
175 377 1
175 383 1
175 398 1
175 417 1
175 428 1
175 441 1
176 126 1
176 139 1
176 150 1
176 163 1
176 294 1
176 307 1
176 318 1
176 331 1
176 347 1
176 360 1
176 378 1
176 391 1
176 405 1
176 418 1
176 429 1
176 442 1
177 120 1
177 140 1
177 151 1
177 164 1
177 288 1
177 308 1
177 319 1
177 332 1
177 348 1
177 361 1
177 372 1
177 392 1
177 406 1
177 419 1
177 430 1
177 443 1
178 121 1
178 134 1
178 152 1
178 165 1
178 289 1
178 302 1
178 320 1
178 333 1
178 349 1
178 362 1
178 373 1
178 386 1
178 400 1
178 420 1
178 431 1
178 444 1
179 122 1
179 135 1
179 153 1
179 166 1
179 290 1
179 303 1
179 321 1
179 334 1
179 350 1
179 363 1
179 374 1
179 387 1
179 401 1
179 414 1
179 432 1
179 445 1
180 123 1
180 136 1
180 154 1
180 167 1
180 291 1
180 304 1
180 322 1
180 335 1
180 344 1
180 364 1
180 375 1
180 388 1
180 402 1
180 415 1
180 433 1
180 446 1
181 124 1
181 137 1
181 148 1
181 168 1
181 292 1
181 305 1
181 316 1
181 336 1
181 345 1
181 358 1
181 376 1
181 389 1
181 403 1
181 416 1
181 434 1
181 447 1
182 125 1
182 138 1
182 149 1
182 162 1
182 293 1
182 306 1
182 317 1
182 330 1
182 346 1
182 359 1
182 377 1
182 390 1
182 404 1
182 417 1
182 428 1
182 448 1
183 133 1
183 139 1
183 156 1
183 163 1
183 301 1
183 307 1
183 324 1
183 331 1
183 354 1
183 360 1
183 384 1
183 391 1
183 412 1
183 418 1
183 435 1
183 442 1
184 127 1
184 140 1
184 157 1
184 164 1
184 295 1
184 308 1
184 325 1
184 332 1
184 355 1
184 361 1
184 385 1
184 392 1
184 413 1
184 419 1
184 436 1
184 443 1
185 128 1
185 134 1
185 158 1
185 165 1
185 296 1
185 302 1
185 326 1
185 333 1
185 356 1
185 362 1
185 379 1
185 386 1
185 407 1
185 420 1
185 437 1
185 444 1
186 129 1
186 135 1
186 159 1
186 166 1
186 297 1
186 303 1
186 327 1
186 334 1
186 357 1
186 363 1
186 380 1
186 387 1
186 408 1
186 414 1
186 438 1
186 445 1
187 130 1
187 136 1
187 160 1
187 167 1
187 298 1
187 304 1
187 328 1
187 335 1
187 351 1
187 364 1
187 381 1
187 388 1
187 409 1
187 415 1
187 439 1
187 446 1
188 131 1
188 137 1
188 161 1
188 168 1
188 299 1
188 305 1
188 329 1
188 336 1
188 352 1
188 358 1
188 382 1
188 389 1
188 410 1
188 416 1
188 440 1
188 447 1
189 132 1
189 138 1
189 155 1
189 162 1
189 300 1
189 306 1
189 323 1
189 330 1
189 353 1
189 359 1
189 383 1
189 390 1
189 411 1
189 417 1
189 441 1
189 448 1
190 145 1
190 150 1
190 156 1
190 163 1
190 313 1
190 318 1
190 324 1
190 331 1
190 366 1
190 378 1
190 384 1
190 391 1
190 424 1
190 429 1
190 435 1
190 442 1
191 146 1
191 151 1
191 157 1
191 164 1
191 314 1
191 319 1
191 325 1
191 332 1
191 367 1
191 372 1
191 385 1
191 392 1
191 425 1
191 430 1
191 436 1
191 443 1
192 147 1
192 152 1
192 158 1
192 165 1
192 315 1
192 320 1
192 326 1
192 333 1
192 368 1
192 373 1
192 379 1
192 386 1
192 426 1
192 431 1
192 437 1
192 444 1
193 141 1
193 153 1
193 159 1
193 166 1
193 309 1
193 321 1
193 327 1
193 334 1
193 369 1
193 374 1
193 380 1
193 387 1
193 427 1
193 432 1
193 438 1
193 445 1
194 142 1
194 154 1
194 160 1
194 167 1
194 310 1
194 322 1
194 328 1
194 335 1
194 370 1
194 375 1
194 381 1
194 388 1
194 421 1
194 433 1
194 439 1
194 446 1
195 143 1
195 148 1
195 161 1
195 168 1
195 311 1
195 316 1
195 329 1
195 336 1
195 371 1
195 376 1
195 382 1
195 389 1
195 422 1
195 434 1
195 440 1
195 447 1
196 144 1
196 149 1
196 155 1
196 162 1
196 312 1
196 317 1
196 323 1
196 330 1
196 365 1
196 377 1
196 383 1
196 390 1
196 423 1
196 428 1
196 441 1
196 448 1
197 169 1
197 195 1
197 206 1
197 212 1
197 225 1
197 251 1
197 262 1
197 268 1
197 281 1
197 307 1
197 318 1
197 324 1
197 341 1
197 360 1
197 378 1
197 384 1
198 170 1
198 196 1
198 207 1
198 213 1
198 226 1
198 252 1
198 263 1
198 269 1
198 282 1
198 308 1
198 319 1
198 325 1
198 342 1
198 361 1
198 372 1
198 385 1
199 171 1
199 190 1
199 208 1
199 214 1
199 227 1
199 246 1
199 264 1
199 270 1
199 283 1
199 302 1
199 320 1
199 326 1
199 343 1
199 362 1
199 373 1
199 379 1
200 172 1
200 191 1
200 209 1
200 215 1
200 228 1
200 247 1
200 265 1
200 271 1
200 284 1
200 303 1
200 321 1
200 327 1
200 337 1
200 363 1
200 374 1
200 380 1
201 173 1
201 192 1
201 210 1
201 216 1
201 229 1
201 248 1
201 266 1
201 272 1
201 285 1
201 304 1
201 322 1
201 328 1
201 338 1
201 364 1
201 375 1
201 381 1
202 174 1
202 193 1
202 204 1
202 217 1
202 230 1
202 249 1
202 260 1
202 273 1
202 286 1
202 305 1
202 316 1
202 329 1
202 339 1
202 358 1
202 376 1
202 382 1
203 175 1
203 194 1
203 205 1
203 211 1
203 231 1
203 250 1
203 261 1
203 267 1
203 287 1
203 306 1
203 317 1
203 323 1
203 340 1
203 359 1
203 377 1
203 383 1
204 182 1
204 195 1
204 206 1
204 219 1
204 238 1
204 251 1
204 262 1
204 275 1
204 294 1
204 307 1
204 318 1
204 331 1
204 347 1
204 360 1
204 378 1
204 391 1
205 176 1
205 196 1
205 207 1
205 220 1
205 232 1
205 252 1
205 263 1
205 276 1
205 288 1
205 308 1
205 319 1
205 332 1
205 348 1
205 361 1
205 372 1
205 392 1
206 177 1
206 190 1
206 208 1
206 221 1
206 233 1
206 246 1
206 264 1
206 277 1
206 289 1
206 302 1
206 320 1
206 333 1
206 349 1
206 362 1
206 373 1
206 386 1
207 178 1
207 191 1
207 209 1
207 222 1
207 234 1
207 247 1
207 265 1
207 278 1
207 290 1
207 303 1
207 321 1
207 334 1
207 350 1
207 363 1
207 374 1
207 387 1
208 179 1
208 192 1
208 210 1
208 223 1
208 235 1
208 248 1
208 266 1
208 279 1
208 291 1
208 304 1
208 322 1
208 335 1
208 344 1
208 364 1
208 375 1
208 388 1
209 180 1
209 193 1
209 204 1
209 224 1
209 236 1
209 249 1
209 260 1
209 280 1
209 292 1
209 305 1
209 316 1
209 336 1
209 345 1
209 358 1
209 376 1
209 389 1
210 181 1
210 194 1
210 205 1
210 218 1
210 237 1
210 250 1
210 261 1
210 274 1
210 293 1
210 306 1
210 317 1
210 330 1
210 346 1
210 359 1
210 377 1
210 390 1
211 189 1
211 195 1
211 212 1
211 219 1
211 245 1
211 251 1
211 268 1
211 275 1
211 301 1
211 307 1
211 324 1
211 331 1
211 354 1
211 360 1
211 384 1
211 391 1
212 183 1
212 196 1
212 213 1
212 220 1
212 239 1
212 252 1
212 269 1
212 276 1
212 295 1
212 308 1
212 325 1
212 332 1
212 355 1
212 361 1
212 385 1
212 392 1
213 184 1
213 190 1
213 214 1
213 221 1
213 240 1
213 246 1
213 270 1
213 277 1
213 296 1
213 302 1
213 326 1
213 333 1
213 356 1
213 362 1
213 379 1
213 386 1
214 185 1
214 191 1
214 215 1
214 222 1
214 241 1
214 247 1
214 271 1
214 278 1
214 297 1
214 303 1
214 327 1
214 334 1
214 357 1
214 363 1
214 380 1
214 387 1
215 186 1
215 192 1
215 216 1
215 223 1
215 242 1
215 248 1
215 272 1
215 279 1
215 298 1
215 304 1
215 328 1
215 335 1
215 351 1
215 364 1
215 381 1
215 388 1
216 187 1
216 193 1
216 217 1
216 224 1
216 243 1
216 249 1
216 273 1
216 280 1
216 299 1
216 305 1
216 329 1
216 336 1
216 352 1
216 358 1
216 382 1
216 389 1
217 188 1
217 194 1
217 211 1
217 218 1
217 244 1
217 250 1
217 267 1
217 274 1
217 300 1
217 306 1
217 323 1
217 330 1
217 353 1
217 359 1
217 383 1
217 390 1
218 201 1
218 206 1
218 212 1
218 219 1
218 257 1
218 262 1
218 268 1
218 275 1
218 313 1
218 318 1
218 324 1
218 331 1
218 366 1
218 378 1
218 384 1
218 391 1
219 202 1
219 207 1
219 213 1
219 220 1
219 258 1
219 263 1
219 269 1
219 276 1
219 314 1
219 319 1
219 325 1
219 332 1
219 367 1
219 372 1
219 385 1
219 392 1
220 203 1
220 208 1
220 214 1
220 221 1
220 259 1
220 264 1
220 270 1
220 277 1
220 315 1
220 320 1
220 326 1
220 333 1
220 368 1
220 373 1
220 379 1
220 386 1
221 197 1
221 209 1
221 215 1
221 222 1
221 253 1
221 265 1
221 271 1
221 278 1
221 309 1
221 321 1
221 327 1
221 334 1
221 369 1
221 374 1
221 380 1
221 387 1
222 198 1
222 210 1
222 216 1
222 223 1
222 254 1
222 266 1
222 272 1
222 279 1
222 310 1
222 322 1
222 328 1
222 335 1
222 370 1
222 375 1
222 381 1
222 388 1
223 199 1
223 204 1
223 217 1
223 224 1
223 255 1
223 260 1
223 273 1
223 280 1
223 311 1
223 316 1
223 329 1
223 336 1
223 371 1
223 376 1
223 382 1
223 389 1
224 200 1
224 205 1
224 211 1
224 218 1
224 256 1
224 261 1
224 267 1
224 274 1
224 312 1
224 317 1
224 323 1
224 330 1
224 365 1
224 377 1
224 383 1
224 390 1
