%%MatrixMarket matrix coordinate integer general
306 612 2754
1 1 1
1 52 1
1 69 1
1 103 1
1 154 1
1 171 1
1 307 1
1 358 1
1 375 1
2 2 1
2 53 1
2 70 1
2 104 1
2 155 1
2 172 1
2 308 1
2 359 1
2 376 1
3 3 1
3 54 1
3 71 1
3 105 1
3 156 1
3 173 1
3 309 1
3 360 1
3 377 1
4 4 1
4 55 1
4 72 1
4 106 1
4 157 1
4 174 1
4 310 1
4 361 1
4 378 1
5 5 1
5 56 1
5 73 1
5 107 1
5 158 1
5 175 1
5 311 1
5 362 1
5 379 1
6 6 1
6 57 1
6 74 1
6 108 1
6 159 1
6 176 1
6 312 1
6 363 1
6 380 1
7 7 1
7 58 1
7 75 1
7 109 1
7 160 1
7 177 1
7 313 1
7 364 1
7 381 1
8 8 1
8 59 1
8 76 1
8 110 1
8 161 1
8 178 1
8 314 1
8 365 1
8 382 1
9 9 1
9 60 1
9 77 1
9 111 1
9 162 1
9 179 1
9 315 1
9 366 1
9 383 1
10 10 1
10 61 1
10 78 1
10 112 1
10 163 1
10 180 1
10 316 1
10 367 1
10 384 1
11 11 1
11 62 1
11 79 1
11 113 1
11 164 1
11 181 1
11 317 1
11 368 1
11 385 1
12 12 1
12 63 1
12 80 1
12 114 1
12 165 1
12 182 1
12 318 1
12 369 1
12 386 1
13 13 1
13 64 1
13 81 1
13 115 1
13 166 1
13 183 1
13 319 1
13 370 1
13 387 1
14 14 1
14 65 1
14 82 1
14 116 1
14 167 1
14 184 1
14 320 1
14 371 1
14 388 1
15 15 1
15 66 1
15 83 1
15 117 1
15 168 1
15 185 1
15 321 1
15 372 1
15 389 1
16 16 1
16 67 1
16 84 1
16 118 1
16 169 1
16 186 1
16 322 1
16 373 1
16 390 1
17 17 1
17 68 1
17 85 1
17 119 1
17 170 1
17 187 1
17 323 1
17 374 1
17 391 1
18 18 1
18 52 1
18 86 1
18 120 1
18 154 1
18 188 1
18 324 1
18 358 1
18 392 1
19 19 1
19 53 1
19 87 1
19 121 1
19 155 1
19 189 1
19 325 1
19 359 1
19 393 1
20 20 1
20 54 1
20 88 1
20 122 1
20 156 1
20 190 1
20 326 1
20 360 1
20 394 1
21 21 1
21 55 1
21 89 1
21 123 1
21 157 1
21 191 1
21 327 1
21 361 1
21 395 1
22 22 1
22 56 1
22 90 1
22 124 1
22 158 1
22 192 1
22 328 1
22 362 1
22 396 1
23 23 1
23 57 1
23 91 1
23 125 1
23 159 1
23 193 1
23 329 1
23 363 1
23 397 1
24 24 1
24 58 1
24 92 1
24 126 1
24 160 1
24 194 1
24 330 1
24 364 1
24 398 1
25 25 1
25 59 1
25 93 1
25 127 1
25 161 1
25 195 1
25 331 1
25 365 1
25 399 1
26 26 1
26 60 1
26 94 1
26 128 1
26 162 1
26 196 1
26 332 1
26 366 1
26 400 1
27 27 1
27 61 1
27 95 1
27 129 1
27 163 1
27 197 1
27 333 1
27 367 1
27 401 1
28 28 1
28 62 1
28 96 1
28 130 1
28 164 1
28 198 1
28 334 1
28 368 1
28 402 1
29 29 1
29 63 1
29 97 1
29 131 1
29 165 1
29 199 1
29 335 1
29 369 1
29 403 1
30 30 1
30 64 1
30 98 1
30 132 1
30 166 1
30 200 1
30 336 1
30 370 1
30 404 1
31 31 1
31 65 1
31 99 1
31 133 1
31 167 1
31 201 1
31 337 1
31 371 1
31 405 1
32 32 1
32 66 1
32 100 1
32 134 1
32 168 1
32 202 1
32 338 1
32 372 1
32 406 1
33 33 1
33 67 1
33 101 1
33 135 1
33 169 1
33 203 1
33 339 1
33 373 1
33 407 1
34 34 1
34 68 1
34 102 1
34 136 1
34 170 1
34 204 1
34 340 1
34 374 1
34 408 1
35 35 1
35 69 1
35 86 1
35 137 1
35 171 1
35 188 1
35 341 1
35 375 1
35 392 1
36 36 1
36 70 1
36 87 1
36 138 1
36 172 1
36 189 1
36 342 1
36 376 1
36 393 1
37 37 1
37 71 1
37 88 1
37 139 1
37 173 1
37 190 1
37 343 1
37 377 1
37 394 1
38 38 1
38 72 1
38 89 1
38 140 1
38 174 1
38 191 1
38 344 1
38 378 1
38 395 1
39 39 1
39 73 1
39 90 1
39 141 1
39 175 1
39 192 1
39 345 1
39 379 1
39 396 1
40 40 1
40 74 1
40 91 1
40 142 1
40 176 1
40 193 1
40 346 1
40 380 1
40 397 1
41 41 1
41 75 1
41 92 1
41 143 1
41 177 1
41 194 1
41 347 1
41 381 1
41 398 1
42 42 1
42 76 1
42 93 1
42 144 1
42 178 1
42 195 1
42 348 1
42 382 1
42 399 1
43 43 1
43 77 1
43 94 1
43 145 1
43 179 1
43 196 1
43 349 1
43 383 1
43 400 1
44 44 1
44 78 1
44 95 1
44 146 1
44 180 1
44 197 1
44 350 1
44 384 1
44 401 1
45 45 1
45 79 1
45 96 1
45 147 1
45 181 1
45 198 1
45 351 1
45 385 1
45 402 1
46 46 1
46 80 1
46 97 1
46 148 1
46 182 1
46 199 1
46 352 1
46 386 1
46 403 1
47 47 1
47 81 1
47 98 1
47 149 1
47 183 1
47 200 1
47 353 1
47 387 1
47 404 1
48 48 1
48 82 1
48 99 1
48 150 1
48 184 1
48 201 1
48 354 1
48 388 1
48 405 1
49 49 1
49 83 1
49 100 1
49 151 1
49 185 1
49 202 1
49 355 1
49 389 1
49 406 1
50 50 1
50 84 1
50 101 1
50 152 1
50 186 1
50 203 1
50 356 1
50 390 1
50 407 1
51 51 1
51 85 1
51 102 1
51 153 1
51 187 1
51 204 1
51 357 1
51 391 1
51 408 1
52 1 1
52 52 1
52 69 1
52 205 1
52 256 1
52 273 1
52 409 1
52 460 1
52 477 1
53 2 1
53 53 1
53 70 1
53 206 1
53 257 1
53 274 1
53 410 1
53 461 1
53 478 1
54 3 1
54 54 1
54 71 1
54 207 1
54 258 1
54 275 1
54 411 1
54 462 1
54 479 1
55 4 1
55 55 1
55 72 1
55 208 1
55 259 1
55 276 1
55 412 1
55 463 1
55 480 1
56 5 1
56 56 1
56 73 1
56 209 1
56 260 1
56 277 1
56 413 1
56 464 1
56 481 1
57 6 1
57 57 1
57 74 1
57 210 1
57 261 1
57 278 1
57 414 1
57 465 1
57 482 1
58 7 1
58 58 1
58 75 1
58 211 1
58 262 1
58 279 1
58 415 1
58 466 1
58 483 1
59 8 1
59 59 1
59 76 1
59 212 1
59 263 1
59 280 1
59 416 1
59 467 1
59 484 1
60 9 1
60 60 1
60 77 1
60 213 1
60 264 1
60 281 1
60 417 1
60 468 1
60 485 1
61 10 1
61 61 1
61 78 1
61 214 1
61 265 1
61 282 1
61 418 1
61 469 1
61 486 1
62 11 1
62 62 1
62 79 1
62 215 1
62 266 1
62 283 1
62 419 1
62 470 1
62 487 1
63 12 1
63 63 1
63 80 1
63 216 1
63 267 1
63 284 1
63 420 1
63 471 1
63 488 1
64 13 1
64 64 1
64 81 1
64 217 1
64 268 1
64 285 1
64 421 1
64 472 1
64 489 1
65 14 1
65 65 1
65 82 1
65 218 1
65 269 1
65 286 1
65 422 1
65 473 1
65 490 1
66 15 1
66 66 1
66 83 1
66 219 1
66 270 1
66 287 1
66 423 1
66 474 1
66 491 1
67 16 1
67 67 1
67 84 1
67 220 1
67 271 1
67 288 1
67 424 1
67 475 1
67 492 1
68 17 1
68 68 1
68 85 1
68 221 1
68 272 1
68 289 1
68 425 1
68 476 1
68 493 1
69 18 1
69 52 1
69 86 1
69 222 1
69 256 1
69 290 1
69 426 1
69 460 1
69 494 1
70 19 1
70 53 1
70 87 1
70 223 1
70 257 1
70 291 1
70 427 1
70 461 1
70 495 1
71 20 1
71 54 1
71 88 1
71 224 1
71 258 1
71 292 1
71 428 1
71 462 1
71 496 1
72 21 1
72 55 1
72 89 1
72 225 1
72 259 1
72 293 1
72 429 1
72 463 1
72 497 1
73 22 1
73 56 1
73 90 1
73 226 1
73 260 1
73 294 1
73 430 1
73 464 1
73 498 1
74 23 1
74 57 1
74 91 1
74 227 1
74 261 1
74 295 1
74 431 1
74 465 1
74 499 1
75 24 1
75 58 1
75 92 1
75 228 1
75 262 1
75 296 1
75 432 1
75 466 1
75 500 1
76 25 1
76 59 1
76 93 1
76 229 1
76 263 1
76 297 1
76 433 1
76 467 1
76 501 1
77 26 1
77 60 1
77 94 1
77 230 1
77 264 1
77 298 1
77 434 1
77 468 1
77 502 1
78 27 1
78 61 1
78 95 1
78 231 1
78 265 1
78 299 1
78 435 1
78 469 1
78 503 1
79 28 1
79 62 1
79 96 1
79 232 1
79 266 1
79 300 1
79 436 1
79 470 1
79 504 1
80 29 1
80 63 1
80 97 1
80 233 1
80 267 1
80 301 1
80 437 1
80 471 1
80 505 1
81 30 1
81 64 1
81 98 1
81 234 1
81 268 1
81 302 1
81 438 1
81 472 1
81 506 1
82 31 1
82 65 1
82 99 1
82 235 1
82 269 1
82 303 1
82 439 1
82 473 1
82 507 1
83 32 1
83 66 1
83 100 1
83 236 1
83 270 1
83 304 1
83 440 1
83 474 1
83 508 1
84 33 1
84 67 1
84 101 1
84 237 1
84 271 1
84 305 1
84 441 1
84 475 1
84 509 1
85 34 1
85 68 1
85 102 1
85 238 1
85 272 1
85 306 1
85 442 1
85 476 1
85 510 1
86 35 1
86 69 1
86 86 1
86 239 1
86 273 1
86 290 1
86 443 1
86 477 1
86 494 1
87 36 1
87 70 1
87 87 1
87 240 1
87 274 1
87 291 1
87 444 1
87 478 1
87 495 1
88 37 1
88 71 1
88 88 1
88 241 1
88 275 1
88 292 1
88 445 1
88 479 1
88 496 1
89 38 1
89 72 1
89 89 1
89 242 1
89 276 1
89 293 1
89 446 1
89 480 1
89 497 1
90 39 1
90 73 1
90 90 1
90 243 1
90 277 1
90 294 1
90 447 1
90 481 1
90 498 1
91 40 1
91 74 1
91 91 1
91 244 1
91 278 1
91 295 1
91 448 1
91 482 1
91 499 1
92 41 1
92 75 1
92 92 1
92 245 1
92 279 1
92 296 1
92 449 1
92 483 1
92 500 1
93 42 1
93 76 1
93 93 1
93 246 1
93 280 1
93 297 1
93 450 1
93 484 1
93 501 1
94 43 1
94 77 1
94 94 1
94 247 1
94 281 1
94 298 1
94 451 1
94 485 1
94 502 1
95 44 1
95 78 1
95 95 1
95 248 1
95 282 1
95 299 1
95 452 1
95 486 1
95 503 1
96 45 1
96 79 1
96 96 1
96 249 1
96 283 1
96 300 1
96 453 1
96 487 1
96 504 1
97 46 1
97 80 1
97 97 1
97 250 1
97 284 1
97 301 1
97 454 1
97 488 1
97 505 1
98 47 1
98 81 1
98 98 1
98 251 1
98 285 1
98 302 1
98 455 1
98 489 1
98 506 1
99 48 1
99 82 1
99 99 1
99 252 1
99 286 1
99 303 1
99 456 1
99 490 1
99 507 1
100 49 1
100 83 1
100 100 1
100 253 1
100 287 1
100 304 1
100 457 1
100 491 1
100 508 1
101 50 1
101 84 1
101 101 1
101 254 1
101 288 1
101 305 1
101 458 1
101 492 1
101 509 1
102 51 1
102 85 1
102 102 1
102 255 1
102 289 1
102 306 1
102 459 1
102 493 1
102 510 1
103 103 1
103 154 1
103 171 1
103 205 1
103 256 1
103 273 1
103 511 1
103 562 1
103 579 1
104 104 1
104 155 1
104 172 1
104 206 1
104 257 1
104 274 1
104 512 1
104 563 1
104 580 1
105 105 1
105 156 1
105 173 1
105 207 1
105 258 1
105 275 1
105 513 1
105 564 1
105 581 1
106 106 1
106 157 1
106 174 1
106 208 1
106 259 1
106 276 1
106 514 1
106 565 1
106 582 1
107 107 1
107 158 1
107 175 1
107 209 1
107 260 1
107 277 1
107 515 1
107 566 1
107 583 1
108 108 1
108 159 1
108 176 1
108 210 1
108 261 1
108 278 1
108 516 1
108 567 1
108 584 1
109 109 1
109 160 1
109 177 1
109 211 1
109 262 1
109 279 1
109 517 1
109 568 1
109 585 1
110 110 1
110 161 1
110 178 1
110 212 1
110 263 1
110 280 1
110 518 1
110 569 1
110 586 1
111 111 1
111 162 1
111 179 1
111 213 1
111 264 1
111 281 1
111 519 1
111 570 1
111 587 1
112 112 1
112 163 1
112 180 1
112 214 1
112 265 1
112 282 1
112 520 1
112 571 1
112 588 1
113 113 1
113 164 1
113 181 1
113 215 1
113 266 1
113 283 1
113 521 1
113 572 1
113 589 1
114 114 1
114 165 1
114 182 1
114 216 1
114 267 1
114 284 1
114 522 1
114 573 1
114 590 1
115 115 1
115 166 1
115 183 1
115 217 1
115 268 1
115 285 1
115 523 1
115 574 1
115 591 1
116 116 1
116 167 1
116 184 1
116 218 1
116 269 1
116 286 1
116 524 1
116 575 1
116 592 1
117 117 1
117 168 1
117 185 1
117 219 1
117 270 1
117 287 1
117 525 1
117 576 1
117 593 1
118 118 1
118 169 1
118 186 1
118 220 1
118 271 1
118 288 1
118 526 1
118 577 1
118 594 1
119 119 1
119 170 1
119 187 1
119 221 1
119 272 1
119 289 1
119 527 1
119 578 1
119 595 1
120 120 1
120 154 1
120 188 1
120 222 1
120 256 1
120 290 1
120 528 1
120 562 1
120 596 1
121 121 1
121 155 1
121 189 1
121 223 1
121 257 1
121 291 1
121 529 1
121 563 1
121 597 1
122 122 1
122 156 1
122 190 1
122 224 1
122 258 1
122 292 1
122 530 1
122 564 1
122 598 1
123 123 1
123 157 1
123 191 1
123 225 1
123 259 1
123 293 1
123 531 1
123 565 1
123 599 1
124 124 1
124 158 1
124 192 1
124 226 1
124 260 1
124 294 1
124 532 1
124 566 1
124 600 1
125 125 1
125 159 1
125 193 1
125 227 1
125 261 1
125 295 1
125 533 1
125 567 1
125 601 1
126 126 1
126 160 1
126 194 1
126 228 1
126 262 1
126 296 1
126 534 1
126 568 1
126 602 1
127 127 1
127 161 1
127 195 1
127 229 1
127 263 1
127 297 1
127 535 1
127 569 1
127 603 1
128 128 1
128 162 1
128 196 1
128 230 1
128 264 1
128 298 1
128 536 1
128 570 1
128 604 1
129 129 1
129 163 1
129 197 1
129 231 1
129 265 1
129 299 1
129 537 1
129 571 1
129 605 1
130 130 1
130 164 1
130 198 1
130 232 1
130 266 1
130 300 1
130 538 1
130 572 1
130 606 1
131 131 1
131 165 1
131 199 1
131 233 1
131 267 1
131 301 1
131 539 1
131 573 1
131 607 1
132 132 1
132 166 1
132 200 1
132 234 1
132 268 1
132 302 1
132 540 1
132 574 1
132 608 1
133 133 1
133 167 1
133 201 1
133 235 1
133 269 1
133 303 1
133 541 1
133 575 1
133 609 1
134 134 1
134 168 1
134 202 1
134 236 1
134 270 1
134 304 1
134 542 1
134 576 1
134 610 1
135 135 1
135 169 1
135 203 1
135 237 1
135 271 1
135 305 1
135 543 1
135 577 1
135 611 1
136 136 1
136 170 1
136 204 1
136 238 1
136 272 1
136 306 1
136 544 1
136 578 1
136 612 1
137 137 1
137 171 1
137 188 1
137 239 1
137 273 1
137 290 1
137 545 1
137 579 1
137 596 1
138 138 1
138 172 1
138 189 1
138 240 1
138 274 1
138 291 1
138 546 1
138 580 1
138 597 1
139 139 1
139 173 1
139 190 1
139 241 1
139 275 1
139 292 1
139 547 1
139 581 1
139 598 1
140 140 1
140 174 1
140 191 1
140 242 1
140 276 1
140 293 1
140 548 1
140 582 1
140 599 1
141 141 1
141 175 1
141 192 1
141 243 1
141 277 1
141 294 1
141 549 1
141 583 1
141 600 1
142 142 1
142 176 1
142 193 1
142 244 1
142 278 1
142 295 1
142 550 1
142 584 1
142 601 1
143 143 1
143 177 1
143 194 1
143 245 1
143 279 1
143 296 1
143 551 1
143 585 1
143 602 1
144 144 1
144 178 1
144 195 1
144 246 1
144 280 1
144 297 1
144 552 1
144 586 1
144 603 1
145 145 1
145 179 1
145 196 1
145 247 1
145 281 1
145 298 1
145 553 1
145 587 1
145 604 1
146 146 1
146 180 1
146 197 1
146 248 1
146 282 1
146 299 1
146 554 1
146 588 1
146 605 1
147 147 1
147 181 1
147 198 1
147 249 1
147 283 1
147 300 1
147 555 1
147 589 1
147 606 1
148 148 1
148 182 1
148 199 1
148 250 1
148 284 1
148 301 1
148 556 1
148 590 1
148 607 1
149 149 1
149 183 1
149 200 1
149 251 1
149 285 1
149 302 1
149 557 1
149 591 1
149 608 1
150 150 1
150 184 1
150 201 1
150 252 1
150 286 1
150 303 1
150 558 1
150 592 1
150 609 1
151 151 1
151 185 1
151 202 1
151 253 1
151 287 1
151 304 1
151 559 1
151 593 1
151 610 1
152 152 1
152 186 1
152 203 1
152 254 1
152 288 1
152 305 1
152 560 1
152 594 1
152 611 1
153 153 1
153 187 1
153 204 1
153 255 1
153 289 1
153 306 1
153 561 1
153 595 1
153 612 1
154 1 1
154 61 1
154 76 1
154 119 1
154 162 1
154 177 1
154 323 1
154 366 1
154 381 1
155 2 1
155 62 1
155 77 1
155 103 1
155 163 1
155 178 1
155 307 1
155 367 1
155 382 1
156 3 1
156 63 1
156 78 1
156 104 1
156 164 1
156 179 1
156 308 1
156 368 1
156 383 1
157 4 1
157 64 1
157 79 1
157 105 1
157 165 1
157 180 1
157 309 1
157 369 1
157 384 1
158 5 1
158 65 1
158 80 1
158 106 1
158 166 1
158 181 1
158 310 1
158 370 1
158 385 1
159 6 1
159 66 1
159 81 1
159 107 1
159 167 1
159 182 1
159 311 1
159 371 1
159 386 1
160 7 1
160 67 1
160 82 1
160 108 1
160 168 1
160 183 1
160 312 1
160 372 1
160 387 1
161 8 1
161 68 1
161 83 1
161 109 1
161 169 1
161 184 1
161 313 1
161 373 1
161 388 1
162 9 1
162 52 1
162 84 1
162 110 1
162 170 1
162 185 1
162 314 1
162 374 1
162 389 1
163 10 1
163 53 1
163 85 1
163 111 1
163 154 1
163 186 1
163 315 1
163 358 1
163 390 1
164 11 1
164 54 1
164 69 1
164 112 1
164 155 1
164 187 1
164 316 1
164 359 1
164 391 1
165 12 1
165 55 1
165 70 1
165 113 1
165 156 1
165 171 1
165 317 1
165 360 1
165 375 1
166 13 1
166 56 1
166 71 1
166 114 1
166 157 1
166 172 1
166 318 1
166 361 1
166 376 1
167 14 1
167 57 1
167 72 1
167 115 1
167 158 1
167 173 1
167 319 1
167 362 1
167 377 1
168 15 1
168 58 1
168 73 1
168 116 1
168 159 1
168 174 1
168 320 1
168 363 1
168 378 1
169 16 1
169 59 1
169 74 1
169 117 1
169 160 1
169 175 1
169 321 1
169 364 1
169 379 1
170 17 1
170 60 1
170 75 1
170 118 1
170 161 1
170 176 1
170 322 1
170 365 1
170 380 1
171 34 1
171 61 1
171 89 1
171 135 1
171 162 1
171 190 1
171 339 1
171 366 1
171 394 1
172 18 1
172 62 1
172 90 1
172 136 1
172 163 1
172 191 1
172 340 1
172 367 1
172 395 1
173 19 1
173 63 1
173 91 1
173 120 1
173 164 1
173 192 1
173 324 1
173 368 1
173 396 1
174 20 1
174 64 1
174 92 1
174 121 1
174 165 1
174 193 1
174 325 1
174 369 1
174 397 1
175 21 1
175 65 1
175 93 1
175 122 1
175 166 1
175 194 1
175 326 1
175 370 1
175 398 1
176 22 1
176 66 1
176 94 1
176 123 1
176 167 1
176 195 1
176 327 1
176 371 1
176 399 1
177 23 1
177 67 1
177 95 1
177 124 1
177 168 1
177 196 1
177 328 1
177 372 1
177 400 1
178 24 1
178 68 1
178 96 1
178 125 1
178 169 1
178 197 1
178 329 1
178 373 1
178 401 1
179 25 1
179 52 1
179 97 1
179 126 1
179 170 1
179 198 1
179 330 1
179 374 1
179 402 1
180 26 1
180 53 1
180 98 1
180 127 1
180 154 1
180 199 1
180 331 1
180 358 1
180 403 1
181 27 1
181 54 1
181 99 1
181 128 1
181 155 1
181 200 1
181 332 1
181 359 1
181 404 1
182 28 1
182 55 1
182 100 1
182 129 1
182 156 1
182 201 1
182 333 1
182 360 1
182 405 1
183 29 1
183 56 1
183 101 1
183 130 1
183 157 1
183 202 1
183 334 1
183 361 1
183 406 1
184 30 1
184 57 1
184 102 1
184 131 1
184 158 1
184 203 1
184 335 1
184 362 1
184 407 1
185 31 1
185 58 1
185 86 1
185 132 1
185 159 1
185 204 1
185 336 1
185 363 1
185 408 1
186 32 1
186 59 1
186 87 1
186 133 1
186 160 1
186 188 1
186 337 1
186 364 1
186 392 1
187 33 1
187 60 1
187 88 1
187 134 1
187 161 1
187 189 1
187 338 1
187 365 1
187 393 1
188 48 1
188 76 1
188 89 1
188 149 1
188 177 1
188 190 1
188 353 1
188 381 1
188 394 1
189 49 1
189 77 1
189 90 1
189 150 1
189 178 1
189 191 1
189 354 1
189 382 1
189 395 1
190 50 1
190 78 1
190 91 1
190 151 1
190 179 1
190 192 1
190 355 1
190 383 1
190 396 1
191 51 1
191 79 1
191 92 1
191 152 1
191 180 1
191 193 1
191 356 1
191 384 1
191 397 1
192 35 1
192 80 1
192 93 1
192 153 1
192 181 1
192 194 1
192 357 1
192 385 1
192 398 1
193 36 1
193 81 1
193 94 1
193 137 1
193 182 1
193 195 1
193 341 1
193 386 1
193 399 1
194 37 1
194 82 1
194 95 1
194 138 1
194 183 1
194 196 1
194 342 1
194 387 1
194 400 1
195 38 1
195 83 1
195 96 1
195 139 1
195 184 1
195 197 1
195 343 1
195 388 1
195 401 1
196 39 1
196 84 1
196 97 1
196 140 1
196 185 1
196 198 1
196 344 1
196 389 1
196 402 1
197 40 1
197 85 1
197 98 1
197 141 1
197 186 1
197 199 1
197 345 1
197 390 1
197 403 1
198 41 1
198 69 1
198 99 1
198 142 1
198 187 1
198 200 1
198 346 1
198 391 1
198 404 1
199 42 1
199 70 1
199 100 1
199 143 1
199 171 1
199 201 1
199 347 1
199 375 1
199 405 1
200 43 1
200 71 1
200 101 1
200 144 1
200 172 1
200 202 1
200 348 1
200 376 1
200 406 1
201 44 1
201 72 1
201 102 1
201 145 1
201 173 1
201 203 1
201 349 1
201 377 1
201 407 1
202 45 1
202 73 1
202 86 1
202 146 1
202 174 1
202 204 1
202 350 1
202 378 1
202 408 1
203 46 1
203 74 1
203 87 1
203 147 1
203 175 1
203 188 1
203 351 1
203 379 1
203 392 1
204 47 1
204 75 1
204 88 1
204 148 1
204 176 1
204 189 1
204 352 1
204 380 1
204 393 1
205 1 1
205 61 1
205 76 1
205 221 1
205 264 1
205 279 1
205 425 1
205 468 1
205 483 1
206 2 1
206 62 1
206 77 1
206 205 1
206 265 1
206 280 1
206 409 1
206 469 1
206 484 1
207 3 1
207 63 1
207 78 1
207 206 1
207 266 1
207 281 1
207 410 1
207 470 1
207 485 1
208 4 1
208 64 1
208 79 1
208 207 1
208 267 1
208 282 1
208 411 1
208 471 1
208 486 1
209 5 1
209 65 1
209 80 1
209 208 1
209 268 1
209 283 1
209 412 1
209 472 1
209 487 1
210 6 1
210 66 1
210 81 1
210 209 1
210 269 1
210 284 1
210 413 1
210 473 1
210 488 1
211 7 1
211 67 1
211 82 1
211 210 1
211 270 1
211 285 1
211 414 1
211 474 1
211 489 1
212 8 1
212 68 1
212 83 1
212 211 1
212 271 1
212 286 1
212 415 1
212 475 1
212 490 1
213 9 1
213 52 1
213 84 1
213 212 1
213 272 1
213 287 1
213 416 1
213 476 1
213 491 1
214 10 1
214 53 1
214 85 1
214 213 1
214 256 1
214 288 1
214 417 1
214 460 1
214 492 1
215 11 1
215 54 1
215 69 1
215 214 1
215 257 1
215 289 1
215 418 1
215 461 1
215 493 1
216 12 1
216 55 1
216 70 1
216 215 1
216 258 1
216 273 1
216 419 1
216 462 1
216 477 1
217 13 1
217 56 1
217 71 1
217 216 1
217 259 1
217 274 1
217 420 1
217 463 1
217 478 1
218 14 1
218 57 1
218 72 1
218 217 1
218 260 1
218 275 1
218 421 1
218 464 1
218 479 1
219 15 1
219 58 1
219 73 1
219 218 1
219 261 1
219 276 1
219 422 1
219 465 1
219 480 1
220 16 1
220 59 1
220 74 1
220 219 1
220 262 1
220 277 1
220 423 1
220 466 1
220 481 1
221 17 1
221 60 1
221 75 1
221 220 1
221 263 1
221 278 1
221 424 1
221 467 1
221 482 1
222 34 1
222 61 1
222 89 1
222 237 1
222 264 1
222 292 1
222 441 1
222 468 1
222 496 1
223 18 1
223 62 1
223 90 1
223 238 1
223 265 1
223 293 1
223 442 1
223 469 1
223 497 1
224 19 1
224 63 1
224 91 1
224 222 1
224 266 1
224 294 1
224 426 1
224 470 1
224 498 1
225 20 1
225 64 1
225 92 1
225 223 1
225 267 1
225 295 1
225 427 1
225 471 1
225 499 1
226 21 1
226 65 1
226 93 1
226 224 1
226 268 1
226 296 1
226 428 1
226 472 1
226 500 1
227 22 1
227 66 1
227 94 1
227 225 1
227 269 1
227 297 1
227 429 1
227 473 1
227 501 1
228 23 1
228 67 1
228 95 1
228 226 1
228 270 1
228 298 1
228 430 1
228 474 1
228 502 1
229 24 1
229 68 1
229 96 1
229 227 1
229 271 1
229 299 1
229 431 1
229 475 1
229 503 1
230 25 1
230 52 1
230 97 1
230 228 1
230 272 1
230 300 1
230 432 1
230 476 1
230 504 1
231 26 1
231 53 1
231 98 1
231 229 1
231 256 1
231 301 1
231 433 1
231 460 1
231 505 1
232 27 1
232 54 1
232 99 1
232 230 1
232 257 1
232 302 1
232 434 1
232 461 1
232 506 1
233 28 1
233 55 1
233 100 1
233 231 1
233 258 1
233 303 1
233 435 1
233 462 1
233 507 1
234 29 1
234 56 1
234 101 1
234 232 1
234 259 1
234 304 1
234 436 1
234 463 1
234 508 1
235 30 1
235 57 1
235 102 1
235 233 1
235 260 1
235 305 1
235 437 1
235 464 1
235 509 1
236 31 1
236 58 1
236 86 1
236 234 1
236 261 1
236 306 1
236 438 1
236 465 1
236 510 1
237 32 1
237 59 1
237 87 1
237 235 1
237 262 1
237 290 1
237 439 1
237 466 1
237 494 1
238 33 1
238 60 1
238 88 1
238 236 1
238 263 1
238 291 1
238 440 1
238 467 1
238 495 1
239 48 1
239 76 1
239 89 1
239 251 1
239 279 1
239 292 1
239 455 1
239 483 1
239 496 1
240 49 1
240 77 1
240 90 1
240 252 1
240 280 1
240 293 1
240 456 1
240 484 1
240 497 1
241 50 1
241 78 1
241 91 1
241 253 1
241 281 1
241 294 1
241 457 1
241 485 1
241 498 1
242 51 1
242 79 1
242 92 1
242 254 1
242 282 1
242 295 1
242 458 1
242 486 1
242 499 1
243 35 1
243 80 1
243 93 1
243 255 1
243 283 1
243 296 1
243 459 1
243 487 1
243 500 1
244 36 1
244 81 1
244 94 1
244 239 1
244 284 1
244 297 1
244 443 1
244 488 1
244 501 1
245 37 1
245 82 1
245 95 1
245 240 1
245 285 1
245 298 1
245 444 1
245 489 1
245 502 1
246 38 1
246 83 1
246 96 1
246 241 1
246 286 1
246 299 1
246 445 1
246 490 1
246 503 1
247 39 1
247 84 1
247 97 1
247 242 1
247 287 1
247 300 1
247 446 1
247 491 1
247 504 1
248 40 1
248 85 1
248 98 1
248 243 1
248 288 1
248 301 1
248 447 1
248 492 1
248 505 1
249 41 1
249 69 1
249 99 1
249 244 1
249 289 1
249 302 1
249 448 1
249 493 1
249 506 1
250 42 1
250 70 1
250 100 1
250 245 1
250 273 1
250 303 1
250 449 1
250 477 1
250 507 1
251 43 1
251 71 1
251 101 1
251 246 1
251 274 1
251 304 1
251 450 1
251 478 1
251 508 1
252 44 1
252 72 1
252 102 1
252 247 1
252 275 1
252 305 1
252 451 1
252 479 1
252 509 1
253 45 1
253 73 1
253 86 1
253 248 1
253 276 1
253 306 1
253 452 1
253 480 1
253 510 1
254 46 1
254 74 1
254 87 1
254 249 1
254 277 1
254 290 1
254 453 1
254 481 1
254 494 1
255 47 1
255 75 1
255 88 1
255 250 1
255 278 1
255 291 1
255 454 1
255 482 1
255 495 1
256 119 1
256 162 1
256 177 1
256 221 1
256 264 1
256 279 1
256 527 1
256 570 1
256 585 1
257 103 1
257 163 1
257 178 1
257 205 1
257 265 1
257 280 1
257 511 1
257 571 1
257 586 1
258 104 1
258 164 1
258 179 1
258 206 1
258 266 1
258 281 1
258 512 1
258 572 1
258 587 1
259 105 1
259 165 1
259 180 1
259 207 1
259 267 1
259 282 1
259 513 1
259 573 1
259 588 1
260 106 1
260 166 1
260 181 1
260 208 1
260 268 1
260 283 1
260 514 1
260 574 1
260 589 1
261 107 1
261 167 1
261 182 1
261 209 1
261 269 1
261 284 1
261 515 1
261 575 1
261 590 1
262 108 1
262 168 1
262 183 1
262 210 1
262 270 1
262 285 1
262 516 1
262 576 1
262 591 1
263 109 1
263 169 1
263 184 1
263 211 1
263 271 1
263 286 1
263 517 1
263 577 1
263 592 1
264 110 1
264 170 1
264 185 1
264 212 1
264 272 1
264 287 1
264 518 1
264 578 1
264 593 1
265 111 1
265 154 1
265 186 1
265 213 1
265 256 1
265 288 1
265 519 1
265 562 1
265 594 1
266 112 1
266 155 1
266 187 1
266 214 1
266 257 1
266 289 1
266 520 1
266 563 1
266 595 1
267 113 1
267 156 1
267 171 1
267 215 1
267 258 1
267 273 1
267 521 1
267 564 1
267 579 1
268 114 1
268 157 1
268 172 1
268 216 1
268 259 1
268 274 1
268 522 1
268 565 1
268 580 1
269 115 1
269 158 1
269 173 1
269 217 1
269 260 1
269 275 1
269 523 1
269 566 1
269 581 1
270 116 1
270 159 1
270 174 1
270 218 1
270 261 1
270 276 1
270 524 1
270 567 1
270 582 1
271 117 1
271 160 1
271 175 1
271 219 1
271 262 1
271 277 1
271 525 1
271 568 1
271 583 1
272 118 1
272 161 1
272 176 1
272 220 1
272 263 1
272 278 1
272 526 1
272 569 1
272 584 1
273 135 1
273 162 1
273 190 1
273 237 1
273 264 1
273 292 1
273 543 1
273 570 1
273 598 1
274 136 1
274 163 1
274 191 1
274 238 1
274 265 1
274 293 1
274 544 1
274 571 1
274 599 1
275 120 1
275 164 1
275 192 1
275 222 1
275 266 1
275 294 1
275 528 1
275 572 1
275 600 1
276 121 1
276 165 1
276 193 1
276 223 1
276 267 1
276 295 1
276 529 1
276 573 1
276 601 1
277 122 1
277 166 1
277 194 1
277 224 1
277 268 1
277 296 1
277 530 1
277 574 1
277 602 1
278 123 1
278 167 1
278 195 1
278 225 1
278 269 1
278 297 1
278 531 1
278 575 1
278 603 1
279 124 1
279 168 1
279 196 1
279 226 1
279 270 1
279 298 1
279 532 1
279 576 1
279 604 1
280 125 1
280 169 1
280 197 1
280 227 1
280 271 1
280 299 1
280 533 1
280 577 1
280 605 1
281 126 1
281 170 1
281 198 1
281 228 1
281 272 1
281 300 1
281 534 1
281 578 1
281 606 1
282 127 1
282 154 1
282 199 1
282 229 1
282 256 1
282 301 1
282 535 1
282 562 1
282 607 1
283 128 1
283 155 1
283 200 1
283 230 1
283 257 1
283 302 1
283 536 1
283 563 1
283 608 1
284 129 1
284 156 1
284 201 1
284 231 1
284 258 1
284 303 1
284 537 1
284 564 1
284 609 1
285 130 1
285 157 1
285 202 1
285 232 1
285 259 1
285 304 1
285 538 1
285 565 1
285 610 1
286 131 1
286 158 1
286 203 1
286 233 1
286 260 1
286 305 1
286 539 1
286 566 1
286 611 1
287 132 1
287 159 1
287 204 1
287 234 1
287 261 1
287 306 1
287 540 1
287 567 1
287 612 1
288 133 1
288 160 1
288 188 1
288 235 1
288 262 1
288 290 1
288 541 1
288 568 1
288 596 1
289 134 1
289 161 1
289 189 1
289 236 1
289 263 1
289 291 1
289 542 1
289 569 1
289 597 1
290 149 1
290 177 1
290 190 1
290 251 1
290 279 1
290 292 1
290 557 1
290 585 1
290 598 1
291 150 1
291 178 1
291 191 1
291 252 1
291 280 1
291 293 1
291 558 1
291 586 1
291 599 1
292 151 1
292 179 1
292 192 1
292 253 1
292 281 1
292 294 1
292 559 1
292 587 1
292 600 1
293 152 1
293 180 1
293 193 1
293 254 1
293 282 1
293 295 1
293 560 1
293 588 1
293 601 1
294 153 1
294 181 1
294 194 1
294 255 1
294 283 1
294 296 1
294 561 1
294 589 1
294 602 1
295 137 1
295 182 1
295 195 1
295 239 1
295 284 1
295 297 1
295 545 1
295 590 1
295 603 1
296 138 1
296 183 1
296 196 1
296 240 1
296 285 1
296 298 1
296 546 1
296 591 1
296 604 1
297 139 1
297 184 1
297 197 1
297 241 1
297 286 1
297 299 1
297 547 1
297 592 1
297 605 1
298 140 1
298 185 1
298 198 1
298 242 1
298 287 1
298 300 1
298 548 1
298 593 1
298 606 1
299 141 1
299 186 1
299 199 1
299 243 1
299 288 1
299 301 1
299 549 1
299 594 1
299 607 1
300 142 1
300 187 1
300 200 1
300 244 1
300 289 1
300 302 1
300 550 1
300 595 1
300 608 1
301 143 1
301 171 1
301 201 1
301 245 1
301 273 1
301 303 1
301 551 1
301 579 1
301 609 1
302 144 1
302 172 1
302 202 1
302 246 1
302 274 1
302 304 1
302 552 1
302 580 1
302 610 1
303 145 1
303 173 1
303 203 1
303 247 1
303 275 1
303 305 1
303 553 1
303 581 1
303 611 1
304 146 1
304 174 1
304 204 1
304 248 1
304 276 1
304 306 1
304 554 1
304 582 1
304 612 1
305 147 1
305 175 1
305 188 1
305 249 1
305 277 1
305 290 1
305 555 1
305 583 1
305 596 1
306 148 1
306 176 1
306 189 1
306 250 1
306 278 1
306 291 1
306 556 1
306 584 1
306 597 1
