%%MatrixMarket matrix coordinate integer general
288 576 2592
1 1 1
1 23 1
1 88 1
1 289 1
1 311 1
1 376 1
1 385 1
1 407 1
1 472 1
2 2 1
2 17 1
2 91 1
2 290 1
2 305 1
2 379 1
2 386 1
2 401 1
2 475 1
3 3 1
3 28 1
3 93 1
3 291 1
3 316 1
3 381 1
3 387 1
3 412 1
3 477 1
4 4 1
4 18 1
4 94 1
4 292 1
4 306 1
4 382 1
4 388 1
4 402 1
4 478 1
5 5 1
5 30 1
5 82 1
5 293 1
5 318 1
5 370 1
5 389 1
5 414 1
5 466 1
6 6 1
6 19 1
6 95 1
6 294 1
6 307 1
6 383 1
6 390 1
6 403 1
6 479 1
7 7 1
7 20 1
7 85 1
7 295 1
7 308 1
7 373 1
7 391 1
7 404 1
7 469 1
8 8 1
8 21 1
8 84 1
8 296 1
8 309 1
8 372 1
8 392 1
8 405 1
8 468 1
9 9 1
9 22 1
9 96 1
9 297 1
9 310 1
9 384 1
9 393 1
9 406 1
9 480 1
10 10 1
10 32 1
10 86 1
10 298 1
10 320 1
10 374 1
10 394 1
10 416 1
10 470 1
11 11 1
11 24 1
11 87 1
11 299 1
11 312 1
11 375 1
11 395 1
11 408 1
11 471 1
12 12 1
12 25 1
12 90 1
12 300 1
12 313 1
12 378 1
12 396 1
12 409 1
12 474 1
13 13 1
13 26 1
13 89 1
13 301 1
13 314 1
13 377 1
13 397 1
13 410 1
13 473 1
14 14 1
14 27 1
14 81 1
14 302 1
14 315 1
14 369 1
14 398 1
14 411 1
14 465 1
15 15 1
15 29 1
15 92 1
15 303 1
15 317 1
15 380 1
15 399 1
15 413 1
15 476 1
16 16 1
16 31 1
16 83 1
16 304 1
16 319 1
16 371 1
16 400 1
16 415 1
16 467 1
17 1 1
17 51 1
17 77 1
17 289 1
17 339 1
17 365 1
17 385 1
17 435 1
17 461 1
18 2 1
18 54 1
18 79 1
18 290 1
18 342 1
18 367 1
18 386 1
18 438 1
18 463 1
19 3 1
19 53 1
19 66 1
19 291 1
19 341 1
19 354 1
19 387 1
19 437 1
19 450 1
20 4 1
20 57 1
20 80 1
20 292 1
20 345 1
20 368 1
20 388 1
20 441 1
20 464 1
21 5 1
21 58 1
21 70 1
21 293 1
21 346 1
21 358 1
21 389 1
21 442 1
21 454 1
22 6 1
22 56 1
22 68 1
22 294 1
22 344 1
22 356 1
22 390 1
22 440 1
22 452 1
23 7 1
23 60 1
23 74 1
23 295 1
23 348 1
23 362 1
23 391 1
23 444 1
23 458 1
24 8 1
24 61 1
24 73 1
24 296 1
24 349 1
24 361 1
24 392 1
24 445 1
24 457 1
25 9 1
25 59 1
25 71 1
25 297 1
25 347 1
25 359 1
25 393 1
25 443 1
25 455 1
26 10 1
26 49 1
26 72 1
26 298 1
26 337 1
26 360 1
26 394 1
26 433 1
26 456 1
27 11 1
27 63 1
27 76 1
27 299 1
27 351 1
27 364 1
27 395 1
27 447 1
27 460 1
28 12 1
28 62 1
28 65 1
28 300 1
28 350 1
28 353 1
28 396 1
28 446 1
28 449 1
29 13 1
29 50 1
29 75 1
29 301 1
29 338 1
29 363 1
29 397 1
29 434 1
29 459 1
30 14 1
30 64 1
30 67 1
30 302 1
30 352 1
30 355 1
30 398 1
30 448 1
30 451 1
31 15 1
31 52 1
31 78 1
31 303 1
31 340 1
31 366 1
31 399 1
31 436 1
31 462 1
32 16 1
32 55 1
32 69 1
32 304 1
32 343 1
32 357 1
32 400 1
32 439 1
32 453 1
33 23 1
33 34 1
33 51 1
33 311 1
33 322 1
33 339 1
33 407 1
33 418 1
33 435 1
34 17 1
34 36 1
34 54 1
34 305 1
34 324 1
34 342 1
34 401 1
34 420 1
34 438 1
35 28 1
35 38 1
35 53 1
35 316 1
35 326 1
35 341 1
35 412 1
35 422 1
35 437 1
36 18 1
36 39 1
36 57 1
36 306 1
36 327 1
36 345 1
36 402 1
36 423 1
36 441 1
37 30 1
37 40 1
37 58 1
37 318 1
37 328 1
37 346 1
37 414 1
37 424 1
37 442 1
38 19 1
38 41 1
38 56 1
38 307 1
38 329 1
38 344 1
38 403 1
38 425 1
38 440 1
39 20 1
39 33 1
39 60 1
39 308 1
39 321 1
39 348 1
39 404 1
39 417 1
39 444 1
40 21 1
40 43 1
40 61 1
40 309 1
40 331 1
40 349 1
40 405 1
40 427 1
40 445 1
41 22 1
41 44 1
41 59 1
41 310 1
41 332 1
41 347 1
41 406 1
41 428 1
41 443 1
42 32 1
42 45 1
42 49 1
42 320 1
42 333 1
42 337 1
42 416 1
42 429 1
42 433 1
43 24 1
43 46 1
43 63 1
43 312 1
43 334 1
43 351 1
43 408 1
43 430 1
43 447 1
44 25 1
44 35 1
44 62 1
44 313 1
44 323 1
44 350 1
44 409 1
44 419 1
44 446 1
45 26 1
45 47 1
45 50 1
45 314 1
45 335 1
45 338 1
45 410 1
45 431 1
45 434 1
46 27 1
46 37 1
46 64 1
46 315 1
46 325 1
46 352 1
46 411 1
46 421 1
46 448 1
47 29 1
47 48 1
47 52 1
47 317 1
47 336 1
47 340 1
47 413 1
47 432 1
47 436 1
48 31 1
48 42 1
48 55 1
48 319 1
48 330 1
48 343 1
48 415 1
48 426 1
48 439 1
49 97 1
49 119 1
49 184 1
49 289 1
49 311 1
49 376 1
49 481 1
49 503 1
49 568 1
50 98 1
50 113 1
50 187 1
50 290 1
50 305 1
50 379 1
50 482 1
50 497 1
50 571 1
51 99 1
51 124 1
51 189 1
51 291 1
51 316 1
51 381 1
51 483 1
51 508 1
51 573 1
52 100 1
52 114 1
52 190 1
52 292 1
52 306 1
52 382 1
52 484 1
52 498 1
52 574 1
53 101 1
53 126 1
53 178 1
53 293 1
53 318 1
53 370 1
53 485 1
53 510 1
53 562 1
54 102 1
54 115 1
54 191 1
54 294 1
54 307 1
54 383 1
54 486 1
54 499 1
54 575 1
55 103 1
55 116 1
55 181 1
55 295 1
55 308 1
55 373 1
55 487 1
55 500 1
55 565 1
56 104 1
56 117 1
56 180 1
56 296 1
56 309 1
56 372 1
56 488 1
56 501 1
56 564 1
57 105 1
57 118 1
57 192 1
57 297 1
57 310 1
57 384 1
57 489 1
57 502 1
57 576 1
58 106 1
58 128 1
58 182 1
58 298 1
58 320 1
58 374 1
58 490 1
58 512 1
58 566 1
59 107 1
59 120 1
59 183 1
59 299 1
59 312 1
59 375 1
59 491 1
59 504 1
59 567 1
60 108 1
60 121 1
60 186 1
60 300 1
60 313 1
60 378 1
60 492 1
60 505 1
60 570 1
61 109 1
61 122 1
61 185 1
61 301 1
61 314 1
61 377 1
61 493 1
61 506 1
61 569 1
62 110 1
62 123 1
62 177 1
62 302 1
62 315 1
62 369 1
62 494 1
62 507 1
62 561 1
63 111 1
63 125 1
63 188 1
63 303 1
63 317 1
63 380 1
63 495 1
63 509 1
63 572 1
64 112 1
64 127 1
64 179 1
64 304 1
64 319 1
64 371 1
64 496 1
64 511 1
64 563 1
65 97 1
65 147 1
65 173 1
65 289 1
65 339 1
65 365 1
65 481 1
65 531 1
65 557 1
66 98 1
66 150 1
66 175 1
66 290 1
66 342 1
66 367 1
66 482 1
66 534 1
66 559 1
67 99 1
67 149 1
67 162 1
67 291 1
67 341 1
67 354 1
67 483 1
67 533 1
67 546 1
68 100 1
68 153 1
68 176 1
68 292 1
68 345 1
68 368 1
68 484 1
68 537 1
68 560 1
69 101 1
69 154 1
69 166 1
69 293 1
69 346 1
69 358 1
69 485 1
69 538 1
69 550 1
70 102 1
70 152 1
70 164 1
70 294 1
70 344 1
70 356 1
70 486 1
70 536 1
70 548 1
71 103 1
71 156 1
71 170 1
71 295 1
71 348 1
71 362 1
71 487 1
71 540 1
71 554 1
72 104 1
72 157 1
72 169 1
72 296 1
72 349 1
72 361 1
72 488 1
72 541 1
72 553 1
73 105 1
73 155 1
73 167 1
73 297 1
73 347 1
73 359 1
73 489 1
73 539 1
73 551 1
74 106 1
74 145 1
74 168 1
74 298 1
74 337 1
74 360 1
74 490 1
74 529 1
74 552 1
75 107 1
75 159 1
75 172 1
75 299 1
75 351 1
75 364 1
75 491 1
75 543 1
75 556 1
76 108 1
76 158 1
76 161 1
76 300 1
76 350 1
76 353 1
76 492 1
76 542 1
76 545 1
77 109 1
77 146 1
77 171 1
77 301 1
77 338 1
77 363 1
77 493 1
77 530 1
77 555 1
78 110 1
78 160 1
78 163 1
78 302 1
78 352 1
78 355 1
78 494 1
78 544 1
78 547 1
79 111 1
79 148 1
79 174 1
79 303 1
79 340 1
79 366 1
79 495 1
79 532 1
79 558 1
80 112 1
80 151 1
80 165 1
80 304 1
80 343 1
80 357 1
80 496 1
80 535 1
80 549 1
81 119 1
81 130 1
81 147 1
81 311 1
81 322 1
81 339 1
81 503 1
81 514 1
81 531 1
82 113 1
82 132 1
82 150 1
82 305 1
82 324 1
82 342 1
82 497 1
82 516 1
82 534 1
83 124 1
83 134 1
83 149 1
83 316 1
83 326 1
83 341 1
83 508 1
83 518 1
83 533 1
84 114 1
84 135 1
84 153 1
84 306 1
84 327 1
84 345 1
84 498 1
84 519 1
84 537 1
85 126 1
85 136 1
85 154 1
85 318 1
85 328 1
85 346 1
85 510 1
85 520 1
85 538 1
86 115 1
86 137 1
86 152 1
86 307 1
86 329 1
86 344 1
86 499 1
86 521 1
86 536 1
87 116 1
87 129 1
87 156 1
87 308 1
87 321 1
87 348 1
87 500 1
87 513 1
87 540 1
88 117 1
88 139 1
88 157 1
88 309 1
88 331 1
88 349 1
88 501 1
88 523 1
88 541 1
89 118 1
89 140 1
89 155 1
89 310 1
89 332 1
89 347 1
89 502 1
89 524 1
89 539 1
90 128 1
90 141 1
90 145 1
90 320 1
90 333 1
90 337 1
90 512 1
90 525 1
90 529 1
91 120 1
91 142 1
91 159 1
91 312 1
91 334 1
91 351 1
91 504 1
91 526 1
91 543 1
92 121 1
92 131 1
92 158 1
92 313 1
92 323 1
92 350 1
92 505 1
92 515 1
92 542 1
93 122 1
93 143 1
93 146 1
93 314 1
93 335 1
93 338 1
93 506 1
93 527 1
93 530 1
94 123 1
94 133 1
94 160 1
94 315 1
94 325 1
94 352 1
94 507 1
94 517 1
94 544 1
95 125 1
95 144 1
95 148 1
95 317 1
95 336 1
95 340 1
95 509 1
95 528 1
95 532 1
96 127 1
96 138 1
96 151 1
96 319 1
96 330 1
96 343 1
96 511 1
96 522 1
96 535 1
97 193 1
97 215 1
97 280 1
97 385 1
97 407 1
97 472 1
97 481 1
97 503 1
97 568 1
98 194 1
98 209 1
98 283 1
98 386 1
98 401 1
98 475 1
98 482 1
98 497 1
98 571 1
99 195 1
99 220 1
99 285 1
99 387 1
99 412 1
99 477 1
99 483 1
99 508 1
99 573 1
100 196 1
100 210 1
100 286 1
100 388 1
100 402 1
100 478 1
100 484 1
100 498 1
100 574 1
101 197 1
101 222 1
101 274 1
101 389 1
101 414 1
101 466 1
101 485 1
101 510 1
101 562 1
102 198 1
102 211 1
102 287 1
102 390 1
102 403 1
102 479 1
102 486 1
102 499 1
102 575 1
103 199 1
103 212 1
103 277 1
103 391 1
103 404 1
103 469 1
103 487 1
103 500 1
103 565 1
104 200 1
104 213 1
104 276 1
104 392 1
104 405 1
104 468 1
104 488 1
104 501 1
104 564 1
105 201 1
105 214 1
105 288 1
105 393 1
105 406 1
105 480 1
105 489 1
105 502 1
105 576 1
106 202 1
106 224 1
106 278 1
106 394 1
106 416 1
106 470 1
106 490 1
106 512 1
106 566 1
107 203 1
107 216 1
107 279 1
107 395 1
107 408 1
107 471 1
107 491 1
107 504 1
107 567 1
108 204 1
108 217 1
108 282 1
108 396 1
108 409 1
108 474 1
108 492 1
108 505 1
108 570 1
109 205 1
109 218 1
109 281 1
109 397 1
109 410 1
109 473 1
109 493 1
109 506 1
109 569 1
110 206 1
110 219 1
110 273 1
110 398 1
110 411 1
110 465 1
110 494 1
110 507 1
110 561 1
111 207 1
111 221 1
111 284 1
111 399 1
111 413 1
111 476 1
111 495 1
111 509 1
111 572 1
112 208 1
112 223 1
112 275 1
112 400 1
112 415 1
112 467 1
112 496 1
112 511 1
112 563 1
113 193 1
113 243 1
113 269 1
113 385 1
113 435 1
113 461 1
113 481 1
113 531 1
113 557 1
114 194 1
114 246 1
114 271 1
114 386 1
114 438 1
114 463 1
114 482 1
114 534 1
114 559 1
115 195 1
115 245 1
115 258 1
115 387 1
115 437 1
115 450 1
115 483 1
115 533 1
115 546 1
116 196 1
116 249 1
116 272 1
116 388 1
116 441 1
116 464 1
116 484 1
116 537 1
116 560 1
117 197 1
117 250 1
117 262 1
117 389 1
117 442 1
117 454 1
117 485 1
117 538 1
117 550 1
118 198 1
118 248 1
118 260 1
118 390 1
118 440 1
118 452 1
118 486 1
118 536 1
118 548 1
119 199 1
119 252 1
119 266 1
119 391 1
119 444 1
119 458 1
119 487 1
119 540 1
119 554 1
120 200 1
120 253 1
120 265 1
120 392 1
120 445 1
120 457 1
120 488 1
120 541 1
120 553 1
121 201 1
121 251 1
121 263 1
121 393 1
121 443 1
121 455 1
121 489 1
121 539 1
121 551 1
122 202 1
122 241 1
122 264 1
122 394 1
122 433 1
122 456 1
122 490 1
122 529 1
122 552 1
123 203 1
123 255 1
123 268 1
123 395 1
123 447 1
123 460 1
123 491 1
123 543 1
123 556 1
124 204 1
124 254 1
124 257 1
124 396 1
124 446 1
124 449 1
124 492 1
124 542 1
124 545 1
125 205 1
125 242 1
125 267 1
125 397 1
125 434 1
125 459 1
125 493 1
125 530 1
125 555 1
126 206 1
126 256 1
126 259 1
126 398 1
126 448 1
126 451 1
126 494 1
126 544 1
126 547 1
127 207 1
127 244 1
127 270 1
127 399 1
127 436 1
127 462 1
127 495 1
127 532 1
127 558 1
128 208 1
128 247 1
128 261 1
128 400 1
128 439 1
128 453 1
128 496 1
128 535 1
128 549 1
129 215 1
129 226 1
129 243 1
129 407 1
129 418 1
129 435 1
129 503 1
129 514 1
129 531 1
130 209 1
130 228 1
130 246 1
130 401 1
130 420 1
130 438 1
130 497 1
130 516 1
130 534 1
131 220 1
131 230 1
131 245 1
131 412 1
131 422 1
131 437 1
131 508 1
131 518 1
131 533 1
132 210 1
132 231 1
132 249 1
132 402 1
132 423 1
132 441 1
132 498 1
132 519 1
132 537 1
133 222 1
133 232 1
133 250 1
133 414 1
133 424 1
133 442 1
133 510 1
133 520 1
133 538 1
134 211 1
134 233 1
134 248 1
134 403 1
134 425 1
134 440 1
134 499 1
134 521 1
134 536 1
135 212 1
135 225 1
135 252 1
135 404 1
135 417 1
135 444 1
135 500 1
135 513 1
135 540 1
136 213 1
136 235 1
136 253 1
136 405 1
136 427 1
136 445 1
136 501 1
136 523 1
136 541 1
137 214 1
137 236 1
137 251 1
137 406 1
137 428 1
137 443 1
137 502 1
137 524 1
137 539 1
138 224 1
138 237 1
138 241 1
138 416 1
138 429 1
138 433 1
138 512 1
138 525 1
138 529 1
139 216 1
139 238 1
139 255 1
139 408 1
139 430 1
139 447 1
139 504 1
139 526 1
139 543 1
140 217 1
140 227 1
140 254 1
140 409 1
140 419 1
140 446 1
140 505 1
140 515 1
140 542 1
141 218 1
141 239 1
141 242 1
141 410 1
141 431 1
141 434 1
141 506 1
141 527 1
141 530 1
142 219 1
142 229 1
142 256 1
142 411 1
142 421 1
142 448 1
142 507 1
142 517 1
142 544 1
143 221 1
143 240 1
143 244 1
143 413 1
143 432 1
143 436 1
143 509 1
143 528 1
143 532 1
144 223 1
144 234 1
144 247 1
144 415 1
144 426 1
144 439 1
144 511 1
144 522 1
144 535 1
145 1 1
145 17 1
145 49 1
145 396 1
145 412 1
145 444 1
145 492 1
145 508 1
145 540 1
146 2 1
146 18 1
146 50 1
146 387 1
146 403 1
146 435 1
146 483 1
146 499 1
146 531 1
147 3 1
147 19 1
147 51 1
147 398 1
147 414 1
147 446 1
147 494 1
147 510 1
147 542 1
148 4 1
148 20 1
148 52 1
148 390 1
148 406 1
148 438 1
148 486 1
148 502 1
148 534 1
149 5 1
149 21 1
149 53 1
149 400 1
149 416 1
149 448 1
149 496 1
149 512 1
149 544 1
150 6 1
150 22 1
150 54 1
150 389 1
150 405 1
150 437 1
150 485 1
150 501 1
150 533 1
151 7 1
151 23 1
151 55 1
151 393 1
151 409 1
151 441 1
151 489 1
151 505 1
151 537 1
152 8 1
152 24 1
152 56 1
152 394 1
152 410 1
152 442 1
152 490 1
152 506 1
152 538 1
153 9 1
153 25 1
153 57 1
153 392 1
153 408 1
153 440 1
153 488 1
153 504 1
153 536 1
154 10 1
154 26 1
154 58 1
154 391 1
154 407 1
154 439 1
154 487 1
154 503 1
154 535 1
155 11 1
155 27 1
155 59 1
155 397 1
155 413 1
155 445 1
155 493 1
155 509 1
155 541 1
156 12 1
156 28 1
156 60 1
156 395 1
156 411 1
156 443 1
156 491 1
156 507 1
156 539 1
157 13 1
157 29 1
157 61 1
157 385 1
157 401 1
157 433 1
157 481 1
157 497 1
157 529 1
158 14 1
158 30 1
158 62 1
158 399 1
158 415 1
158 447 1
158 495 1
158 511 1
158 543 1
159 15 1
159 31 1
159 63 1
159 386 1
159 402 1
159 434 1
159 482 1
159 498 1
159 530 1
160 16 1
160 32 1
160 64 1
160 388 1
160 404 1
160 436 1
160 484 1
160 500 1
160 532 1
161 1 1
161 33 1
161 65 1
161 396 1
161 428 1
161 460 1
161 492 1
161 524 1
161 556 1
162 2 1
162 34 1
162 66 1
162 387 1
162 419 1
162 451 1
162 483 1
162 515 1
162 547 1
163 3 1
163 35 1
163 67 1
163 398 1
163 430 1
163 462 1
163 494 1
163 526 1
163 558 1
164 4 1
164 36 1
164 68 1
164 390 1
164 422 1
164 454 1
164 486 1
164 518 1
164 550 1
165 5 1
165 37 1
165 69 1
165 400 1
165 432 1
165 464 1
165 496 1
165 528 1
165 560 1
166 6 1
166 38 1
166 70 1
166 389 1
166 421 1
166 453 1
166 485 1
166 517 1
166 549 1
167 7 1
167 39 1
167 71 1
167 393 1
167 425 1
167 457 1
167 489 1
167 521 1
167 553 1
168 8 1
168 40 1
168 72 1
168 394 1
168 426 1
168 458 1
168 490 1
168 522 1
168 554 1
169 9 1
169 41 1
169 73 1
169 392 1
169 424 1
169 456 1
169 488 1
169 520 1
169 552 1
170 10 1
170 42 1
170 74 1
170 391 1
170 423 1
170 455 1
170 487 1
170 519 1
170 551 1
171 11 1
171 43 1
171 75 1
171 397 1
171 429 1
171 461 1
171 493 1
171 525 1
171 557 1
172 12 1
172 44 1
172 76 1
172 395 1
172 427 1
172 459 1
172 491 1
172 523 1
172 555 1
173 13 1
173 45 1
173 77 1
173 385 1
173 417 1
173 449 1
173 481 1
173 513 1
173 545 1
174 14 1
174 46 1
174 78 1
174 399 1
174 431 1
174 463 1
174 495 1
174 527 1
174 559 1
175 15 1
175 47 1
175 79 1
175 386 1
175 418 1
175 450 1
175 482 1
175 514 1
175 546 1
176 16 1
176 48 1
176 80 1
176 388 1
176 420 1
176 452 1
176 484 1
176 516 1
176 548 1
177 17 1
177 33 1
177 81 1
177 412 1
177 428 1
177 476 1
177 508 1
177 524 1
177 572 1
178 18 1
178 34 1
178 82 1
178 403 1
178 419 1
178 467 1
178 499 1
178 515 1
178 563 1
179 19 1
179 35 1
179 83 1
179 414 1
179 430 1
179 478 1
179 510 1
179 526 1
179 574 1
180 20 1
180 36 1
180 84 1
180 406 1
180 422 1
180 470 1
180 502 1
180 518 1
180 566 1
181 21 1
181 37 1
181 85 1
181 416 1
181 432 1
181 480 1
181 512 1
181 528 1
181 576 1
182 22 1
182 38 1
182 86 1
182 405 1
182 421 1
182 469 1
182 501 1
182 517 1
182 565 1
183 23 1
183 39 1
183 87 1
183 409 1
183 425 1
183 473 1
183 505 1
183 521 1
183 569 1
184 24 1
184 40 1
184 88 1
184 410 1
184 426 1
184 474 1
184 506 1
184 522 1
184 570 1
185 25 1
185 41 1
185 89 1
185 408 1
185 424 1
185 472 1
185 504 1
185 520 1
185 568 1
186 26 1
186 42 1
186 90 1
186 407 1
186 423 1
186 471 1
186 503 1
186 519 1
186 567 1
187 27 1
187 43 1
187 91 1
187 413 1
187 429 1
187 477 1
187 509 1
187 525 1
187 573 1
188 28 1
188 44 1
188 92 1
188 411 1
188 427 1
188 475 1
188 507 1
188 523 1
188 571 1
189 29 1
189 45 1
189 93 1
189 401 1
189 417 1
189 465 1
189 497 1
189 513 1
189 561 1
190 30 1
190 46 1
190 94 1
190 415 1
190 431 1
190 479 1
190 511 1
190 527 1
190 575 1
191 31 1
191 47 1
191 95 1
191 402 1
191 418 1
191 466 1
191 498 1
191 514 1
191 562 1
192 32 1
192 48 1
192 96 1
192 404 1
192 420 1
192 468 1
192 500 1
192 516 1
192 564 1
193 97 1
193 113 1
193 145 1
193 194 1
193 210 1
193 242 1
193 492 1
193 508 1
193 540 1
194 98 1
194 114 1
194 146 1
194 196 1
194 212 1
194 244 1
194 483 1
194 499 1
194 531 1
195 99 1
195 115 1
195 147 1
195 198 1
195 214 1
195 246 1
195 494 1
195 510 1
195 542 1
196 100 1
196 116 1
196 148 1
196 199 1
196 215 1
196 247 1
196 486 1
196 502 1
196 534 1
197 101 1
197 117 1
197 149 1
197 200 1
197 216 1
197 248 1
197 496 1
197 512 1
197 544 1
198 102 1
198 118 1
198 150 1
198 201 1
198 217 1
198 249 1
198 485 1
198 501 1
198 533 1
199 103 1
199 119 1
199 151 1
199 193 1
199 209 1
199 241 1
199 489 1
199 505 1
199 537 1
200 104 1
200 120 1
200 152 1
200 203 1
200 219 1
200 251 1
200 490 1
200 506 1
200 538 1
201 105 1
201 121 1
201 153 1
201 204 1
201 220 1
201 252 1
201 488 1
201 504 1
201 536 1
202 106 1
202 122 1
202 154 1
202 205 1
202 221 1
202 253 1
202 487 1
202 503 1
202 535 1
203 107 1
203 123 1
203 155 1
203 206 1
203 222 1
203 254 1
203 493 1
203 509 1
203 541 1
204 108 1
204 124 1
204 156 1
204 195 1
204 211 1
204 243 1
204 491 1
204 507 1
204 539 1
205 109 1
205 125 1
205 157 1
205 207 1
205 223 1
205 255 1
205 481 1
205 497 1
205 529 1
206 110 1
206 126 1
206 158 1
206 197 1
206 213 1
206 245 1
206 495 1
206 511 1
206 543 1
207 111 1
207 127 1
207 159 1
207 208 1
207 224 1
207 256 1
207 482 1
207 498 1
207 530 1
208 112 1
208 128 1
208 160 1
208 202 1
208 218 1
208 250 1
208 484 1
208 500 1
208 532 1
209 97 1
209 129 1
209 161 1
209 194 1
209 226 1
209 258 1
209 492 1
209 524 1
209 556 1
210 98 1
210 130 1
210 162 1
210 196 1
210 228 1
210 260 1
210 483 1
210 515 1
210 547 1
211 99 1
211 131 1
211 163 1
211 198 1
211 230 1
211 262 1
211 494 1
211 526 1
211 558 1
212 100 1
212 132 1
212 164 1
212 199 1
212 231 1
212 263 1
212 486 1
212 518 1
212 550 1
213 101 1
213 133 1
213 165 1
213 200 1
213 232 1
213 264 1
213 496 1
213 528 1
213 560 1
214 102 1
214 134 1
214 166 1
214 201 1
214 233 1
214 265 1
214 485 1
214 517 1
214 549 1
215 103 1
215 135 1
215 167 1
215 193 1
215 225 1
215 257 1
215 489 1
215 521 1
215 553 1
216 104 1
216 136 1
216 168 1
216 203 1
216 235 1
216 267 1
216 490 1
216 522 1
216 554 1
217 105 1
217 137 1
217 169 1
217 204 1
217 236 1
217 268 1
217 488 1
217 520 1
217 552 1
218 106 1
218 138 1
218 170 1
218 205 1
218 237 1
218 269 1
218 487 1
218 519 1
218 551 1
219 107 1
219 139 1
219 171 1
219 206 1
219 238 1
219 270 1
219 493 1
219 525 1
219 557 1
220 108 1
220 140 1
220 172 1
220 195 1
220 227 1
220 259 1
220 491 1
220 523 1
220 555 1
221 109 1
221 141 1
221 173 1
221 207 1
221 239 1
221 271 1
221 481 1
221 513 1
221 545 1
222 110 1
222 142 1
222 174 1
222 197 1
222 229 1
222 261 1
222 495 1
222 527 1
222 559 1
223 111 1
223 143 1
223 175 1
223 208 1
223 240 1
223 272 1
223 482 1
223 514 1
223 546 1
224 112 1
224 144 1
224 176 1
224 202 1
224 234 1
224 266 1
224 484 1
224 516 1
224 548 1
225 113 1
225 129 1
225 177 1
225 210 1
225 226 1
225 274 1
225 508 1
225 524 1
225 572 1
226 114 1
226 130 1
226 178 1
226 212 1
226 228 1
226 276 1
226 499 1
226 515 1
226 563 1
227 115 1
227 131 1
227 179 1
227 214 1
227 230 1
227 278 1
227 510 1
227 526 1
227 574 1
228 116 1
228 132 1
228 180 1
228 215 1
228 231 1
228 279 1
228 502 1
228 518 1
228 566 1
229 117 1
229 133 1
229 181 1
229 216 1
229 232 1
229 280 1
229 512 1
229 528 1
229 576 1
230 118 1
230 134 1
230 182 1
230 217 1
230 233 1
230 281 1
230 501 1
230 517 1
230 565 1
231 119 1
231 135 1
231 183 1
231 209 1
231 225 1
231 273 1
231 505 1
231 521 1
231 569 1
232 120 1
232 136 1
232 184 1
232 219 1
232 235 1
232 283 1
232 506 1
232 522 1
232 570 1
233 121 1
233 137 1
233 185 1
233 220 1
233 236 1
233 284 1
233 504 1
233 520 1
233 568 1
234 122 1
234 138 1
234 186 1
234 221 1
234 237 1
234 285 1
234 503 1
234 519 1
234 567 1
235 123 1
235 139 1
235 187 1
235 222 1
235 238 1
235 286 1
235 509 1
235 525 1
235 573 1
236 124 1
236 140 1
236 188 1
236 211 1
236 227 1
236 275 1
236 507 1
236 523 1
236 571 1
237 125 1
237 141 1
237 189 1
237 223 1
237 239 1
237 287 1
237 497 1
237 513 1
237 561 1
238 126 1
238 142 1
238 190 1
238 213 1
238 229 1
238 277 1
238 511 1
238 527 1
238 575 1
239 127 1
239 143 1
239 191 1
239 224 1
239 240 1
239 288 1
239 498 1
239 514 1
239 562 1
240 128 1
240 144 1
240 192 1
240 218 1
240 234 1
240 282 1
240 500 1
240 516 1
240 564 1
241 194 1
241 210 1
241 242 1
241 299 1
241 315 1
241 347 1
241 396 1
241 412 1
241 444 1
242 196 1
242 212 1
242 244 1
242 302 1
242 318 1
242 350 1
242 387 1
242 403 1
242 435 1
243 198 1
243 214 1
243 246 1
243 303 1
243 319 1
243 351 1
243 398 1
243 414 1
243 446 1
244 199 1
244 215 1
244 247 1
244 293 1
244 309 1
244 341 1
244 390 1
244 406 1
244 438 1
245 200 1
245 216 1
245 248 1
245 292 1
245 308 1
245 340 1
245 400 1
245 416 1
245 448 1
246 201 1
246 217 1
246 249 1
246 304 1
246 320 1
246 352 1
246 389 1
246 405 1
246 437 1
247 193 1
247 209 1
247 241 1
247 296 1
247 312 1
247 344 1
247 393 1
247 409 1
247 441 1
248 203 1
248 219 1
248 251 1
248 295 1
248 311 1
248 343 1
248 394 1
248 410 1
248 442 1
249 204 1
249 220 1
249 252 1
249 298 1
249 314 1
249 346 1
249 392 1
249 408 1
249 440 1
250 205 1
250 221 1
250 253 1
250 297 1
250 313 1
250 345 1
250 391 1
250 407 1
250 439 1
251 206 1
251 222 1
251 254 1
251 289 1
251 305 1
251 337 1
251 397 1
251 413 1
251 445 1
252 195 1
252 211 1
252 243 1
252 301 1
252 317 1
252 349 1
252 395 1
252 411 1
252 443 1
253 207 1
253 223 1
253 255 1
253 300 1
253 316 1
253 348 1
253 385 1
253 401 1
253 433 1
254 197 1
254 213 1
254 245 1
254 290 1
254 306 1
254 338 1
254 399 1
254 415 1
254 447 1
255 208 1
255 224 1
255 256 1
255 291 1
255 307 1
255 339 1
255 386 1
255 402 1
255 434 1
256 202 1
256 218 1
256 250 1
256 294 1
256 310 1
256 342 1
256 388 1
256 404 1
256 436 1
257 194 1
257 226 1
257 258 1
257 299 1
257 331 1
257 363 1
257 396 1
257 428 1
257 460 1
258 196 1
258 228 1
258 260 1
258 302 1
258 334 1
258 366 1
258 387 1
258 419 1
258 451 1
259 198 1
259 230 1
259 262 1
259 303 1
259 335 1
259 367 1
259 398 1
259 430 1
259 462 1
260 199 1
260 231 1
260 263 1
260 293 1
260 325 1
260 357 1
260 390 1
260 422 1
260 454 1
261 200 1
261 232 1
261 264 1
261 292 1
261 324 1
261 356 1
261 400 1
261 432 1
261 464 1
262 201 1
262 233 1
262 265 1
262 304 1
262 336 1
262 368 1
262 389 1
262 421 1
262 453 1
263 193 1
263 225 1
263 257 1
263 296 1
263 328 1
263 360 1
263 393 1
263 425 1
263 457 1
264 203 1
264 235 1
264 267 1
264 295 1
264 327 1
264 359 1
264 394 1
264 426 1
264 458 1
265 204 1
265 236 1
265 268 1
265 298 1
265 330 1
265 362 1
265 392 1
265 424 1
265 456 1
266 205 1
266 237 1
266 269 1
266 297 1
266 329 1
266 361 1
266 391 1
266 423 1
266 455 1
267 206 1
267 238 1
267 270 1
267 289 1
267 321 1
267 353 1
267 397 1
267 429 1
267 461 1
268 195 1
268 227 1
268 259 1
268 301 1
268 333 1
268 365 1
268 395 1
268 427 1
268 459 1
269 207 1
269 239 1
269 271 1
269 300 1
269 332 1
269 364 1
269 385 1
269 417 1
269 449 1
270 197 1
270 229 1
270 261 1
270 290 1
270 322 1
270 354 1
270 399 1
270 431 1
270 463 1
271 208 1
271 240 1
271 272 1
271 291 1
271 323 1
271 355 1
271 386 1
271 418 1
271 450 1
272 202 1
272 234 1
272 266 1
272 294 1
272 326 1
272 358 1
272 388 1
272 420 1
272 452 1
273 210 1
273 226 1
273 274 1
273 315 1
273 331 1
273 379 1
273 412 1
273 428 1
273 476 1
274 212 1
274 228 1
274 276 1
274 318 1
274 334 1
274 382 1
274 403 1
274 419 1
274 467 1
275 214 1
275 230 1
275 278 1
275 319 1
275 335 1
275 383 1
275 414 1
275 430 1
275 478 1
276 215 1
276 231 1
276 279 1
276 309 1
276 325 1
276 373 1
276 406 1
276 422 1
276 470 1
277 216 1
277 232 1
277 280 1
277 308 1
277 324 1
277 372 1
277 416 1
277 432 1
277 480 1
278 217 1
278 233 1
278 281 1
278 320 1
278 336 1
278 384 1
278 405 1
278 421 1
278 469 1
279 209 1
279 225 1
279 273 1
279 312 1
279 328 1
279 376 1
279 409 1
279 425 1
279 473 1
280 219 1
280 235 1
280 283 1
280 311 1
280 327 1
280 375 1
280 410 1
280 426 1
280 474 1
281 220 1
281 236 1
281 284 1
281 314 1
281 330 1
281 378 1
281 408 1
281 424 1
281 472 1
282 221 1
282 237 1
282 285 1
282 313 1
282 329 1
282 377 1
282 407 1
282 423 1
282 471 1
283 222 1
283 238 1
283 286 1
283 305 1
283 321 1
283 369 1
283 413 1
283 429 1
283 477 1
284 211 1
284 227 1
284 275 1
284 317 1
284 333 1
284 381 1
284 411 1
284 427 1
284 475 1
285 223 1
285 239 1
285 287 1
285 316 1
285 332 1
285 380 1
285 401 1
285 417 1
285 465 1
286 213 1
286 229 1
286 277 1
286 306 1
286 322 1
286 370 1
286 415 1
286 431 1
286 479 1
287 224 1
287 240 1
287 288 1
287 307 1
287 323 1
287 371 1
287 402 1
287 418 1
287 466 1
288 218 1
288 234 1
288 282 1
288 310 1
288 326 1
288 374 1
288 404 1
288 420 1
288 468 1
