%%MatrixMarket matrix coordinate integer general
324 648 2916
1 1 1
1 55 1
1 73 1
1 109 1
1 163 1
1 181 1
1 325 1
1 379 1
1 397 1
2 2 1
2 56 1
2 74 1
2 110 1
2 164 1
2 182 1
2 326 1
2 380 1
2 398 1
3 3 1
3 57 1
3 75 1
3 111 1
3 165 1
3 183 1
3 327 1
3 381 1
3 399 1
4 4 1
4 58 1
4 76 1
4 112 1
4 166 1
4 184 1
4 328 1
4 382 1
4 400 1
5 5 1
5 59 1
5 77 1
5 113 1
5 167 1
5 185 1
5 329 1
5 383 1
5 401 1
6 6 1
6 60 1
6 78 1
6 114 1
6 168 1
6 186 1
6 330 1
6 384 1
6 402 1
7 7 1
7 61 1
7 79 1
7 115 1
7 169 1
7 187 1
7 331 1
7 385 1
7 403 1
8 8 1
8 62 1
8 80 1
8 116 1
8 170 1
8 188 1
8 332 1
8 386 1
8 404 1
9 9 1
9 63 1
9 81 1
9 117 1
9 171 1
9 189 1
9 333 1
9 387 1
9 405 1
10 10 1
10 64 1
10 82 1
10 118 1
10 172 1
10 190 1
10 334 1
10 388 1
10 406 1
11 11 1
11 65 1
11 83 1
11 119 1
11 173 1
11 191 1
11 335 1
11 389 1
11 407 1
12 12 1
12 66 1
12 84 1
12 120 1
12 174 1
12 192 1
12 336 1
12 390 1
12 408 1
13 13 1
13 67 1
13 85 1
13 121 1
13 175 1
13 193 1
13 337 1
13 391 1
13 409 1
14 14 1
14 68 1
14 86 1
14 122 1
14 176 1
14 194 1
14 338 1
14 392 1
14 410 1
15 15 1
15 69 1
15 87 1
15 123 1
15 177 1
15 195 1
15 339 1
15 393 1
15 411 1
16 16 1
16 70 1
16 88 1
16 124 1
16 178 1
16 196 1
16 340 1
16 394 1
16 412 1
17 17 1
17 71 1
17 89 1
17 125 1
17 179 1
17 197 1
17 341 1
17 395 1
17 413 1
18 18 1
18 72 1
18 90 1
18 126 1
18 180 1
18 198 1
18 342 1
18 396 1
18 414 1
19 19 1
19 55 1
19 91 1
19 127 1
19 163 1
19 199 1
19 343 1
19 379 1
19 415 1
20 20 1
20 56 1
20 92 1
20 128 1
20 164 1
20 200 1
20 344 1
20 380 1
20 416 1
21 21 1
21 57 1
21 93 1
21 129 1
21 165 1
21 201 1
21 345 1
21 381 1
21 417 1
22 22 1
22 58 1
22 94 1
22 130 1
22 166 1
22 202 1
22 346 1
22 382 1
22 418 1
23 23 1
23 59 1
23 95 1
23 131 1
23 167 1
23 203 1
23 347 1
23 383 1
23 419 1
24 24 1
24 60 1
24 96 1
24 132 1
24 168 1
24 204 1
24 348 1
24 384 1
24 420 1
25 25 1
25 61 1
25 97 1
25 133 1
25 169 1
25 205 1
25 349 1
25 385 1
25 421 1
26 26 1
26 62 1
26 98 1
26 134 1
26 170 1
26 206 1
26 350 1
26 386 1
26 422 1
27 27 1
27 63 1
27 99 1
27 135 1
27 171 1
27 207 1
27 351 1
27 387 1
27 423 1
28 28 1
28 64 1
28 100 1
28 136 1
28 172 1
28 208 1
28 352 1
28 388 1
28 424 1
29 29 1
29 65 1
29 101 1
29 137 1
29 173 1
29 209 1
29 353 1
29 389 1
29 425 1
30 30 1
30 66 1
30 102 1
30 138 1
30 174 1
30 210 1
30 354 1
30 390 1
30 426 1
31 31 1
31 67 1
31 103 1
31 139 1
31 175 1
31 211 1
31 355 1
31 391 1
31 427 1
32 32 1
32 68 1
32 104 1
32 140 1
32 176 1
32 212 1
32 356 1
32 392 1
32 428 1
33 33 1
33 69 1
33 105 1
33 141 1
33 177 1
33 213 1
33 357 1
33 393 1
33 429 1
34 34 1
34 70 1
34 106 1
34 142 1
34 178 1
34 214 1
34 358 1
34 394 1
34 430 1
35 35 1
35 71 1
35 107 1
35 143 1
35 179 1
35 215 1
35 359 1
35 395 1
35 431 1
36 36 1
36 72 1
36 108 1
36 144 1
36 180 1
36 216 1
36 360 1
36 396 1
36 432 1
37 37 1
37 73 1
37 91 1
37 145 1
37 181 1
37 199 1
37 361 1
37 397 1
37 415 1
38 38 1
38 74 1
38 92 1
38 146 1
38 182 1
38 200 1
38 362 1
38 398 1
38 416 1
39 39 1
39 75 1
39 93 1
39 147 1
39 183 1
39 201 1
39 363 1
39 399 1
39 417 1
40 40 1
40 76 1
40 94 1
40 148 1
40 184 1
40 202 1
40 364 1
40 400 1
40 418 1
41 41 1
41 77 1
41 95 1
41 149 1
41 185 1
41 203 1
41 365 1
41 401 1
41 419 1
42 42 1
42 78 1
42 96 1
42 150 1
42 186 1
42 204 1
42 366 1
42 402 1
42 420 1
43 43 1
43 79 1
43 97 1
43 151 1
43 187 1
43 205 1
43 367 1
43 403 1
43 421 1
44 44 1
44 80 1
44 98 1
44 152 1
44 188 1
44 206 1
44 368 1
44 404 1
44 422 1
45 45 1
45 81 1
45 99 1
45 153 1
45 189 1
45 207 1
45 369 1
45 405 1
45 423 1
46 46 1
46 82 1
46 100 1
46 154 1
46 190 1
46 208 1
46 370 1
46 406 1
46 424 1
47 47 1
47 83 1
47 101 1
47 155 1
47 191 1
47 209 1
47 371 1
47 407 1
47 425 1
48 48 1
48 84 1
48 102 1
48 156 1
48 192 1
48 210 1
48 372 1
48 408 1
48 426 1
49 49 1
49 85 1
49 103 1
49 157 1
49 193 1
49 211 1
49 373 1
49 409 1
49 427 1
50 50 1
50 86 1
50 104 1
50 158 1
50 194 1
50 212 1
50 374 1
50 410 1
50 428 1
51 51 1
51 87 1
51 105 1
51 159 1
51 195 1
51 213 1
51 375 1
51 411 1
51 429 1
52 52 1
52 88 1
52 106 1
52 160 1
52 196 1
52 214 1
52 376 1
52 412 1
52 430 1
53 53 1
53 89 1
53 107 1
53 161 1
53 197 1
53 215 1
53 377 1
53 413 1
53 431 1
54 54 1
54 90 1
54 108 1
54 162 1
54 198 1
54 216 1
54 378 1
54 414 1
54 432 1
55 1 1
55 55 1
55 73 1
55 217 1
55 271 1
55 289 1
55 433 1
55 487 1
55 505 1
56 2 1
56 56 1
56 74 1
56 218 1
56 272 1
56 290 1
56 434 1
56 488 1
56 506 1
57 3 1
57 57 1
57 75 1
57 219 1
57 273 1
57 291 1
57 435 1
57 489 1
57 507 1
58 4 1
58 58 1
58 76 1
58 220 1
58 274 1
58 292 1
58 436 1
58 490 1
58 508 1
59 5 1
59 59 1
59 77 1
59 221 1
59 275 1
59 293 1
59 437 1
59 491 1
59 509 1
60 6 1
60 60 1
60 78 1
60 222 1
60 276 1
60 294 1
60 438 1
60 492 1
60 510 1
61 7 1
61 61 1
61 79 1
61 223 1
61 277 1
61 295 1
61 439 1
61 493 1
61 511 1
62 8 1
62 62 1
62 80 1
62 224 1
62 278 1
62 296 1
62 440 1
62 494 1
62 512 1
63 9 1
63 63 1
63 81 1
63 225 1
63 279 1
63 297 1
63 441 1
63 495 1
63 513 1
64 10 1
64 64 1
64 82 1
64 226 1
64 280 1
64 298 1
64 442 1
64 496 1
64 514 1
65 11 1
65 65 1
65 83 1
65 227 1
65 281 1
65 299 1
65 443 1
65 497 1
65 515 1
66 12 1
66 66 1
66 84 1
66 228 1
66 282 1
66 300 1
66 444 1
66 498 1
66 516 1
67 13 1
67 67 1
67 85 1
67 229 1
67 283 1
67 301 1
67 445 1
67 499 1
67 517 1
68 14 1
68 68 1
68 86 1
68 230 1
68 284 1
68 302 1
68 446 1
68 500 1
68 518 1
69 15 1
69 69 1
69 87 1
69 231 1
69 285 1
69 303 1
69 447 1
69 501 1
69 519 1
70 16 1
70 70 1
70 88 1
70 232 1
70 286 1
70 304 1
70 448 1
70 502 1
70 520 1
71 17 1
71 71 1
71 89 1
71 233 1
71 287 1
71 305 1
71 449 1
71 503 1
71 521 1
72 18 1
72 72 1
72 90 1
72 234 1
72 288 1
72 306 1
72 450 1
72 504 1
72 522 1
73 19 1
73 55 1
73 91 1
73 235 1
73 271 1
73 307 1
73 451 1
73 487 1
73 523 1
74 20 1
74 56 1
74 92 1
74 236 1
74 272 1
74 308 1
74 452 1
74 488 1
74 524 1
75 21 1
75 57 1
75 93 1
75 237 1
75 273 1
75 309 1
75 453 1
75 489 1
75 525 1
76 22 1
76 58 1
76 94 1
76 238 1
76 274 1
76 310 1
76 454 1
76 490 1
76 526 1
77 23 1
77 59 1
77 95 1
77 239 1
77 275 1
77 311 1
77 455 1
77 491 1
77 527 1
78 24 1
78 60 1
78 96 1
78 240 1
78 276 1
78 312 1
78 456 1
78 492 1
78 528 1
79 25 1
79 61 1
79 97 1
79 241 1
79 277 1
79 313 1
79 457 1
79 493 1
79 529 1
80 26 1
80 62 1
80 98 1
80 242 1
80 278 1
80 314 1
80 458 1
80 494 1
80 530 1
81 27 1
81 63 1
81 99 1
81 243 1
81 279 1
81 315 1
81 459 1
81 495 1
81 531 1
82 28 1
82 64 1
82 100 1
82 244 1
82 280 1
82 316 1
82 460 1
82 496 1
82 532 1
83 29 1
83 65 1
83 101 1
83 245 1
83 281 1
83 317 1
83 461 1
83 497 1
83 533 1
84 30 1
84 66 1
84 102 1
84 246 1
84 282 1
84 318 1
84 462 1
84 498 1
84 534 1
85 31 1
85 67 1
85 103 1
85 247 1
85 283 1
85 319 1
85 463 1
85 499 1
85 535 1
86 32 1
86 68 1
86 104 1
86 248 1
86 284 1
86 320 1
86 464 1
86 500 1
86 536 1
87 33 1
87 69 1
87 105 1
87 249 1
87 285 1
87 321 1
87 465 1
87 501 1
87 537 1
88 34 1
88 70 1
88 106 1
88 250 1
88 286 1
88 322 1
88 466 1
88 502 1
88 538 1
89 35 1
89 71 1
89 107 1
89 251 1
89 287 1
89 323 1
89 467 1
89 503 1
89 539 1
90 36 1
90 72 1
90 108 1
90 252 1
90 288 1
90 324 1
90 468 1
90 504 1
90 540 1
91 37 1
91 73 1
91 91 1
91 253 1
91 289 1
91 307 1
91 469 1
91 505 1
91 523 1
92 38 1
92 74 1
92 92 1
92 254 1
92 290 1
92 308 1
92 470 1
92 506 1
92 524 1
93 39 1
93 75 1
93 93 1
93 255 1
93 291 1
93 309 1
93 471 1
93 507 1
93 525 1
94 40 1
94 76 1
94 94 1
94 256 1
94 292 1
94 310 1
94 472 1
94 508 1
94 526 1
95 41 1
95 77 1
95 95 1
95 257 1
95 293 1
95 311 1
95 473 1
95 509 1
95 527 1
96 42 1
96 78 1
96 96 1
96 258 1
96 294 1
96 312 1
96 474 1
96 510 1
96 528 1
97 43 1
97 79 1
97 97 1
97 259 1
97 295 1
97 313 1
97 475 1
97 511 1
97 529 1
98 44 1
98 80 1
98 98 1
98 260 1
98 296 1
98 314 1
98 476 1
98 512 1
98 530 1
99 45 1
99 81 1
99 99 1
99 261 1
99 297 1
99 315 1
99 477 1
99 513 1
99 531 1
100 46 1
100 82 1
100 100 1
100 262 1
100 298 1
100 316 1
100 478 1
100 514 1
100 532 1
101 47 1
101 83 1
101 101 1
101 263 1
101 299 1
101 317 1
101 479 1
101 515 1
101 533 1
102 48 1
102 84 1
102 102 1
102 264 1
102 300 1
102 318 1
102 480 1
102 516 1
102 534 1
103 49 1
103 85 1
103 103 1
103 265 1
103 301 1
103 319 1
103 481 1
103 517 1
103 535 1
104 50 1
104 86 1
104 104 1
104 266 1
104 302 1
104 320 1
104 482 1
104 518 1
104 536 1
105 51 1
105 87 1
105 105 1
105 267 1
105 303 1
105 321 1
105 483 1
105 519 1
105 537 1
106 52 1
106 88 1
106 106 1
106 268 1
106 304 1
106 322 1
106 484 1
106 520 1
106 538 1
107 53 1
107 89 1
107 107 1
107 269 1
107 305 1
107 323 1
107 485 1
107 521 1
107 539 1
108 54 1
108 90 1
108 108 1
108 270 1
108 306 1
108 324 1
108 486 1
108 522 1
108 540 1
109 109 1
109 163 1
109 181 1
109 217 1
109 271 1
109 289 1
109 541 1
109 595 1
109 613 1
110 110 1
110 164 1
110 182 1
110 218 1
110 272 1
110 290 1
110 542 1
110 596 1
110 614 1
111 111 1
111 165 1
111 183 1
111 219 1
111 273 1
111 291 1
111 543 1
111 597 1
111 615 1
112 112 1
112 166 1
112 184 1
112 220 1
112 274 1
112 292 1
112 544 1
112 598 1
112 616 1
113 113 1
113 167 1
113 185 1
113 221 1
113 275 1
113 293 1
113 545 1
113 599 1
113 617 1
114 114 1
114 168 1
114 186 1
114 222 1
114 276 1
114 294 1
114 546 1
114 600 1
114 618 1
115 115 1
115 169 1
115 187 1
115 223 1
115 277 1
115 295 1
115 547 1
115 601 1
115 619 1
116 116 1
116 170 1
116 188 1
116 224 1
116 278 1
116 296 1
116 548 1
116 602 1
116 620 1
117 117 1
117 171 1
117 189 1
117 225 1
117 279 1
117 297 1
117 549 1
117 603 1
117 621 1
118 118 1
118 172 1
118 190 1
118 226 1
118 280 1
118 298 1
118 550 1
118 604 1
118 622 1
119 119 1
119 173 1
119 191 1
119 227 1
119 281 1
119 299 1
119 551 1
119 605 1
119 623 1
120 120 1
120 174 1
120 192 1
120 228 1
120 282 1
120 300 1
120 552 1
120 606 1
120 624 1
121 121 1
121 175 1
121 193 1
121 229 1
121 283 1
121 301 1
121 553 1
121 607 1
121 625 1
122 122 1
122 176 1
122 194 1
122 230 1
122 284 1
122 302 1
122 554 1
122 608 1
122 626 1
123 123 1
123 177 1
123 195 1
123 231 1
123 285 1
123 303 1
123 555 1
123 609 1
123 627 1
124 124 1
124 178 1
124 196 1
124 232 1
124 286 1
124 304 1
124 556 1
124 610 1
124 628 1
125 125 1
125 179 1
125 197 1
125 233 1
125 287 1
125 305 1
125 557 1
125 611 1
125 629 1
126 126 1
126 180 1
126 198 1
126 234 1
126 288 1
126 306 1
126 558 1
126 612 1
126 630 1
127 127 1
127 163 1
127 199 1
127 235 1
127 271 1
127 307 1
127 559 1
127 595 1
127 631 1
128 128 1
128 164 1
128 200 1
128 236 1
128 272 1
128 308 1
128 560 1
128 596 1
128 632 1
129 129 1
129 165 1
129 201 1
129 237 1
129 273 1
129 309 1
129 561 1
129 597 1
129 633 1
130 130 1
130 166 1
130 202 1
130 238 1
130 274 1
130 310 1
130 562 1
130 598 1
130 634 1
131 131 1
131 167 1
131 203 1
131 239 1
131 275 1
131 311 1
131 563 1
131 599 1
131 635 1
132 132 1
132 168 1
132 204 1
132 240 1
132 276 1
132 312 1
132 564 1
132 600 1
132 636 1
133 133 1
133 169 1
133 205 1
133 241 1
133 277 1
133 313 1
133 565 1
133 601 1
133 637 1
134 134 1
134 170 1
134 206 1
134 242 1
134 278 1
134 314 1
134 566 1
134 602 1
134 638 1
135 135 1
135 171 1
135 207 1
135 243 1
135 279 1
135 315 1
135 567 1
135 603 1
135 639 1
136 136 1
136 172 1
136 208 1
136 244 1
136 280 1
136 316 1
136 568 1
136 604 1
136 640 1
137 137 1
137 173 1
137 209 1
137 245 1
137 281 1
137 317 1
137 569 1
137 605 1
137 641 1
138 138 1
138 174 1
138 210 1
138 246 1
138 282 1
138 318 1
138 570 1
138 606 1
138 642 1
139 139 1
139 175 1
139 211 1
139 247 1
139 283 1
139 319 1
139 571 1
139 607 1
139 643 1
140 140 1
140 176 1
140 212 1
140 248 1
140 284 1
140 320 1
140 572 1
140 608 1
140 644 1
141 141 1
141 177 1
141 213 1
141 249 1
141 285 1
141 321 1
141 573 1
141 609 1
141 645 1
142 142 1
142 178 1
142 214 1
142 250 1
142 286 1
142 322 1
142 574 1
142 610 1
142 646 1
143 143 1
143 179 1
143 215 1
143 251 1
143 287 1
143 323 1
143 575 1
143 611 1
143 647 1
144 144 1
144 180 1
144 216 1
144 252 1
144 288 1
144 324 1
144 576 1
144 612 1
144 648 1
145 145 1
145 181 1
145 199 1
145 253 1
145 289 1
145 307 1
145 577 1
145 613 1
145 631 1
146 146 1
146 182 1
146 200 1
146 254 1
146 290 1
146 308 1
146 578 1
146 614 1
146 632 1
147 147 1
147 183 1
147 201 1
147 255 1
147 291 1
147 309 1
147 579 1
147 615 1
147 633 1
148 148 1
148 184 1
148 202 1
148 256 1
148 292 1
148 310 1
148 580 1
148 616 1
148 634 1
149 149 1
149 185 1
149 203 1
149 257 1
149 293 1
149 311 1
149 581 1
149 617 1
149 635 1
150 150 1
150 186 1
150 204 1
150 258 1
150 294 1
150 312 1
150 582 1
150 618 1
150 636 1
151 151 1
151 187 1
151 205 1
151 259 1
151 295 1
151 313 1
151 583 1
151 619 1
151 637 1
152 152 1
152 188 1
152 206 1
152 260 1
152 296 1
152 314 1
152 584 1
152 620 1
152 638 1
153 153 1
153 189 1
153 207 1
153 261 1
153 297 1
153 315 1
153 585 1
153 621 1
153 639 1
154 154 1
154 190 1
154 208 1
154 262 1
154 298 1
154 316 1
154 586 1
154 622 1
154 640 1
155 155 1
155 191 1
155 209 1
155 263 1
155 299 1
155 317 1
155 587 1
155 623 1
155 641 1
156 156 1
156 192 1
156 210 1
156 264 1
156 300 1
156 318 1
156 588 1
156 624 1
156 642 1
157 157 1
157 193 1
157 211 1
157 265 1
157 301 1
157 319 1
157 589 1
157 625 1
157 643 1
158 158 1
158 194 1
158 212 1
158 266 1
158 302 1
158 320 1
158 590 1
158 626 1
158 644 1
159 159 1
159 195 1
159 213 1
159 267 1
159 303 1
159 321 1
159 591 1
159 627 1
159 645 1
160 160 1
160 196 1
160 214 1
160 268 1
160 304 1
160 322 1
160 592 1
160 628 1
160 646 1
161 161 1
161 197 1
161 215 1
161 269 1
161 305 1
161 323 1
161 593 1
161 629 1
161 647 1
162 162 1
162 198 1
162 216 1
162 270 1
162 306 1
162 324 1
162 594 1
162 630 1
162 648 1
163 1 1
163 81 1
163 97 1
163 113 1
163 196 1
163 204 1
163 335 1
163 401 1
163 426 1
164 2 1
164 84 1
164 100 1
164 125 1
164 193 1
164 201 1
164 337 1
164 403 1
164 428 1
165 3 1
165 86 1
165 94 1
165 118 1
165 198 1
165 209 1
165 339 1
165 406 1
165 430 1
166 4 1
166 73 1
166 103 1
166 119 1
166 185 1
166 210 1
166 340 1
166 407 1
166 416 1
167 5 1
167 88 1
167 96 1
167 109 1
167 189 1
167 205 1
167 333 1
167 400 1
167 431 1
168 6 1
168 74 1
168 105 1
168 115 1
168 197 1
168 206 1
168 341 1
168 409 1
168 417 1
169 7 1
169 89 1
169 98 1
169 114 1
169 182 1
169 213 1
169 336 1
169 402 1
169 432 1
170 8 1
170 75 1
170 99 1
170 123 1
170 190 1
170 214 1
170 342 1
170 411 1
170 419 1
171 9 1
171 76 1
171 107 1
171 124 1
171 191 1
171 200 1
171 329 1
171 412 1
171 420 1
172 10 1
172 90 1
172 101 1
172 111 1
172 194 1
172 202 1
172 338 1
172 404 1
172 415 1
173 11 1
173 77 1
173 102 1
173 112 1
173 181 1
173 211 1
173 325 1
173 405 1
173 421 1
174 12 1
174 78 1
174 108 1
174 121 1
174 187 1
174 212 1
174 331 1
174 413 1
174 422 1
175 13 1
175 79 1
175 104 1
175 120 1
175 186 1
175 216 1
175 326 1
175 408 1
175 424 1
176 14 1
176 80 1
176 91 1
176 126 1
176 195 1
176 203 1
176 334 1
176 414 1
176 425 1
177 15 1
177 82 1
177 106 1
177 116 1
177 183 1
177 207 1
177 327 1
177 410 1
177 418 1
178 16 1
178 83 1
178 92 1
178 117 1
178 184 1
178 215 1
178 328 1
178 397 1
178 427 1
179 17 1
179 85 1
179 93 1
179 110 1
179 192 1
179 208 1
179 330 1
179 398 1
179 429 1
180 18 1
180 87 1
180 95 1
180 122 1
180 188 1
180 199 1
180 332 1
180 399 1
180 423 1
181 19 1
181 38 1
181 97 1
181 131 1
181 161 1
181 204 1
181 353 1
181 373 1
181 426 1
182 20 1
182 37 1
182 100 1
182 143 1
182 149 1
182 201 1
182 355 1
182 371 1
182 428 1
183 21 1
183 54 1
183 94 1
183 136 1
183 158 1
183 209 1
183 357 1
183 368 1
183 430 1
184 22 1
184 48 1
184 103 1
184 137 1
184 157 1
184 210 1
184 358 1
184 367 1
184 416 1
185 23 1
185 53 1
185 96 1
185 127 1
185 146 1
185 205 1
185 351 1
185 366 1
185 431 1
186 24 1
186 45 1
186 105 1
186 133 1
186 160 1
186 206 1
186 359 1
186 365 1
186 417 1
187 25 1
187 52 1
187 98 1
187 132 1
187 153 1
187 213 1
187 354 1
187 364 1
187 432 1
188 26 1
188 51 1
188 99 1
188 141 1
188 152 1
188 214 1
188 360 1
188 363 1
188 419 1
189 27 1
189 42 1
189 107 1
189 142 1
189 151 1
189 200 1
189 347 1
189 377 1
189 420 1
190 28 1
190 50 1
190 101 1
190 129 1
190 162 1
190 202 1
190 356 1
190 370 1
190 415 1
191 29 1
191 49 1
191 102 1
191 130 1
191 156 1
191 211 1
191 343 1
191 362 1
191 421 1
192 30 1
192 40 1
192 108 1
192 139 1
192 155 1
192 212 1
192 349 1
192 376 1
192 422 1
193 31 1
193 47 1
193 104 1
193 138 1
193 148 1
193 216 1
193 344 1
193 361 1
193 424 1
194 32 1
194 46 1
194 91 1
194 144 1
194 147 1
194 203 1
194 352 1
194 374 1
194 425 1
195 33 1
195 44 1
195 106 1
195 134 1
195 159 1
195 207 1
195 345 1
195 378 1
195 418 1
196 34 1
196 43 1
196 92 1
196 135 1
196 150 1
196 215 1
196 346 1
196 372 1
196 427 1
197 35 1
197 41 1
197 93 1
197 128 1
197 145 1
197 208 1
197 348 1
197 369 1
197 429 1
198 36 1
198 39 1
198 95 1
198 140 1
198 154 1
198 199 1
198 350 1
198 375 1
198 423 1
199 38 1
199 71 1
199 81 1
199 161 1
199 164 1
199 196 1
199 373 1
199 384 1
199 401 1
200 37 1
200 72 1
200 84 1
200 149 1
200 176 1
200 193 1
200 371 1
200 386 1
200 403 1
201 54 1
201 55 1
201 86 1
201 158 1
201 167 1
201 198 1
201 368 1
201 389 1
201 406 1
202 48 1
202 61 1
202 73 1
202 157 1
202 168 1
202 185 1
202 367 1
202 390 1
202 407 1
203 53 1
203 56 1
203 88 1
203 146 1
203 179 1
203 189 1
203 366 1
203 391 1
203 400 1
204 45 1
204 64 1
204 74 1
204 160 1
204 165 1
204 197 1
204 365 1
204 392 1
204 409 1
205 52 1
205 57 1
205 89 1
205 153 1
205 172 1
205 182 1
205 364 1
205 393 1
205 402 1
206 51 1
206 58 1
206 75 1
206 152 1
206 173 1
206 190 1
206 363 1
206 394 1
206 411 1
207 42 1
207 67 1
207 76 1
207 151 1
207 174 1
207 191 1
207 377 1
207 380 1
207 412 1
208 50 1
208 59 1
208 90 1
208 162 1
208 163 1
208 194 1
208 370 1
208 387 1
208 404 1
209 49 1
209 60 1
209 77 1
209 156 1
209 169 1
209 181 1
209 362 1
209 395 1
209 405 1
210 40 1
210 69 1
210 78 1
210 155 1
210 170 1
210 187 1
210 376 1
210 381 1
210 413 1
211 47 1
211 62 1
211 79 1
211 148 1
211 177 1
211 186 1
211 361 1
211 396 1
211 408 1
212 46 1
212 63 1
212 80 1
212 147 1
212 178 1
212 195 1
212 374 1
212 383 1
212 414 1
213 44 1
213 65 1
213 82 1
213 159 1
213 166 1
213 183 1
213 378 1
213 379 1
213 410 1
214 43 1
214 66 1
214 83 1
214 150 1
214 175 1
214 184 1
214 372 1
214 385 1
214 397 1
215 41 1
215 68 1
215 85 1
215 145 1
215 180 1
215 192 1
215 369 1
215 388 1
215 398 1
216 39 1
216 70 1
216 87 1
216 154 1
216 171 1
216 188 1
216 375 1
216 382 1
216 399 1
217 1 1
217 81 1
217 97 1
217 221 1
217 304 1
217 312 1
217 443 1
217 509 1
217 534 1
218 2 1
218 84 1
218 100 1
218 233 1
218 301 1
218 309 1
218 445 1
218 511 1
218 536 1
219 3 1
219 86 1
219 94 1
219 226 1
219 306 1
219 317 1
219 447 1
219 514 1
219 538 1
220 4 1
220 73 1
220 103 1
220 227 1
220 293 1
220 318 1
220 448 1
220 515 1
220 524 1
221 5 1
221 88 1
221 96 1
221 217 1
221 297 1
221 313 1
221 441 1
221 508 1
221 539 1
222 6 1
222 74 1
222 105 1
222 223 1
222 305 1
222 314 1
222 449 1
222 517 1
222 525 1
223 7 1
223 89 1
223 98 1
223 222 1
223 290 1
223 321 1
223 444 1
223 510 1
223 540 1
224 8 1
224 75 1
224 99 1
224 231 1
224 298 1
224 322 1
224 450 1
224 519 1
224 527 1
225 9 1
225 76 1
225 107 1
225 232 1
225 299 1
225 308 1
225 437 1
225 520 1
225 528 1
226 10 1
226 90 1
226 101 1
226 219 1
226 302 1
226 310 1
226 446 1
226 512 1
226 523 1
227 11 1
227 77 1
227 102 1
227 220 1
227 289 1
227 319 1
227 433 1
227 513 1
227 529 1
228 12 1
228 78 1
228 108 1
228 229 1
228 295 1
228 320 1
228 439 1
228 521 1
228 530 1
229 13 1
229 79 1
229 104 1
229 228 1
229 294 1
229 324 1
229 434 1
229 516 1
229 532 1
230 14 1
230 80 1
230 91 1
230 234 1
230 303 1
230 311 1
230 442 1
230 522 1
230 533 1
231 15 1
231 82 1
231 106 1
231 224 1
231 291 1
231 315 1
231 435 1
231 518 1
231 526 1
232 16 1
232 83 1
232 92 1
232 225 1
232 292 1
232 323 1
232 436 1
232 505 1
232 535 1
233 17 1
233 85 1
233 93 1
233 218 1
233 300 1
233 316 1
233 438 1
233 506 1
233 537 1
234 18 1
234 87 1
234 95 1
234 230 1
234 296 1
234 307 1
234 440 1
234 507 1
234 531 1
235 19 1
235 38 1
235 97 1
235 239 1
235 269 1
235 312 1
235 461 1
235 481 1
235 534 1
236 20 1
236 37 1
236 100 1
236 251 1
236 257 1
236 309 1
236 463 1
236 479 1
236 536 1
237 21 1
237 54 1
237 94 1
237 244 1
237 266 1
237 317 1
237 465 1
237 476 1
237 538 1
238 22 1
238 48 1
238 103 1
238 245 1
238 265 1
238 318 1
238 466 1
238 475 1
238 524 1
239 23 1
239 53 1
239 96 1
239 235 1
239 254 1
239 313 1
239 459 1
239 474 1
239 539 1
240 24 1
240 45 1
240 105 1
240 241 1
240 268 1
240 314 1
240 467 1
240 473 1
240 525 1
241 25 1
241 52 1
241 98 1
241 240 1
241 261 1
241 321 1
241 462 1
241 472 1
241 540 1
242 26 1
242 51 1
242 99 1
242 249 1
242 260 1
242 322 1
242 468 1
242 471 1
242 527 1
243 27 1
243 42 1
243 107 1
243 250 1
243 259 1
243 308 1
243 455 1
243 485 1
243 528 1
244 28 1
244 50 1
244 101 1
244 237 1
244 270 1
244 310 1
244 464 1
244 478 1
244 523 1
245 29 1
245 49 1
245 102 1
245 238 1
245 264 1
245 319 1
245 451 1
245 470 1
245 529 1
246 30 1
246 40 1
246 108 1
246 247 1
246 263 1
246 320 1
246 457 1
246 484 1
246 530 1
247 31 1
247 47 1
247 104 1
247 246 1
247 256 1
247 324 1
247 452 1
247 469 1
247 532 1
248 32 1
248 46 1
248 91 1
248 252 1
248 255 1
248 311 1
248 460 1
248 482 1
248 533 1
249 33 1
249 44 1
249 106 1
249 242 1
249 267 1
249 315 1
249 453 1
249 486 1
249 526 1
250 34 1
250 43 1
250 92 1
250 243 1
250 258 1
250 323 1
250 454 1
250 480 1
250 535 1
251 35 1
251 41 1
251 93 1
251 236 1
251 253 1
251 316 1
251 456 1
251 477 1
251 537 1
252 36 1
252 39 1
252 95 1
252 248 1
252 262 1
252 307 1
252 458 1
252 483 1
252 531 1
253 38 1
253 71 1
253 81 1
253 269 1
253 272 1
253 304 1
253 481 1
253 492 1
253 509 1
254 37 1
254 72 1
254 84 1
254 257 1
254 284 1
254 301 1
254 479 1
254 494 1
254 511 1
255 54 1
255 55 1
255 86 1
255 266 1
255 275 1
255 306 1
255 476 1
255 497 1
255 514 1
256 48 1
256 61 1
256 73 1
256 265 1
256 276 1
256 293 1
256 475 1
256 498 1
256 515 1
257 53 1
257 56 1
257 88 1
257 254 1
257 287 1
257 297 1
257 474 1
257 499 1
257 508 1
258 45 1
258 64 1
258 74 1
258 268 1
258 273 1
258 305 1
258 473 1
258 500 1
258 517 1
259 52 1
259 57 1
259 89 1
259 261 1
259 280 1
259 290 1
259 472 1
259 501 1
259 510 1
260 51 1
260 58 1
260 75 1
260 260 1
260 281 1
260 298 1
260 471 1
260 502 1
260 519 1
261 42 1
261 67 1
261 76 1
261 259 1
261 282 1
261 299 1
261 485 1
261 488 1
261 520 1
262 50 1
262 59 1
262 90 1
262 270 1
262 271 1
262 302 1
262 478 1
262 495 1
262 512 1
263 49 1
263 60 1
263 77 1
263 264 1
263 277 1
263 289 1
263 470 1
263 503 1
263 513 1
264 40 1
264 69 1
264 78 1
264 263 1
264 278 1
264 295 1
264 484 1
264 489 1
264 521 1
265 47 1
265 62 1
265 79 1
265 256 1
265 285 1
265 294 1
265 469 1
265 504 1
265 516 1
266 46 1
266 63 1
266 80 1
266 255 1
266 286 1
266 303 1
266 482 1
266 491 1
266 522 1
267 44 1
267 65 1
267 82 1
267 267 1
267 274 1
267 291 1
267 486 1
267 487 1
267 518 1
268 43 1
268 66 1
268 83 1
268 258 1
268 283 1
268 292 1
268 480 1
268 493 1
268 505 1
269 41 1
269 68 1
269 85 1
269 253 1
269 288 1
269 300 1
269 477 1
269 496 1
269 506 1
270 39 1
270 70 1
270 87 1
270 262 1
270 279 1
270 296 1
270 483 1
270 490 1
270 507 1
271 113 1
271 196 1
271 204 1
271 221 1
271 304 1
271 312 1
271 558 1
271 627 1
271 635 1
272 125 1
272 193 1
272 201 1
272 233 1
272 301 1
272 309 1
272 543 1
272 626 1
272 634 1
273 118 1
273 198 1
273 209 1
273 226 1
273 306 1
273 317 1
273 542 1
273 624 1
273 640 1
274 119 1
274 185 1
274 210 1
274 227 1
274 293 1
274 318 1
274 550 1
274 630 1
274 641 1
275 109 1
275 189 1
275 205 1
275 217 1
275 297 1
275 313 1
275 547 1
275 629 1
275 638 1
276 115 1
276 197 1
276 206 1
276 223 1
276 305 1
276 314 1
276 548 1
276 615 1
276 639 1
277 114 1
277 182 1
277 213 1
277 222 1
277 290 1
277 321 1
277 545 1
277 628 1
277 636 1
278 123 1
278 190 1
278 214 1
278 231 1
278 298 1
278 322 1
278 546 1
278 614 1
278 645 1
279 124 1
279 191 1
279 200 1
279 232 1
279 299 1
279 308 1
279 555 1
279 622 1
279 646 1
280 111 1
280 194 1
280 202 1
280 219 1
280 302 1
280 310 1
280 544 1
280 613 1
280 643 1
281 112 1
281 181 1
281 211 1
281 220 1
281 289 1
281 319 1
281 553 1
281 619 1
281 644 1
282 121 1
282 187 1
282 212 1
282 229 1
282 295 1
282 320 1
282 554 1
282 620 1
282 631 1
283 120 1
283 186 1
283 216 1
283 228 1
283 294 1
283 324 1
283 551 1
283 617 1
283 642 1
284 126 1
284 195 1
284 203 1
284 234 1
284 303 1
284 311 1
284 552 1
284 618 1
284 648 1
285 116 1
285 183 1
285 207 1
285 224 1
285 291 1
285 315 1
285 549 1
285 616 1
285 647 1
286 117 1
286 184 1
286 215 1
286 225 1
286 292 1
286 323 1
286 557 1
286 625 1
286 633 1
287 110 1
287 192 1
287 208 1
287 218 1
287 300 1
287 316 1
287 556 1
287 623 1
287 632 1
288 122 1
288 188 1
288 199 1
288 230 1
288 296 1
288 307 1
288 541 1
288 621 1
288 637 1
289 131 1
289 161 1
289 204 1
289 239 1
289 269 1
289 312 1
289 576 1
289 579 1
289 635 1
290 143 1
290 149 1
290 201 1
290 251 1
290 257 1
290 309 1
290 561 1
290 594 1
290 634 1
291 136 1
291 158 1
291 209 1
291 244 1
291 266 1
291 317 1
291 560 1
291 577 1
291 640 1
292 137 1
292 157 1
292 210 1
292 245 1
292 265 1
292 318 1
292 568 1
292 590 1
292 641 1
293 127 1
293 146 1
293 205 1
293 235 1
293 254 1
293 313 1
293 565 1
293 592 1
293 638 1
294 133 1
294 160 1
294 206 1
294 241 1
294 268 1
294 314 1
294 566 1
294 591 1
294 639 1
295 132 1
295 153 1
295 213 1
295 240 1
295 261 1
295 321 1
295 563 1
295 593 1
295 636 1
296 141 1
296 152 1
296 214 1
296 249 1
296 260 1
296 322 1
296 564 1
296 585 1
296 645 1
297 142 1
297 151 1
297 200 1
297 250 1
297 259 1
297 308 1
297 573 1
297 584 1
297 646 1
298 129 1
298 162 1
298 202 1
298 237 1
298 270 1
298 310 1
298 562 1
298 588 1
298 643 1
299 130 1
299 156 1
299 211 1
299 238 1
299 264 1
299 319 1
299 571 1
299 587 1
299 644 1
300 139 1
300 155 1
300 212 1
300 247 1
300 263 1
300 320 1
300 572 1
300 586 1
300 631 1
301 138 1
301 148 1
301 216 1
301 246 1
301 256 1
301 324 1
301 569 1
301 589 1
301 642 1
302 144 1
302 147 1
302 203 1
302 252 1
302 255 1
302 311 1
302 570 1
302 580 1
302 648 1
303 134 1
303 159 1
303 207 1
303 242 1
303 267 1
303 315 1
303 567 1
303 582 1
303 647 1
304 135 1
304 150 1
304 215 1
304 243 1
304 258 1
304 323 1
304 575 1
304 581 1
304 633 1
305 128 1
305 145 1
305 208 1
305 236 1
305 253 1
305 316 1
305 574 1
305 583 1
305 632 1
306 140 1
306 154 1
306 199 1
306 248 1
306 262 1
306 307 1
306 559 1
306 578 1
306 637 1
307 161 1
307 164 1
307 196 1
307 269 1
307 272 1
307 304 1
307 579 1
307 610 1
307 627 1
308 149 1
308 176 1
308 193 1
308 257 1
308 284 1
308 301 1
308 594 1
308 595 1
308 626 1
309 158 1
309 167 1
309 198 1
309 266 1
309 275 1
309 306 1
309 577 1
309 612 1
309 624 1
310 157 1
310 168 1
310 185 1
310 265 1
310 276 1
310 293 1
310 590 1
310 599 1
310 630 1
311 146 1
311 179 1
311 189 1
311 254 1
311 287 1
311 297 1
311 592 1
311 597 1
311 629 1
312 160 1
312 165 1
312 197 1
312 268 1
312 273 1
312 305 1
312 591 1
312 598 1
312 615 1
313 153 1
313 172 1
313 182 1
313 261 1
313 280 1
313 290 1
313 593 1
313 596 1
313 628 1
314 152 1
314 173 1
314 190 1
314 260 1
314 281 1
314 298 1
314 585 1
314 604 1
314 614 1
315 151 1
315 174 1
315 191 1
315 259 1
315 282 1
315 299 1
315 584 1
315 605 1
315 622 1
316 162 1
316 163 1
316 194 1
316 270 1
316 271 1
316 302 1
316 588 1
316 601 1
316 613 1
317 156 1
317 169 1
317 181 1
317 264 1
317 277 1
317 289 1
317 587 1
317 602 1
317 619 1
318 155 1
318 170 1
318 187 1
318 263 1
318 278 1
318 295 1
318 586 1
318 603 1
318 620 1
319 148 1
319 177 1
319 186 1
319 256 1
319 285 1
319 294 1
319 589 1
319 600 1
319 617 1
320 147 1
320 178 1
320 195 1
320 255 1
320 286 1
320 303 1
320 580 1
320 609 1
320 618 1
321 159 1
321 166 1
321 183 1
321 267 1
321 274 1
321 291 1
321 582 1
321 607 1
321 616 1
322 150 1
322 175 1
322 184 1
322 258 1
322 283 1
322 292 1
322 581 1
322 608 1
322 625 1
323 145 1
323 180 1
323 192 1
323 253 1
323 288 1
323 300 1
323 583 1
323 606 1
323 623 1
324 154 1
324 171 1
324 188 1
324 262 1
324 279 1
324 296 1
324 578 1
324 611 1
324 621 1
