%%MatrixMarket matrix coordinate integer general
324 648 2916
1 1 1
1 55 1
1 73 1
1 109 1
1 163 1
1 181 1
1 325 1
1 379 1
1 397 1
2 2 1
2 56 1
2 74 1
2 110 1
2 164 1
2 182 1
2 326 1
2 380 1
2 398 1
3 3 1
3 57 1
3 75 1
3 111 1
3 165 1
3 183 1
3 327 1
3 381 1
3 399 1
4 4 1
4 58 1
4 76 1
4 112 1
4 166 1
4 184 1
4 328 1
4 382 1
4 400 1
5 5 1
5 59 1
5 77 1
5 113 1
5 167 1
5 185 1
5 329 1
5 383 1
5 401 1
6 6 1
6 60 1
6 78 1
6 114 1
6 168 1
6 186 1
6 330 1
6 384 1
6 402 1
7 7 1
7 61 1
7 79 1
7 115 1
7 169 1
7 187 1
7 331 1
7 385 1
7 403 1
8 8 1
8 62 1
8 80 1
8 116 1
8 170 1
8 188 1
8 332 1
8 386 1
8 404 1
9 9 1
9 63 1
9 81 1
9 117 1
9 171 1
9 189 1
9 333 1
9 387 1
9 405 1
10 10 1
10 64 1
10 82 1
10 118 1
10 172 1
10 190 1
10 334 1
10 388 1
10 406 1
11 11 1
11 65 1
11 83 1
11 119 1
11 173 1
11 191 1
11 335 1
11 389 1
11 407 1
12 12 1
12 66 1
12 84 1
12 120 1
12 174 1
12 192 1
12 336 1
12 390 1
12 408 1
13 13 1
13 67 1
13 85 1
13 121 1
13 175 1
13 193 1
13 337 1
13 391 1
13 409 1
14 14 1
14 68 1
14 86 1
14 122 1
14 176 1
14 194 1
14 338 1
14 392 1
14 410 1
15 15 1
15 69 1
15 87 1
15 123 1
15 177 1
15 195 1
15 339 1
15 393 1
15 411 1
16 16 1
16 70 1
16 88 1
16 124 1
16 178 1
16 196 1
16 340 1
16 394 1
16 412 1
17 17 1
17 71 1
17 89 1
17 125 1
17 179 1
17 197 1
17 341 1
17 395 1
17 413 1
18 18 1
18 72 1
18 90 1
18 126 1
18 180 1
18 198 1
18 342 1
18 396 1
18 414 1
19 19 1
19 55 1
19 91 1
19 127 1
19 163 1
19 199 1
19 343 1
19 379 1
19 415 1
20 20 1
20 56 1
20 92 1
20 128 1
20 164 1
20 200 1
20 344 1
20 380 1
20 416 1
21 21 1
21 57 1
21 93 1
21 129 1
21 165 1
21 201 1
21 345 1
21 381 1
21 417 1
22 22 1
22 58 1
22 94 1
22 130 1
22 166 1
22 202 1
22 346 1
22 382 1
22 418 1
23 23 1
23 59 1
23 95 1
23 131 1
23 167 1
23 203 1
23 347 1
23 383 1
23 419 1
24 24 1
24 60 1
24 96 1
24 132 1
24 168 1
24 204 1
24 348 1
24 384 1
24 420 1
25 25 1
25 61 1
25 97 1
25 133 1
25 169 1
25 205 1
25 349 1
25 385 1
25 421 1
26 26 1
26 62 1
26 98 1
26 134 1
26 170 1
26 206 1
26 350 1
26 386 1
26 422 1
27 27 1
27 63 1
27 99 1
27 135 1
27 171 1
27 207 1
27 351 1
27 387 1
27 423 1
28 28 1
28 64 1
28 100 1
28 136 1
28 172 1
28 208 1
28 352 1
28 388 1
28 424 1
29 29 1
29 65 1
29 101 1
29 137 1
29 173 1
29 209 1
29 353 1
29 389 1
29 425 1
30 30 1
30 66 1
30 102 1
30 138 1
30 174 1
30 210 1
30 354 1
30 390 1
30 426 1
31 31 1
31 67 1
31 103 1
31 139 1
31 175 1
31 211 1
31 355 1
31 391 1
31 427 1
32 32 1
32 68 1
32 104 1
32 140 1
32 176 1
32 212 1
32 356 1
32 392 1
32 428 1
33 33 1
33 69 1
33 105 1
33 141 1
33 177 1
33 213 1
33 357 1
33 393 1
33 429 1
34 34 1
34 70 1
34 106 1
34 142 1
34 178 1
34 214 1
34 358 1
34 394 1
34 430 1
35 35 1
35 71 1
35 107 1
35 143 1
35 179 1
35 215 1
35 359 1
35 395 1
35 431 1
36 36 1
36 72 1
36 108 1
36 144 1
36 180 1
36 216 1
36 360 1
36 396 1
36 432 1
37 37 1
37 73 1
37 91 1
37 145 1
37 181 1
37 199 1
37 361 1
37 397 1
37 415 1
38 38 1
38 74 1
38 92 1
38 146 1
38 182 1
38 200 1
38 362 1
38 398 1
38 416 1
39 39 1
39 75 1
39 93 1
39 147 1
39 183 1
39 201 1
39 363 1
39 399 1
39 417 1
40 40 1
40 76 1
40 94 1
40 148 1
40 184 1
40 202 1
40 364 1
40 400 1
40 418 1
41 41 1
41 77 1
41 95 1
41 149 1
41 185 1
41 203 1
41 365 1
41 401 1
41 419 1
42 42 1
42 78 1
42 96 1
42 150 1
42 186 1
42 204 1
42 366 1
42 402 1
42 420 1
43 43 1
43 79 1
43 97 1
43 151 1
43 187 1
43 205 1
43 367 1
43 403 1
43 421 1
44 44 1
44 80 1
44 98 1
44 152 1
44 188 1
44 206 1
44 368 1
44 404 1
44 422 1
45 45 1
45 81 1
45 99 1
45 153 1
45 189 1
45 207 1
45 369 1
45 405 1
45 423 1
46 46 1
46 82 1
46 100 1
46 154 1
46 190 1
46 208 1
46 370 1
46 406 1
46 424 1
47 47 1
47 83 1
47 101 1
47 155 1
47 191 1
47 209 1
47 371 1
47 407 1
47 425 1
48 48 1
48 84 1
48 102 1
48 156 1
48 192 1
48 210 1
48 372 1
48 408 1
48 426 1
49 49 1
49 85 1
49 103 1
49 157 1
49 193 1
49 211 1
49 373 1
49 409 1
49 427 1
50 50 1
50 86 1
50 104 1
50 158 1
50 194 1
50 212 1
50 374 1
50 410 1
50 428 1
51 51 1
51 87 1
51 105 1
51 159 1
51 195 1
51 213 1
51 375 1
51 411 1
51 429 1
52 52 1
52 88 1
52 106 1
52 160 1
52 196 1
52 214 1
52 376 1
52 412 1
52 430 1
53 53 1
53 89 1
53 107 1
53 161 1
53 197 1
53 215 1
53 377 1
53 413 1
53 431 1
54 54 1
54 90 1
54 108 1
54 162 1
54 198 1
54 216 1
54 378 1
54 414 1
54 432 1
55 1 1
55 55 1
55 73 1
55 217 1
55 271 1
55 289 1
55 433 1
55 487 1
55 505 1
56 2 1
56 56 1
56 74 1
56 218 1
56 272 1
56 290 1
56 434 1
56 488 1
56 506 1
57 3 1
57 57 1
57 75 1
57 219 1
57 273 1
57 291 1
57 435 1
57 489 1
57 507 1
58 4 1
58 58 1
58 76 1
58 220 1
58 274 1
58 292 1
58 436 1
58 490 1
58 508 1
59 5 1
59 59 1
59 77 1
59 221 1
59 275 1
59 293 1
59 437 1
59 491 1
59 509 1
60 6 1
60 60 1
60 78 1
60 222 1
60 276 1
60 294 1
60 438 1
60 492 1
60 510 1
61 7 1
61 61 1
61 79 1
61 223 1
61 277 1
61 295 1
61 439 1
61 493 1
61 511 1
62 8 1
62 62 1
62 80 1
62 224 1
62 278 1
62 296 1
62 440 1
62 494 1
62 512 1
63 9 1
63 63 1
63 81 1
63 225 1
63 279 1
63 297 1
63 441 1
63 495 1
63 513 1
64 10 1
64 64 1
64 82 1
64 226 1
64 280 1
64 298 1
64 442 1
64 496 1
64 514 1
65 11 1
65 65 1
65 83 1
65 227 1
65 281 1
65 299 1
65 443 1
65 497 1
65 515 1
66 12 1
66 66 1
66 84 1
66 228 1
66 282 1
66 300 1
66 444 1
66 498 1
66 516 1
67 13 1
67 67 1
67 85 1
67 229 1
67 283 1
67 301 1
67 445 1
67 499 1
67 517 1
68 14 1
68 68 1
68 86 1
68 230 1
68 284 1
68 302 1
68 446 1
68 500 1
68 518 1
69 15 1
69 69 1
69 87 1
69 231 1
69 285 1
69 303 1
69 447 1
69 501 1
69 519 1
70 16 1
70 70 1
70 88 1
70 232 1
70 286 1
70 304 1
70 448 1
70 502 1
70 520 1
71 17 1
71 71 1
71 89 1
71 233 1
71 287 1
71 305 1
71 449 1
71 503 1
71 521 1
72 18 1
72 72 1
72 90 1
72 234 1
72 288 1
72 306 1
72 450 1
72 504 1
72 522 1
73 19 1
73 55 1
73 91 1
73 235 1
73 271 1
73 307 1
73 451 1
73 487 1
73 523 1
74 20 1
74 56 1
74 92 1
74 236 1
74 272 1
74 308 1
74 452 1
74 488 1
74 524 1
75 21 1
75 57 1
75 93 1
75 237 1
75 273 1
75 309 1
75 453 1
75 489 1
75 525 1
76 22 1
76 58 1
76 94 1
76 238 1
76 274 1
76 310 1
76 454 1
76 490 1
76 526 1
77 23 1
77 59 1
77 95 1
77 239 1
77 275 1
77 311 1
77 455 1
77 491 1
77 527 1
78 24 1
78 60 1
78 96 1
78 240 1
78 276 1
78 312 1
78 456 1
78 492 1
78 528 1
79 25 1
79 61 1
79 97 1
79 241 1
79 277 1
79 313 1
79 457 1
79 493 1
79 529 1
80 26 1
80 62 1
80 98 1
80 242 1
80 278 1
80 314 1
80 458 1
80 494 1
80 530 1
81 27 1
81 63 1
81 99 1
81 243 1
81 279 1
81 315 1
81 459 1
81 495 1
81 531 1
82 28 1
82 64 1
82 100 1
82 244 1
82 280 1
82 316 1
82 460 1
82 496 1
82 532 1
83 29 1
83 65 1
83 101 1
83 245 1
83 281 1
83 317 1
83 461 1
83 497 1
83 533 1
84 30 1
84 66 1
84 102 1
84 246 1
84 282 1
84 318 1
84 462 1
84 498 1
84 534 1
85 31 1
85 67 1
85 103 1
85 247 1
85 283 1
85 319 1
85 463 1
85 499 1
85 535 1
86 32 1
86 68 1
86 104 1
86 248 1
86 284 1
86 320 1
86 464 1
86 500 1
86 536 1
87 33 1
87 69 1
87 105 1
87 249 1
87 285 1
87 321 1
87 465 1
87 501 1
87 537 1
88 34 1
88 70 1
88 106 1
88 250 1
88 286 1
88 322 1
88 466 1
88 502 1
88 538 1
89 35 1
89 71 1
89 107 1
89 251 1
89 287 1
89 323 1
89 467 1
89 503 1
89 539 1
90 36 1
90 72 1
90 108 1
90 252 1
90 288 1
90 324 1
90 468 1
90 504 1
90 540 1
91 37 1
91 73 1
91 91 1
91 253 1
91 289 1
91 307 1
91 469 1
91 505 1
91 523 1
92 38 1
92 74 1
92 92 1
92 254 1
92 290 1
92 308 1
92 470 1
92 506 1
92 524 1
93 39 1
93 75 1
93 93 1
93 255 1
93 291 1
93 309 1
93 471 1
93 507 1
93 525 1
94 40 1
94 76 1
94 94 1
94 256 1
94 292 1
94 310 1
94 472 1
94 508 1
94 526 1
95 41 1
95 77 1
95 95 1
95 257 1
95 293 1
95 311 1
95 473 1
95 509 1
95 527 1
96 42 1
96 78 1
96 96 1
96 258 1
96 294 1
96 312 1
96 474 1
96 510 1
96 528 1
97 43 1
97 79 1
97 97 1
97 259 1
97 295 1
97 313 1
97 475 1
97 511 1
97 529 1
98 44 1
98 80 1
98 98 1
98 260 1
98 296 1
98 314 1
98 476 1
98 512 1
98 530 1
99 45 1
99 81 1
99 99 1
99 261 1
99 297 1
99 315 1
99 477 1
99 513 1
99 531 1
100 46 1
100 82 1
100 100 1
100 262 1
100 298 1
100 316 1
100 478 1
100 514 1
100 532 1
101 47 1
101 83 1
101 101 1
101 263 1
101 299 1
101 317 1
101 479 1
101 515 1
101 533 1
102 48 1
102 84 1
102 102 1
102 264 1
102 300 1
102 318 1
102 480 1
102 516 1
102 534 1
103 49 1
103 85 1
103 103 1
103 265 1
103 301 1
103 319 1
103 481 1
103 517 1
103 535 1
104 50 1
104 86 1
104 104 1
104 266 1
104 302 1
104 320 1
104 482 1
104 518 1
104 536 1
105 51 1
105 87 1
105 105 1
105 267 1
105 303 1
105 321 1
105 483 1
105 519 1
105 537 1
106 52 1
106 88 1
106 106 1
106 268 1
106 304 1
106 322 1
106 484 1
106 520 1
106 538 1
107 53 1
107 89 1
107 107 1
107 269 1
107 305 1
107 323 1
107 485 1
107 521 1
107 539 1
108 54 1
108 90 1
108 108 1
108 270 1
108 306 1
108 324 1
108 486 1
108 522 1
108 540 1
109 109 1
109 163 1
109 181 1
109 217 1
109 271 1
109 289 1
109 541 1
109 595 1
109 613 1
110 110 1
110 164 1
110 182 1
110 218 1
110 272 1
110 290 1
110 542 1
110 596 1
110 614 1
111 111 1
111 165 1
111 183 1
111 219 1
111 273 1
111 291 1
111 543 1
111 597 1
111 615 1
112 112 1
112 166 1
112 184 1
112 220 1
112 274 1
112 292 1
112 544 1
112 598 1
112 616 1
113 113 1
113 167 1
113 185 1
113 221 1
113 275 1
113 293 1
113 545 1
113 599 1
113 617 1
114 114 1
114 168 1
114 186 1
114 222 1
114 276 1
114 294 1
114 546 1
114 600 1
114 618 1
115 115 1
115 169 1
115 187 1
115 223 1
115 277 1
115 295 1
115 547 1
115 601 1
115 619 1
116 116 1
116 170 1
116 188 1
116 224 1
116 278 1
116 296 1
116 548 1
116 602 1
116 620 1
117 117 1
117 171 1
117 189 1
117 225 1
117 279 1
117 297 1
117 549 1
117 603 1
117 621 1
118 118 1
118 172 1
118 190 1
118 226 1
118 280 1
118 298 1
118 550 1
118 604 1
118 622 1
119 119 1
119 173 1
119 191 1
119 227 1
119 281 1
119 299 1
119 551 1
119 605 1
119 623 1
120 120 1
120 174 1
120 192 1
120 228 1
120 282 1
120 300 1
120 552 1
120 606 1
120 624 1
121 121 1
121 175 1
121 193 1
121 229 1
121 283 1
121 301 1
121 553 1
121 607 1
121 625 1
122 122 1
122 176 1
122 194 1
122 230 1
122 284 1
122 302 1
122 554 1
122 608 1
122 626 1
123 123 1
123 177 1
123 195 1
123 231 1
123 285 1
123 303 1
123 555 1
123 609 1
123 627 1
124 124 1
124 178 1
124 196 1
124 232 1
124 286 1
124 304 1
124 556 1
124 610 1
124 628 1
125 125 1
125 179 1
125 197 1
125 233 1
125 287 1
125 305 1
125 557 1
125 611 1
125 629 1
126 126 1
126 180 1
126 198 1
126 234 1
126 288 1
126 306 1
126 558 1
126 612 1
126 630 1
127 127 1
127 163 1
127 199 1
127 235 1
127 271 1
127 307 1
127 559 1
127 595 1
127 631 1
128 128 1
128 164 1
128 200 1
128 236 1
128 272 1
128 308 1
128 560 1
128 596 1
128 632 1
129 129 1
129 165 1
129 201 1
129 237 1
129 273 1
129 309 1
129 561 1
129 597 1
129 633 1
130 130 1
130 166 1
130 202 1
130 238 1
130 274 1
130 310 1
130 562 1
130 598 1
130 634 1
131 131 1
131 167 1
131 203 1
131 239 1
131 275 1
131 311 1
131 563 1
131 599 1
131 635 1
132 132 1
132 168 1
132 204 1
132 240 1
132 276 1
132 312 1
132 564 1
132 600 1
132 636 1
133 133 1
133 169 1
133 205 1
133 241 1
133 277 1
133 313 1
133 565 1
133 601 1
133 637 1
134 134 1
134 170 1
134 206 1
134 242 1
134 278 1
134 314 1
134 566 1
134 602 1
134 638 1
135 135 1
135 171 1
135 207 1
135 243 1
135 279 1
135 315 1
135 567 1
135 603 1
135 639 1
136 136 1
136 172 1
136 208 1
136 244 1
136 280 1
136 316 1
136 568 1
136 604 1
136 640 1
137 137 1
137 173 1
137 209 1
137 245 1
137 281 1
137 317 1
137 569 1
137 605 1
137 641 1
138 138 1
138 174 1
138 210 1
138 246 1
138 282 1
138 318 1
138 570 1
138 606 1
138 642 1
139 139 1
139 175 1
139 211 1
139 247 1
139 283 1
139 319 1
139 571 1
139 607 1
139 643 1
140 140 1
140 176 1
140 212 1
140 248 1
140 284 1
140 320 1
140 572 1
140 608 1
140 644 1
141 141 1
141 177 1
141 213 1
141 249 1
141 285 1
141 321 1
141 573 1
141 609 1
141 645 1
142 142 1
142 178 1
142 214 1
142 250 1
142 286 1
142 322 1
142 574 1
142 610 1
142 646 1
143 143 1
143 179 1
143 215 1
143 251 1
143 287 1
143 323 1
143 575 1
143 611 1
143 647 1
144 144 1
144 180 1
144 216 1
144 252 1
144 288 1
144 324 1
144 576 1
144 612 1
144 648 1
145 145 1
145 181 1
145 199 1
145 253 1
145 289 1
145 307 1
145 577 1
145 613 1
145 631 1
146 146 1
146 182 1
146 200 1
146 254 1
146 290 1
146 308 1
146 578 1
146 614 1
146 632 1
147 147 1
147 183 1
147 201 1
147 255 1
147 291 1
147 309 1
147 579 1
147 615 1
147 633 1
148 148 1
148 184 1
148 202 1
148 256 1
148 292 1
148 310 1
148 580 1
148 616 1
148 634 1
149 149 1
149 185 1
149 203 1
149 257 1
149 293 1
149 311 1
149 581 1
149 617 1
149 635 1
150 150 1
150 186 1
150 204 1
150 258 1
150 294 1
150 312 1
150 582 1
150 618 1
150 636 1
151 151 1
151 187 1
151 205 1
151 259 1
151 295 1
151 313 1
151 583 1
151 619 1
151 637 1
152 152 1
152 188 1
152 206 1
152 260 1
152 296 1
152 314 1
152 584 1
152 620 1
152 638 1
153 153 1
153 189 1
153 207 1
153 261 1
153 297 1
153 315 1
153 585 1
153 621 1
153 639 1
154 154 1
154 190 1
154 208 1
154 262 1
154 298 1
154 316 1
154 586 1
154 622 1
154 640 1
155 155 1
155 191 1
155 209 1
155 263 1
155 299 1
155 317 1
155 587 1
155 623 1
155 641 1
156 156 1
156 192 1
156 210 1
156 264 1
156 300 1
156 318 1
156 588 1
156 624 1
156 642 1
157 157 1
157 193 1
157 211 1
157 265 1
157 301 1
157 319 1
157 589 1
157 625 1
157 643 1
158 158 1
158 194 1
158 212 1
158 266 1
158 302 1
158 320 1
158 590 1
158 626 1
158 644 1
159 159 1
159 195 1
159 213 1
159 267 1
159 303 1
159 321 1
159 591 1
159 627 1
159 645 1
160 160 1
160 196 1
160 214 1
160 268 1
160 304 1
160 322 1
160 592 1
160 628 1
160 646 1
161 161 1
161 197 1
161 215 1
161 269 1
161 305 1
161 323 1
161 593 1
161 629 1
161 647 1
162 162 1
162 198 1
162 216 1
162 270 1
162 306 1
162 324 1
162 594 1
162 630 1
162 648 1
163 1 1
163 68 1
163 85 1
163 109 1
163 176 1
163 193 1
163 328 1
163 381 1
163 413 1
164 2 1
164 70 1
164 87 1
164 110 1
164 178 1
164 195 1
164 336 1
164 389 1
164 406 1
165 3 1
165 71 1
165 81 1
165 111 1
165 179 1
165 189 1
165 332 1
165 385 1
165 397 1
166 4 1
166 57 1
166 89 1
166 112 1
166 165 1
166 197 1
166 333 1
166 386 1
166 403 1
167 5 1
167 72 1
167 84 1
167 113 1
167 180 1
167 192 1
167 340 1
167 393 1
167 402 1
168 6 1
168 59 1
168 90 1
168 114 1
168 167 1
168 198 1
168 326 1
168 394 1
168 411 1
169 7 1
169 55 1
169 86 1
169 115 1
169 163 1
169 194 1
169 337 1
169 382 1
169 399 1
170 8 1
170 61 1
170 73 1
170 116 1
170 169 1
170 181 1
170 338 1
170 391 1
170 400 1
171 9 1
171 62 1
171 79 1
171 117 1
171 170 1
171 187 1
171 325 1
171 392 1
171 409 1
172 10 1
172 56 1
172 88 1
172 118 1
172 164 1
172 196 1
172 342 1
172 390 1
172 407 1
173 11 1
173 64 1
173 74 1
173 119 1
173 172 1
173 182 1
173 329 1
173 396 1
173 408 1
174 12 1
174 65 1
174 82 1
174 120 1
174 173 1
174 190 1
174 330 1
174 383 1
174 414 1
175 13 1
175 58 1
175 75 1
175 121 1
175 166 1
175 183 1
175 341 1
175 387 1
175 404 1
176 14 1
176 67 1
176 76 1
176 122 1
176 175 1
176 184 1
176 327 1
176 395 1
176 405 1
177 15 1
177 60 1
177 77 1
177 123 1
177 168 1
177 185 1
177 334 1
177 380 1
177 412 1
178 16 1
178 69 1
178 78 1
178 124 1
178 177 1
178 186 1
178 335 1
178 388 1
178 398 1
179 17 1
179 63 1
179 80 1
179 125 1
179 171 1
179 188 1
179 331 1
179 379 1
179 410 1
180 18 1
180 66 1
180 83 1
180 126 1
180 174 1
180 191 1
180 339 1
180 384 1
180 401 1
181 35 1
181 68 1
181 98 1
181 143 1
181 176 1
181 206 1
181 349 1
181 381 1
181 428 1
182 36 1
182 70 1
182 101 1
182 144 1
182 178 1
182 209 1
182 357 1
182 389 1
182 419 1
183 19 1
183 71 1
183 103 1
183 127 1
183 179 1
183 211 1
183 346 1
183 385 1
183 431 1
184 25 1
184 57 1
184 104 1
184 133 1
184 165 1
184 212 1
184 355 1
184 386 1
184 417 1
185 20 1
185 72 1
185 105 1
185 128 1
185 180 1
185 213 1
185 354 1
185 393 1
185 424 1
186 28 1
186 59 1
186 106 1
186 136 1
186 167 1
186 214 1
186 360 1
186 394 1
186 425 1
187 21 1
187 55 1
187 99 1
187 129 1
187 163 1
187 207 1
187 350 1
187 382 1
187 415 1
188 22 1
188 61 1
188 107 1
188 130 1
188 169 1
188 215 1
188 351 1
188 391 1
188 421 1
189 31 1
189 62 1
189 93 1
189 139 1
189 170 1
189 201 1
189 359 1
189 392 1
189 422 1
190 23 1
190 56 1
190 102 1
190 131 1
190 164 1
190 210 1
190 358 1
190 390 1
190 420 1
191 24 1
191 64 1
191 108 1
191 132 1
191 172 1
191 216 1
191 344 1
191 396 1
191 429 1
192 33 1
192 65 1
192 95 1
192 141 1
192 173 1
192 203 1
192 352 1
192 383 1
192 430 1
193 26 1
193 58 1
193 91 1
193 134 1
193 166 1
193 199 1
193 356 1
193 387 1
193 418 1
194 27 1
194 67 1
194 97 1
194 135 1
194 175 1
194 205 1
194 343 1
194 395 1
194 427 1
195 29 1
195 60 1
195 92 1
195 137 1
195 168 1
195 200 1
195 347 1
195 380 1
195 426 1
196 30 1
196 69 1
196 100 1
196 138 1
196 177 1
196 208 1
196 348 1
196 388 1
196 432 1
197 32 1
197 63 1
197 94 1
197 140 1
197 171 1
197 202 1
197 345 1
197 379 1
197 423 1
198 34 1
198 66 1
198 96 1
198 142 1
198 174 1
198 204 1
198 353 1
198 384 1
198 416 1
199 45 1
199 85 1
199 98 1
199 153 1
199 193 1
199 206 1
199 361 1
199 413 1
199 428 1
200 48 1
200 87 1
200 101 1
200 156 1
200 195 1
200 209 1
200 366 1
200 406 1
200 419 1
201 50 1
201 81 1
201 103 1
201 158 1
201 189 1
201 211 1
201 363 1
201 397 1
201 431 1
202 37 1
202 89 1
202 104 1
202 145 1
202 197 1
202 212 1
202 364 1
202 403 1
202 417 1
203 52 1
203 84 1
203 105 1
203 160 1
203 192 1
203 213 1
203 371 1
203 402 1
203 424 1
204 38 1
204 90 1
204 106 1
204 146 1
204 198 1
204 214 1
204 372 1
204 411 1
204 425 1
205 53 1
205 86 1
205 99 1
205 161 1
205 194 1
205 207 1
205 367 1
205 399 1
205 415 1
206 39 1
206 73 1
206 107 1
206 147 1
206 181 1
206 215 1
206 368 1
206 400 1
206 421 1
207 40 1
207 79 1
207 93 1
207 148 1
207 187 1
207 201 1
207 369 1
207 409 1
207 422 1
208 54 1
208 88 1
208 102 1
208 162 1
208 196 1
208 210 1
208 375 1
208 407 1
208 420 1
209 41 1
209 74 1
209 108 1
209 149 1
209 182 1
209 216 1
209 376 1
209 408 1
209 429 1
210 42 1
210 82 1
210 95 1
210 150 1
210 190 1
210 203 1
210 362 1
210 414 1
210 430 1
211 43 1
211 75 1
211 91 1
211 151 1
211 183 1
211 199 1
211 373 1
211 404 1
211 418 1
212 44 1
212 76 1
212 97 1
212 152 1
212 184 1
212 205 1
212 374 1
212 405 1
212 427 1
213 46 1
213 77 1
213 92 1
213 154 1
213 185 1
213 200 1
213 378 1
213 412 1
213 426 1
214 47 1
214 78 1
214 100 1
214 155 1
214 186 1
214 208 1
214 365 1
214 398 1
214 432 1
215 49 1
215 80 1
215 94 1
215 157 1
215 188 1
215 202 1
215 377 1
215 410 1
215 423 1
216 51 1
216 83 1
216 96 1
216 159 1
216 191 1
216 204 1
216 370 1
216 401 1
216 416 1
217 1 1
217 68 1
217 85 1
217 220 1
217 273 1
217 305 1
217 438 1
217 491 1
217 522 1
218 2 1
218 70 1
218 87 1
218 228 1
218 281 1
218 298 1
218 441 1
218 494 1
218 511 1
219 3 1
219 71 1
219 81 1
219 224 1
219 277 1
219 289 1
219 443 1
219 496 1
219 506 1
220 4 1
220 57 1
220 89 1
220 225 1
220 278 1
220 295 1
220 444 1
220 497 1
220 514 1
221 5 1
221 72 1
221 84 1
221 232 1
221 285 1
221 294 1
221 446 1
221 499 1
221 508 1
222 6 1
222 59 1
222 90 1
222 218 1
222 286 1
222 303 1
222 433 1
222 500 1
222 517 1
223 7 1
223 55 1
223 86 1
223 229 1
223 274 1
223 291 1
223 447 1
223 492 1
223 509 1
224 8 1
224 61 1
224 73 1
224 230 1
224 283 1
224 292 1
224 448 1
224 501 1
224 510 1
225 9 1
225 62 1
225 79 1
225 217 1
225 284 1
225 301 1
225 434 1
225 502 1
225 519 1
226 10 1
226 56 1
226 88 1
226 234 1
226 282 1
226 299 1
226 449 1
226 495 1
226 512 1
227 11 1
227 64 1
227 74 1
227 221 1
227 288 1
227 300 1
227 435 1
227 503 1
227 513 1
228 12 1
228 65 1
228 82 1
228 222 1
228 275 1
228 306 1
228 436 1
228 489 1
228 521 1
229 13 1
229 58 1
229 75 1
229 233 1
229 279 1
229 296 1
229 450 1
229 498 1
229 515 1
230 14 1
230 67 1
230 76 1
230 219 1
230 287 1
230 297 1
230 437 1
230 504 1
230 516 1
231 15 1
231 60 1
231 77 1
231 226 1
231 272 1
231 304 1
231 439 1
231 487 1
231 518 1
232 16 1
232 69 1
232 78 1
232 227 1
232 280 1
232 290 1
232 440 1
232 493 1
232 505 1
233 17 1
233 63 1
233 80 1
233 223 1
233 271 1
233 302 1
233 442 1
233 488 1
233 520 1
234 18 1
234 66 1
234 83 1
234 231 1
234 276 1
234 293 1
234 445 1
234 490 1
234 507 1
235 35 1
235 68 1
235 98 1
235 241 1
235 273 1
235 320 1
235 460 1
235 491 1
235 538 1
236 36 1
236 70 1
236 101 1
236 249 1
236 281 1
236 311 1
236 463 1
236 494 1
236 525 1
237 19 1
237 71 1
237 103 1
237 238 1
237 277 1
237 323 1
237 456 1
237 496 1
237 540 1
238 25 1
238 57 1
238 104 1
238 247 1
238 278 1
238 309 1
238 465 1
238 497 1
238 527 1
239 20 1
239 72 1
239 105 1
239 246 1
239 285 1
239 316 1
239 459 1
239 499 1
239 529 1
240 28 1
240 59 1
240 106 1
240 252 1
240 286 1
240 317 1
240 467 1
240 500 1
240 530 1
241 21 1
241 55 1
241 99 1
241 242 1
241 274 1
241 307 1
241 461 1
241 492 1
241 524 1
242 22 1
242 61 1
242 107 1
242 243 1
242 283 1
242 313 1
242 462 1
242 501 1
242 532 1
243 31 1
243 62 1
243 93 1
243 251 1
243 284 1
243 314 1
243 468 1
243 502 1
243 533 1
244 23 1
244 56 1
244 102 1
244 250 1
244 282 1
244 312 1
244 464 1
244 495 1
244 526 1
245 24 1
245 64 1
245 108 1
245 236 1
245 288 1
245 321 1
245 451 1
245 503 1
245 535 1
246 33 1
246 65 1
246 95 1
246 244 1
246 275 1
246 322 1
246 457 1
246 489 1
246 536 1
247 26 1
247 58 1
247 91 1
247 248 1
247 279 1
247 310 1
247 466 1
247 498 1
247 528 1
248 27 1
248 67 1
248 97 1
248 235 1
248 287 1
248 319 1
248 452 1
248 504 1
248 537 1
249 29 1
249 60 1
249 92 1
249 239 1
249 272 1
249 318 1
249 453 1
249 487 1
249 531 1
250 30 1
250 69 1
250 100 1
250 240 1
250 280 1
250 324 1
250 454 1
250 493 1
250 539 1
251 32 1
251 63 1
251 94 1
251 237 1
251 271 1
251 315 1
251 455 1
251 488 1
251 534 1
252 34 1
252 66 1
252 96 1
252 245 1
252 276 1
252 308 1
252 458 1
252 490 1
252 523 1
253 45 1
253 85 1
253 98 1
253 253 1
253 305 1
253 320 1
253 470 1
253 522 1
253 538 1
254 48 1
254 87 1
254 101 1
254 258 1
254 298 1
254 311 1
254 472 1
254 511 1
254 525 1
255 50 1
255 81 1
255 103 1
255 255 1
255 289 1
255 323 1
255 473 1
255 506 1
255 540 1
256 37 1
256 89 1
256 104 1
256 256 1
256 295 1
256 309 1
256 474 1
256 514 1
256 527 1
257 52 1
257 84 1
257 105 1
257 263 1
257 294 1
257 316 1
257 476 1
257 508 1
257 529 1
258 38 1
258 90 1
258 106 1
258 264 1
258 303 1
258 317 1
258 477 1
258 517 1
258 530 1
259 53 1
259 86 1
259 99 1
259 259 1
259 291 1
259 307 1
259 478 1
259 509 1
259 524 1
260 39 1
260 73 1
260 107 1
260 260 1
260 292 1
260 313 1
260 479 1
260 510 1
260 532 1
261 40 1
261 79 1
261 93 1
261 261 1
261 301 1
261 314 1
261 480 1
261 519 1
261 533 1
262 54 1
262 88 1
262 102 1
262 267 1
262 299 1
262 312 1
262 481 1
262 512 1
262 526 1
263 41 1
263 74 1
263 108 1
263 268 1
263 300 1
263 321 1
263 482 1
263 513 1
263 535 1
264 42 1
264 82 1
264 95 1
264 254 1
264 306 1
264 322 1
264 469 1
264 521 1
264 536 1
265 43 1
265 75 1
265 91 1
265 265 1
265 296 1
265 310 1
265 483 1
265 515 1
265 528 1
266 44 1
266 76 1
266 97 1
266 266 1
266 297 1
266 319 1
266 484 1
266 516 1
266 537 1
267 46 1
267 77 1
267 92 1
267 270 1
267 304 1
267 318 1
267 485 1
267 518 1
267 531 1
268 47 1
268 78 1
268 100 1
268 257 1
268 290 1
268 324 1
268 471 1
268 505 1
268 539 1
269 49 1
269 80 1
269 94 1
269 269 1
269 302 1
269 315 1
269 486 1
269 520 1
269 534 1
270 51 1
270 83 1
270 96 1
270 262 1
270 293 1
270 308 1
270 475 1
270 507 1
270 523 1
271 109 1
271 176 1
271 193 1
271 220 1
271 273 1
271 305 1
271 549 1
271 602 1
271 619 1
272 110 1
272 178 1
272 195 1
272 228 1
272 281 1
272 298 1
272 546 1
272 599 1
272 630 1
273 111 1
273 179 1
273 189 1
273 224 1
273 277 1
273 289 1
273 554 1
273 607 1
273 616 1
274 112 1
274 165 1
274 197 1
274 225 1
274 278 1
274 295 1
274 541 1
274 608 1
274 625 1
275 113 1
275 180 1
275 192 1
275 232 1
275 285 1
275 294 1
275 551 1
275 604 1
275 614 1
276 114 1
276 167 1
276 198 1
276 218 1
276 286 1
276 303 1
276 552 1
276 605 1
276 622 1
277 115 1
277 163 1
277 194 1
277 229 1
277 274 1
277 291 1
277 557 1
277 603 1
277 620 1
278 116 1
278 169 1
278 181 1
278 230 1
278 283 1
278 292 1
278 543 1
278 611 1
278 621 1
279 117 1
279 170 1
279 187 1
279 217 1
279 284 1
279 301 1
279 544 1
279 597 1
279 629 1
280 118 1
280 164 1
280 196 1
280 234 1
280 282 1
280 299 1
280 555 1
280 600 1
280 617 1
281 119 1
281 172 1
281 182 1
281 221 1
281 288 1
281 300 1
281 556 1
281 609 1
281 618 1
282 120 1
282 173 1
282 190 1
282 222 1
282 275 1
282 306 1
282 542 1
282 610 1
282 627 1
283 121 1
283 166 1
283 183 1
283 233 1
283 279 1
283 296 1
283 547 1
283 595 1
283 626 1
284 122 1
284 175 1
284 184 1
284 219 1
284 287 1
284 297 1
284 548 1
284 601 1
284 613 1
285 123 1
285 168 1
285 185 1
285 226 1
285 272 1
285 304 1
285 558 1
285 606 1
285 623 1
286 124 1
286 177 1
286 186 1
286 227 1
286 280 1
286 290 1
286 545 1
286 612 1
286 624 1
287 125 1
287 171 1
287 188 1
287 223 1
287 271 1
287 302 1
287 553 1
287 598 1
287 615 1
288 126 1
288 174 1
288 191 1
288 231 1
288 276 1
288 293 1
288 550 1
288 596 1
288 628 1
289 143 1
289 176 1
289 206 1
289 241 1
289 273 1
289 320 1
289 571 1
289 602 1
289 633 1
290 144 1
290 178 1
290 209 1
290 249 1
290 281 1
290 311 1
290 568 1
290 599 1
290 646 1
291 127 1
291 179 1
291 211 1
291 238 1
291 277 1
291 323 1
291 567 1
291 607 1
291 637 1
292 133 1
292 165 1
292 212 1
292 247 1
292 278 1
292 309 1
292 575 1
292 608 1
292 638 1
293 128 1
293 180 1
293 213 1
293 246 1
293 285 1
293 316 1
293 564 1
293 604 1
293 648 1
294 136 1
294 167 1
294 214 1
294 252 1
294 286 1
294 317 1
294 573 1
294 605 1
294 635 1
295 129 1
295 163 1
295 207 1
295 242 1
295 274 1
295 307 1
295 572 1
295 603 1
295 634 1
296 130 1
296 169 1
296 215 1
296 243 1
296 283 1
296 313 1
296 559 1
296 611 1
296 643 1
297 139 1
297 170 1
297 201 1
297 251 1
297 284 1
297 314 1
297 565 1
297 597 1
297 644 1
298 131 1
298 164 1
298 210 1
298 250 1
298 282 1
298 312 1
298 569 1
298 600 1
298 632 1
299 132 1
299 172 1
299 216 1
299 236 1
299 288 1
299 321 1
299 570 1
299 609 1
299 640 1
300 141 1
300 173 1
300 203 1
300 244 1
300 275 1
300 322 1
300 576 1
300 610 1
300 641 1
301 134 1
301 166 1
301 199 1
301 248 1
301 279 1
301 310 1
301 561 1
301 595 1
301 639 1
302 135 1
302 175 1
302 205 1
302 235 1
302 287 1
302 319 1
302 562 1
302 601 1
302 647 1
303 137 1
303 168 1
303 200 1
303 239 1
303 272 1
303 318 1
303 574 1
303 606 1
303 636 1
304 138 1
304 177 1
304 208 1
304 240 1
304 280 1
304 324 1
304 560 1
304 612 1
304 645 1
305 140 1
305 171 1
305 202 1
305 237 1
305 271 1
305 315 1
305 566 1
305 598 1
305 631 1
306 142 1
306 174 1
306 204 1
306 245 1
306 276 1
306 308 1
306 563 1
306 596 1
306 642 1
307 153 1
307 193 1
307 206 1
307 253 1
307 305 1
307 320 1
307 580 1
307 619 1
307 633 1
308 156 1
308 195 1
308 209 1
308 258 1
308 298 1
308 311 1
308 578 1
308 630 1
308 646 1
309 158 1
309 189 1
309 211 1
309 255 1
309 289 1
309 323 1
309 584 1
309 616 1
309 637 1
310 145 1
310 197 1
310 212 1
310 256 1
310 295 1
310 309 1
310 585 1
310 625 1
310 638 1
311 160 1
311 192 1
311 213 1
311 263 1
311 294 1
311 316 1
311 581 1
311 614 1
311 648 1
312 146 1
312 198 1
312 214 1
312 264 1
312 303 1
312 317 1
312 582 1
312 622 1
312 635 1
313 161 1
313 194 1
313 207 1
313 259 1
313 291 1
313 307 1
313 589 1
313 620 1
313 634 1
314 147 1
314 181 1
314 215 1
314 260 1
314 292 1
314 313 1
314 590 1
314 621 1
314 643 1
315 148 1
315 187 1
315 201 1
315 261 1
315 301 1
315 314 1
315 577 1
315 629 1
315 644 1
316 162 1
316 196 1
316 210 1
316 267 1
316 299 1
316 312 1
316 586 1
316 617 1
316 632 1
317 149 1
317 182 1
317 216 1
317 268 1
317 300 1
317 321 1
317 587 1
317 618 1
317 640 1
318 150 1
318 190 1
318 203 1
318 254 1
318 306 1
318 322 1
318 588 1
318 627 1
318 641 1
319 151 1
319 183 1
319 199 1
319 265 1
319 296 1
319 310 1
319 593 1
319 626 1
319 639 1
320 152 1
320 184 1
320 205 1
320 266 1
320 297 1
320 319 1
320 579 1
320 613 1
320 647 1
321 154 1
321 185 1
321 200 1
321 270 1
321 304 1
321 318 1
321 591 1
321 623 1
321 636 1
322 155 1
322 186 1
322 208 1
322 257 1
322 290 1
322 324 1
322 592 1
322 624 1
322 645 1
323 157 1
323 188 1
323 202 1
323 269 1
323 302 1
323 315 1
323 583 1
323 615 1
323 631 1
324 159 1
324 191 1
324 204 1
324 262 1
324 293 1
324 308 1
324 594 1
324 628 1
324 642 1
