%%MatrixMarket matrix coordinate integer general
288 576 2592
1 1 1
1 49 1
1 65 1
1 97 1
1 145 1
1 161 1
1 289 1
1 337 1
1 353 1
2 2 1
2 50 1
2 66 1
2 98 1
2 146 1
2 162 1
2 290 1
2 338 1
2 354 1
3 3 1
3 51 1
3 67 1
3 99 1
3 147 1
3 163 1
3 291 1
3 339 1
3 355 1
4 4 1
4 52 1
4 68 1
4 100 1
4 148 1
4 164 1
4 292 1
4 340 1
4 356 1
5 5 1
5 53 1
5 69 1
5 101 1
5 149 1
5 165 1
5 293 1
5 341 1
5 357 1
6 6 1
6 54 1
6 70 1
6 102 1
6 150 1
6 166 1
6 294 1
6 342 1
6 358 1
7 7 1
7 55 1
7 71 1
7 103 1
7 151 1
7 167 1
7 295 1
7 343 1
7 359 1
8 8 1
8 56 1
8 72 1
8 104 1
8 152 1
8 168 1
8 296 1
8 344 1
8 360 1
9 9 1
9 57 1
9 73 1
9 105 1
9 153 1
9 169 1
9 297 1
9 345 1
9 361 1
10 10 1
10 58 1
10 74 1
10 106 1
10 154 1
10 170 1
10 298 1
10 346 1
10 362 1
11 11 1
11 59 1
11 75 1
11 107 1
11 155 1
11 171 1
11 299 1
11 347 1
11 363 1
12 12 1
12 60 1
12 76 1
12 108 1
12 156 1
12 172 1
12 300 1
12 348 1
12 364 1
13 13 1
13 61 1
13 77 1
13 109 1
13 157 1
13 173 1
13 301 1
13 349 1
13 365 1
14 14 1
14 62 1
14 78 1
14 110 1
14 158 1
14 174 1
14 302 1
14 350 1
14 366 1
15 15 1
15 63 1
15 79 1
15 111 1
15 159 1
15 175 1
15 303 1
15 351 1
15 367 1
16 16 1
16 64 1
16 80 1
16 112 1
16 160 1
16 176 1
16 304 1
16 352 1
16 368 1
17 17 1
17 49 1
17 81 1
17 113 1
17 145 1
17 177 1
17 305 1
17 337 1
17 369 1
18 18 1
18 50 1
18 82 1
18 114 1
18 146 1
18 178 1
18 306 1
18 338 1
18 370 1
19 19 1
19 51 1
19 83 1
19 115 1
19 147 1
19 179 1
19 307 1
19 339 1
19 371 1
20 20 1
20 52 1
20 84 1
20 116 1
20 148 1
20 180 1
20 308 1
20 340 1
20 372 1
21 21 1
21 53 1
21 85 1
21 117 1
21 149 1
21 181 1
21 309 1
21 341 1
21 373 1
22 22 1
22 54 1
22 86 1
22 118 1
22 150 1
22 182 1
22 310 1
22 342 1
22 374 1
23 23 1
23 55 1
23 87 1
23 119 1
23 151 1
23 183 1
23 311 1
23 343 1
23 375 1
24 24 1
24 56 1
24 88 1
24 120 1
24 152 1
24 184 1
24 312 1
24 344 1
24 376 1
25 25 1
25 57 1
25 89 1
25 121 1
25 153 1
25 185 1
25 313 1
25 345 1
25 377 1
26 26 1
26 58 1
26 90 1
26 122 1
26 154 1
26 186 1
26 314 1
26 346 1
26 378 1
27 27 1
27 59 1
27 91 1
27 123 1
27 155 1
27 187 1
27 315 1
27 347 1
27 379 1
28 28 1
28 60 1
28 92 1
28 124 1
28 156 1
28 188 1
28 316 1
28 348 1
28 380 1
29 29 1
29 61 1
29 93 1
29 125 1
29 157 1
29 189 1
29 317 1
29 349 1
29 381 1
30 30 1
30 62 1
30 94 1
30 126 1
30 158 1
30 190 1
30 318 1
30 350 1
30 382 1
31 31 1
31 63 1
31 95 1
31 127 1
31 159 1
31 191 1
31 319 1
31 351 1
31 383 1
32 32 1
32 64 1
32 96 1
32 128 1
32 160 1
32 192 1
32 320 1
32 352 1
32 384 1
33 33 1
33 65 1
33 81 1
33 129 1
33 161 1
33 177 1
33 321 1
33 353 1
33 369 1
34 34 1
34 66 1
34 82 1
34 130 1
34 162 1
34 178 1
34 322 1
34 354 1
34 370 1
35 35 1
35 67 1
35 83 1
35 131 1
35 163 1
35 179 1
35 323 1
35 355 1
35 371 1
36 36 1
36 68 1
36 84 1
36 132 1
36 164 1
36 180 1
36 324 1
36 356 1
36 372 1
37 37 1
37 69 1
37 85 1
37 133 1
37 165 1
37 181 1
37 325 1
37 357 1
37 373 1
38 38 1
38 70 1
38 86 1
38 134 1
38 166 1
38 182 1
38 326 1
38 358 1
38 374 1
39 39 1
39 71 1
39 87 1
39 135 1
39 167 1
39 183 1
39 327 1
39 359 1
39 375 1
40 40 1
40 72 1
40 88 1
40 136 1
40 168 1
40 184 1
40 328 1
40 360 1
40 376 1
41 41 1
41 73 1
41 89 1
41 137 1
41 169 1
41 185 1
41 329 1
41 361 1
41 377 1
42 42 1
42 74 1
42 90 1
42 138 1
42 170 1
42 186 1
42 330 1
42 362 1
42 378 1
43 43 1
43 75 1
43 91 1
43 139 1
43 171 1
43 187 1
43 331 1
43 363 1
43 379 1
44 44 1
44 76 1
44 92 1
44 140 1
44 172 1
44 188 1
44 332 1
44 364 1
44 380 1
45 45 1
45 77 1
45 93 1
45 141 1
45 173 1
45 189 1
45 333 1
45 365 1
45 381 1
46 46 1
46 78 1
46 94 1
46 142 1
46 174 1
46 190 1
46 334 1
46 366 1
46 382 1
47 47 1
47 79 1
47 95 1
47 143 1
47 175 1
47 191 1
47 335 1
47 367 1
47 383 1
48 48 1
48 80 1
48 96 1
48 144 1
48 176 1
48 192 1
48 336 1
48 368 1
48 384 1
49 1 1
49 49 1
49 65 1
49 193 1
49 241 1
49 257 1
49 385 1
49 433 1
49 449 1
50 2 1
50 50 1
50 66 1
50 194 1
50 242 1
50 258 1
50 386 1
50 434 1
50 450 1
51 3 1
51 51 1
51 67 1
51 195 1
51 243 1
51 259 1
51 387 1
51 435 1
51 451 1
52 4 1
52 52 1
52 68 1
52 196 1
52 244 1
52 260 1
52 388 1
52 436 1
52 452 1
53 5 1
53 53 1
53 69 1
53 197 1
53 245 1
53 261 1
53 389 1
53 437 1
53 453 1
54 6 1
54 54 1
54 70 1
54 198 1
54 246 1
54 262 1
54 390 1
54 438 1
54 454 1
55 7 1
55 55 1
55 71 1
55 199 1
55 247 1
55 263 1
55 391 1
55 439 1
55 455 1
56 8 1
56 56 1
56 72 1
56 200 1
56 248 1
56 264 1
56 392 1
56 440 1
56 456 1
57 9 1
57 57 1
57 73 1
57 201 1
57 249 1
57 265 1
57 393 1
57 441 1
57 457 1
58 10 1
58 58 1
58 74 1
58 202 1
58 250 1
58 266 1
58 394 1
58 442 1
58 458 1
59 11 1
59 59 1
59 75 1
59 203 1
59 251 1
59 267 1
59 395 1
59 443 1
59 459 1
60 12 1
60 60 1
60 76 1
60 204 1
60 252 1
60 268 1
60 396 1
60 444 1
60 460 1
61 13 1
61 61 1
61 77 1
61 205 1
61 253 1
61 269 1
61 397 1
61 445 1
61 461 1
62 14 1
62 62 1
62 78 1
62 206 1
62 254 1
62 270 1
62 398 1
62 446 1
62 462 1
63 15 1
63 63 1
63 79 1
63 207 1
63 255 1
63 271 1
63 399 1
63 447 1
63 463 1
64 16 1
64 64 1
64 80 1
64 208 1
64 256 1
64 272 1
64 400 1
64 448 1
64 464 1
65 17 1
65 49 1
65 81 1
65 209 1
65 241 1
65 273 1
65 401 1
65 433 1
65 465 1
66 18 1
66 50 1
66 82 1
66 210 1
66 242 1
66 274 1
66 402 1
66 434 1
66 466 1
67 19 1
67 51 1
67 83 1
67 211 1
67 243 1
67 275 1
67 403 1
67 435 1
67 467 1
68 20 1
68 52 1
68 84 1
68 212 1
68 244 1
68 276 1
68 404 1
68 436 1
68 468 1
69 21 1
69 53 1
69 85 1
69 213 1
69 245 1
69 277 1
69 405 1
69 437 1
69 469 1
70 22 1
70 54 1
70 86 1
70 214 1
70 246 1
70 278 1
70 406 1
70 438 1
70 470 1
71 23 1
71 55 1
71 87 1
71 215 1
71 247 1
71 279 1
71 407 1
71 439 1
71 471 1
72 24 1
72 56 1
72 88 1
72 216 1
72 248 1
72 280 1
72 408 1
72 440 1
72 472 1
73 25 1
73 57 1
73 89 1
73 217 1
73 249 1
73 281 1
73 409 1
73 441 1
73 473 1
74 26 1
74 58 1
74 90 1
74 218 1
74 250 1
74 282 1
74 410 1
74 442 1
74 474 1
75 27 1
75 59 1
75 91 1
75 219 1
75 251 1
75 283 1
75 411 1
75 443 1
75 475 1
76 28 1
76 60 1
76 92 1
76 220 1
76 252 1
76 284 1
76 412 1
76 444 1
76 476 1
77 29 1
77 61 1
77 93 1
77 221 1
77 253 1
77 285 1
77 413 1
77 445 1
77 477 1
78 30 1
78 62 1
78 94 1
78 222 1
78 254 1
78 286 1
78 414 1
78 446 1
78 478 1
79 31 1
79 63 1
79 95 1
79 223 1
79 255 1
79 287 1
79 415 1
79 447 1
79 479 1
80 32 1
80 64 1
80 96 1
80 224 1
80 256 1
80 288 1
80 416 1
80 448 1
80 480 1
81 33 1
81 65 1
81 81 1
81 225 1
81 257 1
81 273 1
81 417 1
81 449 1
81 465 1
82 34 1
82 66 1
82 82 1
82 226 1
82 258 1
82 274 1
82 418 1
82 450 1
82 466 1
83 35 1
83 67 1
83 83 1
83 227 1
83 259 1
83 275 1
83 419 1
83 451 1
83 467 1
84 36 1
84 68 1
84 84 1
84 228 1
84 260 1
84 276 1
84 420 1
84 452 1
84 468 1
85 37 1
85 69 1
85 85 1
85 229 1
85 261 1
85 277 1
85 421 1
85 453 1
85 469 1
86 38 1
86 70 1
86 86 1
86 230 1
86 262 1
86 278 1
86 422 1
86 454 1
86 470 1
87 39 1
87 71 1
87 87 1
87 231 1
87 263 1
87 279 1
87 423 1
87 455 1
87 471 1
88 40 1
88 72 1
88 88 1
88 232 1
88 264 1
88 280 1
88 424 1
88 456 1
88 472 1
89 41 1
89 73 1
89 89 1
89 233 1
89 265 1
89 281 1
89 425 1
89 457 1
89 473 1
90 42 1
90 74 1
90 90 1
90 234 1
90 266 1
90 282 1
90 426 1
90 458 1
90 474 1
91 43 1
91 75 1
91 91 1
91 235 1
91 267 1
91 283 1
91 427 1
91 459 1
91 475 1
92 44 1
92 76 1
92 92 1
92 236 1
92 268 1
92 284 1
92 428 1
92 460 1
92 476 1
93 45 1
93 77 1
93 93 1
93 237 1
93 269 1
93 285 1
93 429 1
93 461 1
93 477 1
94 46 1
94 78 1
94 94 1
94 238 1
94 270 1
94 286 1
94 430 1
94 462 1
94 478 1
95 47 1
95 79 1
95 95 1
95 239 1
95 271 1
95 287 1
95 431 1
95 463 1
95 479 1
96 48 1
96 80 1
96 96 1
96 240 1
96 272 1
96 288 1
96 432 1
96 464 1
96 480 1
97 97 1
97 145 1
97 161 1
97 193 1
97 241 1
97 257 1
97 481 1
97 529 1
97 545 1
98 98 1
98 146 1
98 162 1
98 194 1
98 242 1
98 258 1
98 482 1
98 530 1
98 546 1
99 99 1
99 147 1
99 163 1
99 195 1
99 243 1
99 259 1
99 483 1
99 531 1
99 547 1
100 100 1
100 148 1
100 164 1
100 196 1
100 244 1
100 260 1
100 484 1
100 532 1
100 548 1
101 101 1
101 149 1
101 165 1
101 197 1
101 245 1
101 261 1
101 485 1
101 533 1
101 549 1
102 102 1
102 150 1
102 166 1
102 198 1
102 246 1
102 262 1
102 486 1
102 534 1
102 550 1
103 103 1
103 151 1
103 167 1
103 199 1
103 247 1
103 263 1
103 487 1
103 535 1
103 551 1
104 104 1
104 152 1
104 168 1
104 200 1
104 248 1
104 264 1
104 488 1
104 536 1
104 552 1
105 105 1
105 153 1
105 169 1
105 201 1
105 249 1
105 265 1
105 489 1
105 537 1
105 553 1
106 106 1
106 154 1
106 170 1
106 202 1
106 250 1
106 266 1
106 490 1
106 538 1
106 554 1
107 107 1
107 155 1
107 171 1
107 203 1
107 251 1
107 267 1
107 491 1
107 539 1
107 555 1
108 108 1
108 156 1
108 172 1
108 204 1
108 252 1
108 268 1
108 492 1
108 540 1
108 556 1
109 109 1
109 157 1
109 173 1
109 205 1
109 253 1
109 269 1
109 493 1
109 541 1
109 557 1
110 110 1
110 158 1
110 174 1
110 206 1
110 254 1
110 270 1
110 494 1
110 542 1
110 558 1
111 111 1
111 159 1
111 175 1
111 207 1
111 255 1
111 271 1
111 495 1
111 543 1
111 559 1
112 112 1
112 160 1
112 176 1
112 208 1
112 256 1
112 272 1
112 496 1
112 544 1
112 560 1
113 113 1
113 145 1
113 177 1
113 209 1
113 241 1
113 273 1
113 497 1
113 529 1
113 561 1
114 114 1
114 146 1
114 178 1
114 210 1
114 242 1
114 274 1
114 498 1
114 530 1
114 562 1
115 115 1
115 147 1
115 179 1
115 211 1
115 243 1
115 275 1
115 499 1
115 531 1
115 563 1
116 116 1
116 148 1
116 180 1
116 212 1
116 244 1
116 276 1
116 500 1
116 532 1
116 564 1
117 117 1
117 149 1
117 181 1
117 213 1
117 245 1
117 277 1
117 501 1
117 533 1
117 565 1
118 118 1
118 150 1
118 182 1
118 214 1
118 246 1
118 278 1
118 502 1
118 534 1
118 566 1
119 119 1
119 151 1
119 183 1
119 215 1
119 247 1
119 279 1
119 503 1
119 535 1
119 567 1
120 120 1
120 152 1
120 184 1
120 216 1
120 248 1
120 280 1
120 504 1
120 536 1
120 568 1
121 121 1
121 153 1
121 185 1
121 217 1
121 249 1
121 281 1
121 505 1
121 537 1
121 569 1
122 122 1
122 154 1
122 186 1
122 218 1
122 250 1
122 282 1
122 506 1
122 538 1
122 570 1
123 123 1
123 155 1
123 187 1
123 219 1
123 251 1
123 283 1
123 507 1
123 539 1
123 571 1
124 124 1
124 156 1
124 188 1
124 220 1
124 252 1
124 284 1
124 508 1
124 540 1
124 572 1
125 125 1
125 157 1
125 189 1
125 221 1
125 253 1
125 285 1
125 509 1
125 541 1
125 573 1
126 126 1
126 158 1
126 190 1
126 222 1
126 254 1
126 286 1
126 510 1
126 542 1
126 574 1
127 127 1
127 159 1
127 191 1
127 223 1
127 255 1
127 287 1
127 511 1
127 543 1
127 575 1
128 128 1
128 160 1
128 192 1
128 224 1
128 256 1
128 288 1
128 512 1
128 544 1
128 576 1
129 129 1
129 161 1
129 177 1
129 225 1
129 257 1
129 273 1
129 513 1
129 545 1
129 561 1
130 130 1
130 162 1
130 178 1
130 226 1
130 258 1
130 274 1
130 514 1
130 546 1
130 562 1
131 131 1
131 163 1
131 179 1
131 227 1
131 259 1
131 275 1
131 515 1
131 547 1
131 563 1
132 132 1
132 164 1
132 180 1
132 228 1
132 260 1
132 276 1
132 516 1
132 548 1
132 564 1
133 133 1
133 165 1
133 181 1
133 229 1
133 261 1
133 277 1
133 517 1
133 549 1
133 565 1
134 134 1
134 166 1
134 182 1
134 230 1
134 262 1
134 278 1
134 518 1
134 550 1
134 566 1
135 135 1
135 167 1
135 183 1
135 231 1
135 263 1
135 279 1
135 519 1
135 551 1
135 567 1
136 136 1
136 168 1
136 184 1
136 232 1
136 264 1
136 280 1
136 520 1
136 552 1
136 568 1
137 137 1
137 169 1
137 185 1
137 233 1
137 265 1
137 281 1
137 521 1
137 553 1
137 569 1
138 138 1
138 170 1
138 186 1
138 234 1
138 266 1
138 282 1
138 522 1
138 554 1
138 570 1
139 139 1
139 171 1
139 187 1
139 235 1
139 267 1
139 283 1
139 523 1
139 555 1
139 571 1
140 140 1
140 172 1
140 188 1
140 236 1
140 268 1
140 284 1
140 524 1
140 556 1
140 572 1
141 141 1
141 173 1
141 189 1
141 237 1
141 269 1
141 285 1
141 525 1
141 557 1
141 573 1
142 142 1
142 174 1
142 190 1
142 238 1
142 270 1
142 286 1
142 526 1
142 558 1
142 574 1
143 143 1
143 175 1
143 191 1
143 239 1
143 271 1
143 287 1
143 527 1
143 559 1
143 575 1
144 144 1
144 176 1
144 192 1
144 240 1
144 272 1
144 288 1
144 528 1
144 560 1
144 576 1
145 1 1
145 73 1
145 87 1
145 99 1
145 165 1
145 188 1
145 492 1
145 558 1
145 571 1
146 2 1
146 76 1
146 89 1
146 102 1
146 168 1
146 181 1
146 485 1
146 559 1
146 574 1
147 3 1
147 69 1
147 92 1
147 100 1
147 170 1
147 184 1
147 488 1
147 560 1
147 575 1
148 4 1
148 74 1
148 88 1
148 105 1
148 171 1
148 189 1
148 493 1
148 546 1
148 561 1
149 5 1
149 79 1
149 94 1
149 106 1
149 161 1
149 192 1
149 496 1
149 551 1
149 564 1
150 6 1
150 72 1
150 85 1
150 103 1
150 173 1
150 186 1
150 490 1
150 545 1
150 576 1
151 7 1
151 77 1
151 90 1
151 108 1
151 174 1
151 187 1
151 491 1
151 547 1
151 562 1
152 8 1
152 80 1
152 95 1
152 109 1
152 162 1
152 177 1
152 481 1
152 553 1
152 567 1
153 9 1
153 75 1
153 93 1
153 101 1
153 175 1
153 190 1
153 494 1
153 550 1
153 563 1
154 10 1
154 65 1
154 96 1
154 107 1
154 163 1
154 178 1
154 482 1
154 556 1
154 569 1
155 11 1
155 67 1
155 82 1
155 111 1
155 164 1
155 182 1
155 486 1
155 552 1
155 565 1
156 12 1
156 78 1
156 91 1
156 104 1
156 176 1
156 191 1
156 495 1
156 548 1
156 566 1
157 13 1
157 66 1
157 81 1
157 110 1
157 166 1
157 179 1
157 483 1
157 549 1
157 572 1
158 14 1
158 70 1
158 83 1
158 112 1
158 167 1
158 180 1
158 484 1
158 554 1
158 568 1
159 15 1
159 68 1
159 86 1
159 97 1
159 169 1
159 183 1
159 487 1
159 557 1
159 570 1
160 16 1
160 71 1
160 84 1
160 98 1
160 172 1
160 185 1
160 489 1
160 555 1
160 573 1
161 31 1
161 43 1
161 87 1
161 113 1
161 143 1
161 188 1
161 503 1
161 518 1
161 571 1
162 32 1
162 46 1
162 89 1
162 114 1
162 144 1
162 181 1
162 505 1
162 516 1
162 574 1
163 17 1
163 47 1
163 92 1
163 115 1
163 129 1
163 184 1
163 508 1
163 519 1
163 575 1
164 19 1
164 33 1
164 88 1
164 116 1
164 131 1
164 189 1
164 504 1
164 524 1
164 561 1
165 25 1
165 36 1
165 94 1
165 117 1
165 137 1
165 192 1
165 510 1
165 525 1
165 564 1
166 18 1
166 48 1
166 85 1
166 118 1
166 130 1
166 186 1
166 501 1
166 521 1
166 576 1
167 22 1
167 34 1
167 90 1
167 119 1
167 134 1
167 187 1
167 506 1
167 517 1
167 562 1
168 28 1
168 39 1
168 95 1
168 120 1
168 140 1
168 177 1
168 511 1
168 523 1
168 567 1
169 20 1
169 35 1
169 93 1
169 121 1
169 132 1
169 190 1
169 509 1
169 520 1
169 563 1
170 21 1
170 41 1
170 96 1
170 122 1
170 133 1
170 178 1
170 512 1
170 526 1
170 569 1
171 26 1
171 37 1
171 82 1
171 123 1
171 138 1
171 182 1
171 498 1
171 528 1
171 565 1
172 23 1
172 38 1
172 91 1
172 124 1
172 135 1
172 191 1
172 507 1
172 522 1
172 566 1
173 24 1
173 44 1
173 81 1
173 125 1
173 136 1
173 179 1
173 497 1
173 527 1
173 572 1
174 29 1
174 40 1
174 83 1
174 126 1
174 141 1
174 180 1
174 499 1
174 513 1
174 568 1
175 27 1
175 42 1
175 86 1
175 127 1
175 139 1
175 183 1
175 502 1
175 514 1
175 570 1
176 30 1
176 45 1
176 84 1
176 128 1
176 142 1
176 185 1
176 500 1
176 515 1
176 573 1
177 43 1
177 61 1
177 73 1
177 143 1
177 158 1
177 165 1
177 518 1
177 531 1
177 558 1
178 46 1
178 59 1
178 76 1
178 144 1
178 159 1
178 168 1
178 516 1
178 534 1
178 559 1
179 47 1
179 62 1
179 69 1
179 129 1
179 160 1
179 170 1
179 519 1
179 532 1
179 560 1
180 33 1
180 64 1
180 74 1
180 131 1
180 146 1
180 171 1
180 524 1
180 537 1
180 546 1
181 36 1
181 54 1
181 79 1
181 137 1
181 151 1
181 161 1
181 525 1
181 538 1
181 551 1
182 48 1
182 63 1
182 72 1
182 130 1
182 145 1
182 173 1
182 521 1
182 535 1
182 545 1
183 34 1
183 49 1
183 77 1
183 134 1
183 147 1
183 174 1
183 517 1
183 540 1
183 547 1
184 39 1
184 52 1
184 80 1
184 140 1
184 153 1
184 162 1
184 523 1
184 541 1
184 553 1
185 35 1
185 50 1
185 75 1
185 132 1
185 150 1
185 175 1
185 520 1
185 533 1
185 550 1
186 41 1
186 55 1
186 65 1
186 133 1
186 156 1
186 163 1
186 526 1
186 539 1
186 556 1
187 37 1
187 60 1
187 67 1
187 138 1
187 152 1
187 164 1
187 528 1
187 543 1
187 552 1
188 38 1
188 51 1
188 78 1
188 135 1
188 148 1
188 176 1
188 522 1
188 536 1
188 548 1
189 44 1
189 57 1
189 66 1
189 136 1
189 149 1
189 166 1
189 527 1
189 542 1
189 549 1
190 40 1
190 53 1
190 70 1
190 141 1
190 154 1
190 167 1
190 513 1
190 544 1
190 554 1
191 42 1
191 56 1
191 68 1
191 139 1
191 157 1
191 169 1
191 514 1
191 529 1
191 557 1
192 45 1
192 58 1
192 71 1
192 142 1
192 155 1
192 172 1
192 515 1
192 530 1
192 555 1
193 1 1
193 73 1
193 87 1
193 297 1
193 363 1
193 381 1
193 394 1
193 449 1
193 480 1
194 2 1
194 76 1
194 89 1
194 300 1
194 366 1
194 379 1
194 397 1
194 450 1
194 465 1
195 3 1
195 69 1
195 92 1
195 293 1
195 367 1
195 382 1
195 395 1
195 451 1
195 466 1
196 4 1
196 74 1
196 88 1
196 298 1
196 353 1
196 384 1
196 399 1
196 452 1
196 470 1
197 5 1
197 79 1
197 94 1
197 303 1
197 356 1
197 374 1
197 387 1
197 453 1
197 476 1
198 6 1
198 72 1
198 85 1
198 296 1
198 368 1
198 383 1
198 398 1
198 454 1
198 467 1
199 7 1
199 77 1
199 90 1
199 301 1
199 354 1
199 369 1
199 400 1
199 455 1
199 468 1
200 8 1
200 80 1
200 95 1
200 304 1
200 359 1
200 372 1
200 390 1
200 456 1
200 469 1
201 9 1
201 75 1
201 93 1
201 299 1
201 355 1
201 370 1
201 385 1
201 457 1
201 471 1
202 10 1
202 65 1
202 96 1
202 289 1
202 361 1
202 375 1
202 388 1
202 458 1
202 472 1
203 11 1
203 67 1
203 82 1
203 291 1
203 357 1
203 380 1
203 393 1
203 459 1
203 477 1
204 12 1
204 78 1
204 91 1
204 302 1
204 358 1
204 371 1
204 386 1
204 460 1
204 473 1
205 13 1
205 66 1
205 81 1
205 290 1
205 364 1
205 377 1
205 391 1
205 461 1
205 474 1
206 14 1
206 70 1
206 83 1
206 294 1
206 360 1
206 373 1
206 396 1
206 462 1
206 475 1
207 15 1
207 68 1
207 86 1
207 292 1
207 362 1
207 376 1
207 389 1
207 463 1
207 478 1
208 16 1
208 71 1
208 84 1
208 295 1
208 365 1
208 378 1
208 392 1
208 464 1
208 479 1
209 31 1
209 43 1
209 87 1
209 308 1
209 323 1
209 381 1
209 405 1
209 425 1
209 480 1
210 32 1
210 46 1
210 89 1
210 311 1
210 326 1
210 379 1
210 408 1
210 428 1
210 465 1
211 17 1
211 47 1
211 92 1
211 313 1
211 324 1
211 382 1
211 410 1
211 421 1
211 466 1
212 19 1
212 33 1
212 88 1
212 309 1
212 329 1
212 384 1
212 411 1
212 426 1
212 470 1
213 25 1
213 36 1
213 94 1
213 315 1
213 330 1
213 374 1
213 401 1
213 431 1
213 476 1
214 18 1
214 48 1
214 85 1
214 316 1
214 327 1
214 383 1
214 413 1
214 424 1
214 467 1
215 22 1
215 34 1
215 90 1
215 312 1
215 332 1
215 369 1
215 414 1
215 429 1
215 468 1
216 28 1
216 39 1
216 95 1
216 318 1
216 333 1
216 372 1
216 402 1
216 432 1
216 469 1
217 20 1
217 35 1
217 93 1
217 314 1
217 325 1
217 370 1
217 415 1
217 427 1
217 471 1
218 21 1
218 41 1
218 96 1
218 319 1
218 331 1
218 375 1
218 403 1
218 417 1
218 472 1
219 26 1
219 37 1
219 82 1
219 305 1
219 335 1
219 380 1
219 404 1
219 419 1
219 477 1
220 23 1
220 38 1
220 91 1
220 317 1
220 328 1
220 371 1
220 416 1
220 430 1
220 473 1
221 24 1
221 44 1
221 81 1
221 320 1
221 334 1
221 377 1
221 406 1
221 418 1
221 474 1
222 29 1
222 40 1
222 83 1
222 306 1
222 336 1
222 373 1
222 407 1
222 422 1
222 475 1
223 27 1
223 42 1
223 86 1
223 307 1
223 321 1
223 376 1
223 409 1
223 420 1
223 478 1
224 30 1
224 45 1
224 84 1
224 310 1
224 322 1
224 378 1
224 412 1
224 423 1
224 479 1
225 43 1
225 61 1
225 73 1
225 323 1
225 338 1
225 363 1
225 425 1
225 439 1
225 449 1
226 46 1
226 59 1
226 76 1
226 326 1
226 339 1
226 366 1
226 428 1
226 441 1
226 450 1
227 47 1
227 62 1
227 69 1
227 324 1
227 342 1
227 367 1
227 421 1
227 444 1
227 451 1
228 33 1
228 64 1
228 74 1
228 329 1
228 343 1
228 353 1
228 426 1
228 440 1
228 452 1
229 36 1
229 54 1
229 79 1
229 330 1
229 344 1
229 356 1
229 431 1
229 446 1
229 453 1
230 48 1
230 63 1
230 72 1
230 327 1
230 340 1
230 368 1
230 424 1
230 437 1
230 454 1
231 34 1
231 49 1
231 77 1
231 332 1
231 345 1
231 354 1
231 429 1
231 442 1
231 455 1
232 39 1
232 52 1
232 80 1
232 333 1
232 346 1
232 359 1
232 432 1
232 447 1
232 456 1
233 35 1
233 50 1
233 75 1
233 325 1
233 348 1
233 355 1
233 427 1
233 445 1
233 457 1
234 41 1
234 55 1
234 65 1
234 331 1
234 349 1
234 361 1
234 417 1
234 448 1
234 458 1
235 37 1
235 60 1
235 67 1
235 335 1
235 350 1
235 357 1
235 419 1
235 434 1
235 459 1
236 38 1
236 51 1
236 78 1
236 328 1
236 341 1
236 358 1
236 430 1
236 443 1
236 460 1
237 44 1
237 57 1
237 66 1
237 334 1
237 347 1
237 364 1
237 418 1
237 433 1
237 461 1
238 40 1
238 53 1
238 70 1
238 336 1
238 351 1
238 360 1
238 422 1
238 435 1
238 462 1
239 42 1
239 56 1
239 68 1
239 321 1
239 352 1
239 362 1
239 420 1
239 438 1
239 463 1
240 45 1
240 58 1
240 71 1
240 322 1
240 337 1
240 365 1
240 423 1
240 436 1
240 464 1
241 99 1
241 165 1
241 188 1
241 198 1
241 264 1
241 277 1
241 297 1
241 363 1
241 381 1
242 102 1
242 168 1
242 181 1
242 196 1
242 266 1
242 280 1
242 300 1
242 366 1
242 379 1
243 100 1
243 170 1
243 184 1
243 199 1
243 269 1
243 282 1
243 293 1
243 367 1
243 382 1
244 105 1
244 171 1
244 189 1
244 204 1
244 270 1
244 283 1
244 298 1
244 353 1
244 384 1
245 106 1
245 161 1
245 192 1
245 205 1
245 258 1
245 273 1
245 303 1
245 356 1
245 374 1
246 103 1
246 173 1
246 186 1
246 201 1
246 267 1
246 285 1
246 296 1
246 368 1
246 383 1
247 108 1
247 174 1
247 187 1
247 197 1
247 271 1
247 286 1
247 301 1
247 354 1
247 369 1
248 109 1
248 162 1
248 177 1
248 203 1
248 259 1
248 274 1
248 304 1
248 359 1
248 372 1
249 101 1
249 175 1
249 190 1
249 200 1
249 272 1
249 287 1
249 299 1
249 355 1
249 370 1
250 107 1
250 163 1
250 178 1
250 206 1
250 262 1
250 275 1
250 289 1
250 361 1
250 375 1
251 111 1
251 164 1
251 182 1
251 208 1
251 263 1
251 276 1
251 291 1
251 357 1
251 380 1
252 104 1
252 176 1
252 191 1
252 202 1
252 257 1
252 288 1
252 302 1
252 358 1
252 371 1
253 110 1
253 166 1
253 179 1
253 207 1
253 260 1
253 278 1
253 290 1
253 364 1
253 377 1
254 112 1
254 167 1
254 180 1
254 193 1
254 265 1
254 279 1
254 294 1
254 360 1
254 373 1
255 97 1
255 169 1
255 183 1
255 194 1
255 268 1
255 281 1
255 292 1
255 362 1
255 376 1
256 98 1
256 172 1
256 185 1
256 195 1
256 261 1
256 284 1
256 295 1
256 365 1
256 378 1
257 113 1
257 143 1
257 188 1
257 210 1
257 240 1
257 277 1
257 308 1
257 323 1
257 381 1
258 114 1
258 144 1
258 181 1
258 211 1
258 225 1
258 280 1
258 311 1
258 326 1
258 379 1
259 115 1
259 129 1
259 184 1
259 214 1
259 226 1
259 282 1
259 313 1
259 324 1
259 382 1
260 116 1
260 131 1
260 189 1
260 215 1
260 230 1
260 283 1
260 309 1
260 329 1
260 384 1
261 117 1
261 137 1
261 192 1
261 216 1
261 236 1
261 273 1
261 315 1
261 330 1
261 374 1
262 118 1
262 130 1
262 186 1
262 212 1
262 227 1
262 285 1
262 316 1
262 327 1
262 383 1
263 119 1
263 134 1
263 187 1
263 217 1
263 228 1
263 286 1
263 312 1
263 332 1
263 369 1
264 120 1
264 140 1
264 177 1
264 218 1
264 229 1
264 274 1
264 318 1
264 333 1
264 372 1
265 121 1
265 132 1
265 190 1
265 220 1
265 231 1
265 287 1
265 314 1
265 325 1
265 370 1
266 122 1
266 133 1
266 178 1
266 221 1
266 232 1
266 275 1
266 319 1
266 331 1
266 375 1
267 123 1
267 138 1
267 182 1
267 222 1
267 237 1
267 276 1
267 305 1
267 335 1
267 380 1
268 124 1
268 135 1
268 191 1
268 213 1
268 233 1
268 288 1
268 317 1
268 328 1
268 371 1
269 125 1
269 136 1
269 179 1
269 219 1
269 234 1
269 278 1
269 320 1
269 334 1
269 377 1
270 126 1
270 141 1
270 180 1
270 223 1
270 235 1
270 279 1
270 306 1
270 336 1
270 373 1
271 127 1
271 139 1
271 183 1
271 224 1
271 238 1
271 281 1
271 307 1
271 321 1
271 376 1
272 128 1
272 142 1
272 185 1
272 209 1
272 239 1
272 284 1
272 310 1
272 322 1
272 378 1
273 143 1
273 158 1
273 165 1
273 240 1
273 255 1
273 264 1
273 323 1
273 338 1
273 363 1
274 144 1
274 159 1
274 168 1
274 225 1
274 256 1
274 266 1
274 326 1
274 339 1
274 366 1
275 129 1
275 160 1
275 170 1
275 226 1
275 241 1
275 269 1
275 324 1
275 342 1
275 367 1
276 131 1
276 146 1
276 171 1
276 230 1
276 243 1
276 270 1
276 329 1
276 343 1
276 353 1
277 137 1
277 151 1
277 161 1
277 236 1
277 249 1
277 258 1
277 330 1
277 344 1
277 356 1
278 130 1
278 145 1
278 173 1
278 227 1
278 242 1
278 267 1
278 327 1
278 340 1
278 368 1
279 134 1
279 147 1
279 174 1
279 228 1
279 246 1
279 271 1
279 332 1
279 345 1
279 354 1
280 140 1
280 153 1
280 162 1
280 229 1
280 252 1
280 259 1
280 333 1
280 346 1
280 359 1
281 132 1
281 150 1
281 175 1
281 231 1
281 244 1
281 272 1
281 325 1
281 348 1
281 355 1
282 133 1
282 156 1
282 163 1
282 232 1
282 245 1
282 262 1
282 331 1
282 349 1
282 361 1
283 138 1
283 152 1
283 164 1
283 237 1
283 250 1
283 263 1
283 335 1
283 350 1
283 357 1
284 135 1
284 148 1
284 176 1
284 233 1
284 247 1
284 257 1
284 328 1
284 341 1
284 358 1
285 136 1
285 149 1
285 166 1
285 234 1
285 248 1
285 260 1
285 334 1
285 347 1
285 364 1
286 141 1
286 154 1
286 167 1
286 235 1
286 253 1
286 265 1
286 336 1
286 351 1
286 360 1
287 139 1
287 157 1
287 169 1
287 238 1
287 251 1
287 268 1
287 321 1
287 352 1
287 362 1
288 142 1
288 155 1
288 172 1
288 239 1
288 254 1
288 261 1
288 322 1
288 337 1
288 365 1
