%%MatrixMarket matrix coordinate integer general
306 612 2754
1 1 1
1 52 1
1 69 1
1 103 1
1 154 1
1 171 1
1 307 1
1 358 1
1 375 1
2 2 1
2 53 1
2 70 1
2 104 1
2 155 1
2 172 1
2 308 1
2 359 1
2 376 1
3 3 1
3 54 1
3 71 1
3 105 1
3 156 1
3 173 1
3 309 1
3 360 1
3 377 1
4 4 1
4 55 1
4 72 1
4 106 1
4 157 1
4 174 1
4 310 1
4 361 1
4 378 1
5 5 1
5 56 1
5 73 1
5 107 1
5 158 1
5 175 1
5 311 1
5 362 1
5 379 1
6 6 1
6 57 1
6 74 1
6 108 1
6 159 1
6 176 1
6 312 1
6 363 1
6 380 1
7 7 1
7 58 1
7 75 1
7 109 1
7 160 1
7 177 1
7 313 1
7 364 1
7 381 1
8 8 1
8 59 1
8 76 1
8 110 1
8 161 1
8 178 1
8 314 1
8 365 1
8 382 1
9 9 1
9 60 1
9 77 1
9 111 1
9 162 1
9 179 1
9 315 1
9 366 1
9 383 1
10 10 1
10 61 1
10 78 1
10 112 1
10 163 1
10 180 1
10 316 1
10 367 1
10 384 1
11 11 1
11 62 1
11 79 1
11 113 1
11 164 1
11 181 1
11 317 1
11 368 1
11 385 1
12 12 1
12 63 1
12 80 1
12 114 1
12 165 1
12 182 1
12 318 1
12 369 1
12 386 1
13 13 1
13 64 1
13 81 1
13 115 1
13 166 1
13 183 1
13 319 1
13 370 1
13 387 1
14 14 1
14 65 1
14 82 1
14 116 1
14 167 1
14 184 1
14 320 1
14 371 1
14 388 1
15 15 1
15 66 1
15 83 1
15 117 1
15 168 1
15 185 1
15 321 1
15 372 1
15 389 1
16 16 1
16 67 1
16 84 1
16 118 1
16 169 1
16 186 1
16 322 1
16 373 1
16 390 1
17 17 1
17 68 1
17 85 1
17 119 1
17 170 1
17 187 1
17 323 1
17 374 1
17 391 1
18 18 1
18 52 1
18 86 1
18 120 1
18 154 1
18 188 1
18 324 1
18 358 1
18 392 1
19 19 1
19 53 1
19 87 1
19 121 1
19 155 1
19 189 1
19 325 1
19 359 1
19 393 1
20 20 1
20 54 1
20 88 1
20 122 1
20 156 1
20 190 1
20 326 1
20 360 1
20 394 1
21 21 1
21 55 1
21 89 1
21 123 1
21 157 1
21 191 1
21 327 1
21 361 1
21 395 1
22 22 1
22 56 1
22 90 1
22 124 1
22 158 1
22 192 1
22 328 1
22 362 1
22 396 1
23 23 1
23 57 1
23 91 1
23 125 1
23 159 1
23 193 1
23 329 1
23 363 1
23 397 1
24 24 1
24 58 1
24 92 1
24 126 1
24 160 1
24 194 1
24 330 1
24 364 1
24 398 1
25 25 1
25 59 1
25 93 1
25 127 1
25 161 1
25 195 1
25 331 1
25 365 1
25 399 1
26 26 1
26 60 1
26 94 1
26 128 1
26 162 1
26 196 1
26 332 1
26 366 1
26 400 1
27 27 1
27 61 1
27 95 1
27 129 1
27 163 1
27 197 1
27 333 1
27 367 1
27 401 1
28 28 1
28 62 1
28 96 1
28 130 1
28 164 1
28 198 1
28 334 1
28 368 1
28 402 1
29 29 1
29 63 1
29 97 1
29 131 1
29 165 1
29 199 1
29 335 1
29 369 1
29 403 1
30 30 1
30 64 1
30 98 1
30 132 1
30 166 1
30 200 1
30 336 1
30 370 1
30 404 1
31 31 1
31 65 1
31 99 1
31 133 1
31 167 1
31 201 1
31 337 1
31 371 1
31 405 1
32 32 1
32 66 1
32 100 1
32 134 1
32 168 1
32 202 1
32 338 1
32 372 1
32 406 1
33 33 1
33 67 1
33 101 1
33 135 1
33 169 1
33 203 1
33 339 1
33 373 1
33 407 1
34 34 1
34 68 1
34 102 1
34 136 1
34 170 1
34 204 1
34 340 1
34 374 1
34 408 1
35 35 1
35 69 1
35 86 1
35 137 1
35 171 1
35 188 1
35 341 1
35 375 1
35 392 1
36 36 1
36 70 1
36 87 1
36 138 1
36 172 1
36 189 1
36 342 1
36 376 1
36 393 1
37 37 1
37 71 1
37 88 1
37 139 1
37 173 1
37 190 1
37 343 1
37 377 1
37 394 1
38 38 1
38 72 1
38 89 1
38 140 1
38 174 1
38 191 1
38 344 1
38 378 1
38 395 1
39 39 1
39 73 1
39 90 1
39 141 1
39 175 1
39 192 1
39 345 1
39 379 1
39 396 1
40 40 1
40 74 1
40 91 1
40 142 1
40 176 1
40 193 1
40 346 1
40 380 1
40 397 1
41 41 1
41 75 1
41 92 1
41 143 1
41 177 1
41 194 1
41 347 1
41 381 1
41 398 1
42 42 1
42 76 1
42 93 1
42 144 1
42 178 1
42 195 1
42 348 1
42 382 1
42 399 1
43 43 1
43 77 1
43 94 1
43 145 1
43 179 1
43 196 1
43 349 1
43 383 1
43 400 1
44 44 1
44 78 1
44 95 1
44 146 1
44 180 1
44 197 1
44 350 1
44 384 1
44 401 1
45 45 1
45 79 1
45 96 1
45 147 1
45 181 1
45 198 1
45 351 1
45 385 1
45 402 1
46 46 1
46 80 1
46 97 1
46 148 1
46 182 1
46 199 1
46 352 1
46 386 1
46 403 1
47 47 1
47 81 1
47 98 1
47 149 1
47 183 1
47 200 1
47 353 1
47 387 1
47 404 1
48 48 1
48 82 1
48 99 1
48 150 1
48 184 1
48 201 1
48 354 1
48 388 1
48 405 1
49 49 1
49 83 1
49 100 1
49 151 1
49 185 1
49 202 1
49 355 1
49 389 1
49 406 1
50 50 1
50 84 1
50 101 1
50 152 1
50 186 1
50 203 1
50 356 1
50 390 1
50 407 1
51 51 1
51 85 1
51 102 1
51 153 1
51 187 1
51 204 1
51 357 1
51 391 1
51 408 1
52 1 1
52 52 1
52 69 1
52 205 1
52 256 1
52 273 1
52 409 1
52 460 1
52 477 1
53 2 1
53 53 1
53 70 1
53 206 1
53 257 1
53 274 1
53 410 1
53 461 1
53 478 1
54 3 1
54 54 1
54 71 1
54 207 1
54 258 1
54 275 1
54 411 1
54 462 1
54 479 1
55 4 1
55 55 1
55 72 1
55 208 1
55 259 1
55 276 1
55 412 1
55 463 1
55 480 1
56 5 1
56 56 1
56 73 1
56 209 1
56 260 1
56 277 1
56 413 1
56 464 1
56 481 1
57 6 1
57 57 1
57 74 1
57 210 1
57 261 1
57 278 1
57 414 1
57 465 1
57 482 1
58 7 1
58 58 1
58 75 1
58 211 1
58 262 1
58 279 1
58 415 1
58 466 1
58 483 1
59 8 1
59 59 1
59 76 1
59 212 1
59 263 1
59 280 1
59 416 1
59 467 1
59 484 1
60 9 1
60 60 1
60 77 1
60 213 1
60 264 1
60 281 1
60 417 1
60 468 1
60 485 1
61 10 1
61 61 1
61 78 1
61 214 1
61 265 1
61 282 1
61 418 1
61 469 1
61 486 1
62 11 1
62 62 1
62 79 1
62 215 1
62 266 1
62 283 1
62 419 1
62 470 1
62 487 1
63 12 1
63 63 1
63 80 1
63 216 1
63 267 1
63 284 1
63 420 1
63 471 1
63 488 1
64 13 1
64 64 1
64 81 1
64 217 1
64 268 1
64 285 1
64 421 1
64 472 1
64 489 1
65 14 1
65 65 1
65 82 1
65 218 1
65 269 1
65 286 1
65 422 1
65 473 1
65 490 1
66 15 1
66 66 1
66 83 1
66 219 1
66 270 1
66 287 1
66 423 1
66 474 1
66 491 1
67 16 1
67 67 1
67 84 1
67 220 1
67 271 1
67 288 1
67 424 1
67 475 1
67 492 1
68 17 1
68 68 1
68 85 1
68 221 1
68 272 1
68 289 1
68 425 1
68 476 1
68 493 1
69 18 1
69 52 1
69 86 1
69 222 1
69 256 1
69 290 1
69 426 1
69 460 1
69 494 1
70 19 1
70 53 1
70 87 1
70 223 1
70 257 1
70 291 1
70 427 1
70 461 1
70 495 1
71 20 1
71 54 1
71 88 1
71 224 1
71 258 1
71 292 1
71 428 1
71 462 1
71 496 1
72 21 1
72 55 1
72 89 1
72 225 1
72 259 1
72 293 1
72 429 1
72 463 1
72 497 1
73 22 1
73 56 1
73 90 1
73 226 1
73 260 1
73 294 1
73 430 1
73 464 1
73 498 1
74 23 1
74 57 1
74 91 1
74 227 1
74 261 1
74 295 1
74 431 1
74 465 1
74 499 1
75 24 1
75 58 1
75 92 1
75 228 1
75 262 1
75 296 1
75 432 1
75 466 1
75 500 1
76 25 1
76 59 1
76 93 1
76 229 1
76 263 1
76 297 1
76 433 1
76 467 1
76 501 1
77 26 1
77 60 1
77 94 1
77 230 1
77 264 1
77 298 1
77 434 1
77 468 1
77 502 1
78 27 1
78 61 1
78 95 1
78 231 1
78 265 1
78 299 1
78 435 1
78 469 1
78 503 1
79 28 1
79 62 1
79 96 1
79 232 1
79 266 1
79 300 1
79 436 1
79 470 1
79 504 1
80 29 1
80 63 1
80 97 1
80 233 1
80 267 1
80 301 1
80 437 1
80 471 1
80 505 1
81 30 1
81 64 1
81 98 1
81 234 1
81 268 1
81 302 1
81 438 1
81 472 1
81 506 1
82 31 1
82 65 1
82 99 1
82 235 1
82 269 1
82 303 1
82 439 1
82 473 1
82 507 1
83 32 1
83 66 1
83 100 1
83 236 1
83 270 1
83 304 1
83 440 1
83 474 1
83 508 1
84 33 1
84 67 1
84 101 1
84 237 1
84 271 1
84 305 1
84 441 1
84 475 1
84 509 1
85 34 1
85 68 1
85 102 1
85 238 1
85 272 1
85 306 1
85 442 1
85 476 1
85 510 1
86 35 1
86 69 1
86 86 1
86 239 1
86 273 1
86 290 1
86 443 1
86 477 1
86 494 1
87 36 1
87 70 1
87 87 1
87 240 1
87 274 1
87 291 1
87 444 1
87 478 1
87 495 1
88 37 1
88 71 1
88 88 1
88 241 1
88 275 1
88 292 1
88 445 1
88 479 1
88 496 1
89 38 1
89 72 1
89 89 1
89 242 1
89 276 1
89 293 1
89 446 1
89 480 1
89 497 1
90 39 1
90 73 1
90 90 1
90 243 1
90 277 1
90 294 1
90 447 1
90 481 1
90 498 1
91 40 1
91 74 1
91 91 1
91 244 1
91 278 1
91 295 1
91 448 1
91 482 1
91 499 1
92 41 1
92 75 1
92 92 1
92 245 1
92 279 1
92 296 1
92 449 1
92 483 1
92 500 1
93 42 1
93 76 1
93 93 1
93 246 1
93 280 1
93 297 1
93 450 1
93 484 1
93 501 1
94 43 1
94 77 1
94 94 1
94 247 1
94 281 1
94 298 1
94 451 1
94 485 1
94 502 1
95 44 1
95 78 1
95 95 1
95 248 1
95 282 1
95 299 1
95 452 1
95 486 1
95 503 1
96 45 1
96 79 1
96 96 1
96 249 1
96 283 1
96 300 1
96 453 1
96 487 1
96 504 1
97 46 1
97 80 1
97 97 1
97 250 1
97 284 1
97 301 1
97 454 1
97 488 1
97 505 1
98 47 1
98 81 1
98 98 1
98 251 1
98 285 1
98 302 1
98 455 1
98 489 1
98 506 1
99 48 1
99 82 1
99 99 1
99 252 1
99 286 1
99 303 1
99 456 1
99 490 1
99 507 1
100 49 1
100 83 1
100 100 1
100 253 1
100 287 1
100 304 1
100 457 1
100 491 1
100 508 1
101 50 1
101 84 1
101 101 1
101 254 1
101 288 1
101 305 1
101 458 1
101 492 1
101 509 1
102 51 1
102 85 1
102 102 1
102 255 1
102 289 1
102 306 1
102 459 1
102 493 1
102 510 1
103 103 1
103 154 1
103 171 1
103 205 1
103 256 1
103 273 1
103 511 1
103 562 1
103 579 1
104 104 1
104 155 1
104 172 1
104 206 1
104 257 1
104 274 1
104 512 1
104 563 1
104 580 1
105 105 1
105 156 1
105 173 1
105 207 1
105 258 1
105 275 1
105 513 1
105 564 1
105 581 1
106 106 1
106 157 1
106 174 1
106 208 1
106 259 1
106 276 1
106 514 1
106 565 1
106 582 1
107 107 1
107 158 1
107 175 1
107 209 1
107 260 1
107 277 1
107 515 1
107 566 1
107 583 1
108 108 1
108 159 1
108 176 1
108 210 1
108 261 1
108 278 1
108 516 1
108 567 1
108 584 1
109 109 1
109 160 1
109 177 1
109 211 1
109 262 1
109 279 1
109 517 1
109 568 1
109 585 1
110 110 1
110 161 1
110 178 1
110 212 1
110 263 1
110 280 1
110 518 1
110 569 1
110 586 1
111 111 1
111 162 1
111 179 1
111 213 1
111 264 1
111 281 1
111 519 1
111 570 1
111 587 1
112 112 1
112 163 1
112 180 1
112 214 1
112 265 1
112 282 1
112 520 1
112 571 1
112 588 1
113 113 1
113 164 1
113 181 1
113 215 1
113 266 1
113 283 1
113 521 1
113 572 1
113 589 1
114 114 1
114 165 1
114 182 1
114 216 1
114 267 1
114 284 1
114 522 1
114 573 1
114 590 1
115 115 1
115 166 1
115 183 1
115 217 1
115 268 1
115 285 1
115 523 1
115 574 1
115 591 1
116 116 1
116 167 1
116 184 1
116 218 1
116 269 1
116 286 1
116 524 1
116 575 1
116 592 1
117 117 1
117 168 1
117 185 1
117 219 1
117 270 1
117 287 1
117 525 1
117 576 1
117 593 1
118 118 1
118 169 1
118 186 1
118 220 1
118 271 1
118 288 1
118 526 1
118 577 1
118 594 1
119 119 1
119 170 1
119 187 1
119 221 1
119 272 1
119 289 1
119 527 1
119 578 1
119 595 1
120 120 1
120 154 1
120 188 1
120 222 1
120 256 1
120 290 1
120 528 1
120 562 1
120 596 1
121 121 1
121 155 1
121 189 1
121 223 1
121 257 1
121 291 1
121 529 1
121 563 1
121 597 1
122 122 1
122 156 1
122 190 1
122 224 1
122 258 1
122 292 1
122 530 1
122 564 1
122 598 1
123 123 1
123 157 1
123 191 1
123 225 1
123 259 1
123 293 1
123 531 1
123 565 1
123 599 1
124 124 1
124 158 1
124 192 1
124 226 1
124 260 1
124 294 1
124 532 1
124 566 1
124 600 1
125 125 1
125 159 1
125 193 1
125 227 1
125 261 1
125 295 1
125 533 1
125 567 1
125 601 1
126 126 1
126 160 1
126 194 1
126 228 1
126 262 1
126 296 1
126 534 1
126 568 1
126 602 1
127 127 1
127 161 1
127 195 1
127 229 1
127 263 1
127 297 1
127 535 1
127 569 1
127 603 1
128 128 1
128 162 1
128 196 1
128 230 1
128 264 1
128 298 1
128 536 1
128 570 1
128 604 1
129 129 1
129 163 1
129 197 1
129 231 1
129 265 1
129 299 1
129 537 1
129 571 1
129 605 1
130 130 1
130 164 1
130 198 1
130 232 1
130 266 1
130 300 1
130 538 1
130 572 1
130 606 1
131 131 1
131 165 1
131 199 1
131 233 1
131 267 1
131 301 1
131 539 1
131 573 1
131 607 1
132 132 1
132 166 1
132 200 1
132 234 1
132 268 1
132 302 1
132 540 1
132 574 1
132 608 1
133 133 1
133 167 1
133 201 1
133 235 1
133 269 1
133 303 1
133 541 1
133 575 1
133 609 1
134 134 1
134 168 1
134 202 1
134 236 1
134 270 1
134 304 1
134 542 1
134 576 1
134 610 1
135 135 1
135 169 1
135 203 1
135 237 1
135 271 1
135 305 1
135 543 1
135 577 1
135 611 1
136 136 1
136 170 1
136 204 1
136 238 1
136 272 1
136 306 1
136 544 1
136 578 1
136 612 1
137 137 1
137 171 1
137 188 1
137 239 1
137 273 1
137 290 1
137 545 1
137 579 1
137 596 1
138 138 1
138 172 1
138 189 1
138 240 1
138 274 1
138 291 1
138 546 1
138 580 1
138 597 1
139 139 1
139 173 1
139 190 1
139 241 1
139 275 1
139 292 1
139 547 1
139 581 1
139 598 1
140 140 1
140 174 1
140 191 1
140 242 1
140 276 1
140 293 1
140 548 1
140 582 1
140 599 1
141 141 1
141 175 1
141 192 1
141 243 1
141 277 1
141 294 1
141 549 1
141 583 1
141 600 1
142 142 1
142 176 1
142 193 1
142 244 1
142 278 1
142 295 1
142 550 1
142 584 1
142 601 1
143 143 1
143 177 1
143 194 1
143 245 1
143 279 1
143 296 1
143 551 1
143 585 1
143 602 1
144 144 1
144 178 1
144 195 1
144 246 1
144 280 1
144 297 1
144 552 1
144 586 1
144 603 1
145 145 1
145 179 1
145 196 1
145 247 1
145 281 1
145 298 1
145 553 1
145 587 1
145 604 1
146 146 1
146 180 1
146 197 1
146 248 1
146 282 1
146 299 1
146 554 1
146 588 1
146 605 1
147 147 1
147 181 1
147 198 1
147 249 1
147 283 1
147 300 1
147 555 1
147 589 1
147 606 1
148 148 1
148 182 1
148 199 1
148 250 1
148 284 1
148 301 1
148 556 1
148 590 1
148 607 1
149 149 1
149 183 1
149 200 1
149 251 1
149 285 1
149 302 1
149 557 1
149 591 1
149 608 1
150 150 1
150 184 1
150 201 1
150 252 1
150 286 1
150 303 1
150 558 1
150 592 1
150 609 1
151 151 1
151 185 1
151 202 1
151 253 1
151 287 1
151 304 1
151 559 1
151 593 1
151 610 1
152 152 1
152 186 1
152 203 1
152 254 1
152 288 1
152 305 1
152 560 1
152 594 1
152 611 1
153 153 1
153 187 1
153 204 1
153 255 1
153 289 1
153 306 1
153 561 1
153 595 1
153 612 1
154 1 1
154 59 1
154 75 1
154 107 1
154 165 1
154 181 1
154 316 1
154 374 1
154 390 1
155 2 1
155 60 1
155 76 1
155 108 1
155 166 1
155 182 1
155 317 1
155 358 1
155 391 1
156 3 1
156 61 1
156 77 1
156 109 1
156 167 1
156 183 1
156 318 1
156 359 1
156 375 1
157 4 1
157 62 1
157 78 1
157 110 1
157 168 1
157 184 1
157 319 1
157 360 1
157 376 1
158 5 1
158 63 1
158 79 1
158 111 1
158 169 1
158 185 1
158 320 1
158 361 1
158 377 1
159 6 1
159 64 1
159 80 1
159 112 1
159 170 1
159 186 1
159 321 1
159 362 1
159 378 1
160 7 1
160 65 1
160 81 1
160 113 1
160 154 1
160 187 1
160 322 1
160 363 1
160 379 1
161 8 1
161 66 1
161 82 1
161 114 1
161 155 1
161 171 1
161 323 1
161 364 1
161 380 1
162 9 1
162 67 1
162 83 1
162 115 1
162 156 1
162 172 1
162 307 1
162 365 1
162 381 1
163 10 1
163 68 1
163 84 1
163 116 1
163 157 1
163 173 1
163 308 1
163 366 1
163 382 1
164 11 1
164 52 1
164 85 1
164 117 1
164 158 1
164 174 1
164 309 1
164 367 1
164 383 1
165 12 1
165 53 1
165 69 1
165 118 1
165 159 1
165 175 1
165 310 1
165 368 1
165 384 1
166 13 1
166 54 1
166 70 1
166 119 1
166 160 1
166 176 1
166 311 1
166 369 1
166 385 1
167 14 1
167 55 1
167 71 1
167 103 1
167 161 1
167 177 1
167 312 1
167 370 1
167 386 1
168 15 1
168 56 1
168 72 1
168 104 1
168 162 1
168 178 1
168 313 1
168 371 1
168 387 1
169 16 1
169 57 1
169 73 1
169 105 1
169 163 1
169 179 1
169 314 1
169 372 1
169 388 1
170 17 1
170 58 1
170 74 1
170 106 1
170 164 1
170 180 1
170 315 1
170 373 1
170 389 1
171 18 1
171 59 1
171 91 1
171 124 1
171 165 1
171 197 1
171 333 1
171 374 1
171 406 1
172 19 1
172 60 1
172 92 1
172 125 1
172 166 1
172 198 1
172 334 1
172 358 1
172 407 1
173 20 1
173 61 1
173 93 1
173 126 1
173 167 1
173 199 1
173 335 1
173 359 1
173 408 1
174 21 1
174 62 1
174 94 1
174 127 1
174 168 1
174 200 1
174 336 1
174 360 1
174 392 1
175 22 1
175 63 1
175 95 1
175 128 1
175 169 1
175 201 1
175 337 1
175 361 1
175 393 1
176 23 1
176 64 1
176 96 1
176 129 1
176 170 1
176 202 1
176 338 1
176 362 1
176 394 1
177 24 1
177 65 1
177 97 1
177 130 1
177 154 1
177 203 1
177 339 1
177 363 1
177 395 1
178 25 1
178 66 1
178 98 1
178 131 1
178 155 1
178 204 1
178 340 1
178 364 1
178 396 1
179 26 1
179 67 1
179 99 1
179 132 1
179 156 1
179 188 1
179 324 1
179 365 1
179 397 1
180 27 1
180 68 1
180 100 1
180 133 1
180 157 1
180 189 1
180 325 1
180 366 1
180 398 1
181 28 1
181 52 1
181 101 1
181 134 1
181 158 1
181 190 1
181 326 1
181 367 1
181 399 1
182 29 1
182 53 1
182 102 1
182 135 1
182 159 1
182 191 1
182 327 1
182 368 1
182 400 1
183 30 1
183 54 1
183 86 1
183 136 1
183 160 1
183 192 1
183 328 1
183 369 1
183 401 1
184 31 1
184 55 1
184 87 1
184 120 1
184 161 1
184 193 1
184 329 1
184 370 1
184 402 1
185 32 1
185 56 1
185 88 1
185 121 1
185 162 1
185 194 1
185 330 1
185 371 1
185 403 1
186 33 1
186 57 1
186 89 1
186 122 1
186 163 1
186 195 1
186 331 1
186 372 1
186 404 1
187 34 1
187 58 1
187 90 1
187 123 1
187 164 1
187 196 1
187 332 1
187 373 1
187 405 1
188 51 1
188 75 1
188 91 1
188 140 1
188 181 1
188 197 1
188 349 1
188 390 1
188 406 1
189 35 1
189 76 1
189 92 1
189 141 1
189 182 1
189 198 1
189 350 1
189 391 1
189 407 1
190 36 1
190 77 1
190 93 1
190 142 1
190 183 1
190 199 1
190 351 1
190 375 1
190 408 1
191 37 1
191 78 1
191 94 1
191 143 1
191 184 1
191 200 1
191 352 1
191 376 1
191 392 1
192 38 1
192 79 1
192 95 1
192 144 1
192 185 1
192 201 1
192 353 1
192 377 1
192 393 1
193 39 1
193 80 1
193 96 1
193 145 1
193 186 1
193 202 1
193 354 1
193 378 1
193 394 1
194 40 1
194 81 1
194 97 1
194 146 1
194 187 1
194 203 1
194 355 1
194 379 1
194 395 1
195 41 1
195 82 1
195 98 1
195 147 1
195 171 1
195 204 1
195 356 1
195 380 1
195 396 1
196 42 1
196 83 1
196 99 1
196 148 1
196 172 1
196 188 1
196 357 1
196 381 1
196 397 1
197 43 1
197 84 1
197 100 1
197 149 1
197 173 1
197 189 1
197 341 1
197 382 1
197 398 1
198 44 1
198 85 1
198 101 1
198 150 1
198 174 1
198 190 1
198 342 1
198 383 1
198 399 1
199 45 1
199 69 1
199 102 1
199 151 1
199 175 1
199 191 1
199 343 1
199 384 1
199 400 1
200 46 1
200 70 1
200 86 1
200 152 1
200 176 1
200 192 1
200 344 1
200 385 1
200 401 1
201 47 1
201 71 1
201 87 1
201 153 1
201 177 1
201 193 1
201 345 1
201 386 1
201 402 1
202 48 1
202 72 1
202 88 1
202 137 1
202 178 1
202 194 1
202 346 1
202 387 1
202 403 1
203 49 1
203 73 1
203 89 1
203 138 1
203 179 1
203 195 1
203 347 1
203 388 1
203 404 1
204 50 1
204 74 1
204 90 1
204 139 1
204 180 1
204 196 1
204 348 1
204 389 1
204 405 1
205 1 1
205 59 1
205 75 1
205 211 1
205 269 1
205 285 1
205 420 1
205 461 1
205 477 1
206 2 1
206 60 1
206 76 1
206 212 1
206 270 1
206 286 1
206 421 1
206 462 1
206 478 1
207 3 1
207 61 1
207 77 1
207 213 1
207 271 1
207 287 1
207 422 1
207 463 1
207 479 1
208 4 1
208 62 1
208 78 1
208 214 1
208 272 1
208 288 1
208 423 1
208 464 1
208 480 1
209 5 1
209 63 1
209 79 1
209 215 1
209 256 1
209 289 1
209 424 1
209 465 1
209 481 1
210 6 1
210 64 1
210 80 1
210 216 1
210 257 1
210 273 1
210 425 1
210 466 1
210 482 1
211 7 1
211 65 1
211 81 1
211 217 1
211 258 1
211 274 1
211 409 1
211 467 1
211 483 1
212 8 1
212 66 1
212 82 1
212 218 1
212 259 1
212 275 1
212 410 1
212 468 1
212 484 1
213 9 1
213 67 1
213 83 1
213 219 1
213 260 1
213 276 1
213 411 1
213 469 1
213 485 1
214 10 1
214 68 1
214 84 1
214 220 1
214 261 1
214 277 1
214 412 1
214 470 1
214 486 1
215 11 1
215 52 1
215 85 1
215 221 1
215 262 1
215 278 1
215 413 1
215 471 1
215 487 1
216 12 1
216 53 1
216 69 1
216 205 1
216 263 1
216 279 1
216 414 1
216 472 1
216 488 1
217 13 1
217 54 1
217 70 1
217 206 1
217 264 1
217 280 1
217 415 1
217 473 1
217 489 1
218 14 1
218 55 1
218 71 1
218 207 1
218 265 1
218 281 1
218 416 1
218 474 1
218 490 1
219 15 1
219 56 1
219 72 1
219 208 1
219 266 1
219 282 1
219 417 1
219 475 1
219 491 1
220 16 1
220 57 1
220 73 1
220 209 1
220 267 1
220 283 1
220 418 1
220 476 1
220 492 1
221 17 1
221 58 1
221 74 1
221 210 1
221 268 1
221 284 1
221 419 1
221 460 1
221 493 1
222 18 1
222 59 1
222 91 1
222 228 1
222 269 1
222 301 1
222 437 1
222 461 1
222 510 1
223 19 1
223 60 1
223 92 1
223 229 1
223 270 1
223 302 1
223 438 1
223 462 1
223 494 1
224 20 1
224 61 1
224 93 1
224 230 1
224 271 1
224 303 1
224 439 1
224 463 1
224 495 1
225 21 1
225 62 1
225 94 1
225 231 1
225 272 1
225 304 1
225 440 1
225 464 1
225 496 1
226 22 1
226 63 1
226 95 1
226 232 1
226 256 1
226 305 1
226 441 1
226 465 1
226 497 1
227 23 1
227 64 1
227 96 1
227 233 1
227 257 1
227 306 1
227 442 1
227 466 1
227 498 1
228 24 1
228 65 1
228 97 1
228 234 1
228 258 1
228 290 1
228 426 1
228 467 1
228 499 1
229 25 1
229 66 1
229 98 1
229 235 1
229 259 1
229 291 1
229 427 1
229 468 1
229 500 1
230 26 1
230 67 1
230 99 1
230 236 1
230 260 1
230 292 1
230 428 1
230 469 1
230 501 1
231 27 1
231 68 1
231 100 1
231 237 1
231 261 1
231 293 1
231 429 1
231 470 1
231 502 1
232 28 1
232 52 1
232 101 1
232 238 1
232 262 1
232 294 1
232 430 1
232 471 1
232 503 1
233 29 1
233 53 1
233 102 1
233 222 1
233 263 1
233 295 1
233 431 1
233 472 1
233 504 1
234 30 1
234 54 1
234 86 1
234 223 1
234 264 1
234 296 1
234 432 1
234 473 1
234 505 1
235 31 1
235 55 1
235 87 1
235 224 1
235 265 1
235 297 1
235 433 1
235 474 1
235 506 1
236 32 1
236 56 1
236 88 1
236 225 1
236 266 1
236 298 1
236 434 1
236 475 1
236 507 1
237 33 1
237 57 1
237 89 1
237 226 1
237 267 1
237 299 1
237 435 1
237 476 1
237 508 1
238 34 1
238 58 1
238 90 1
238 227 1
238 268 1
238 300 1
238 436 1
238 460 1
238 509 1
239 51 1
239 75 1
239 91 1
239 244 1
239 285 1
239 301 1
239 453 1
239 477 1
239 510 1
240 35 1
240 76 1
240 92 1
240 245 1
240 286 1
240 302 1
240 454 1
240 478 1
240 494 1
241 36 1
241 77 1
241 93 1
241 246 1
241 287 1
241 303 1
241 455 1
241 479 1
241 495 1
242 37 1
242 78 1
242 94 1
242 247 1
242 288 1
242 304 1
242 456 1
242 480 1
242 496 1
243 38 1
243 79 1
243 95 1
243 248 1
243 289 1
243 305 1
243 457 1
243 481 1
243 497 1
244 39 1
244 80 1
244 96 1
244 249 1
244 273 1
244 306 1
244 458 1
244 482 1
244 498 1
245 40 1
245 81 1
245 97 1
245 250 1
245 274 1
245 290 1
245 459 1
245 483 1
245 499 1
246 41 1
246 82 1
246 98 1
246 251 1
246 275 1
246 291 1
246 443 1
246 484 1
246 500 1
247 42 1
247 83 1
247 99 1
247 252 1
247 276 1
247 292 1
247 444 1
247 485 1
247 501 1
248 43 1
248 84 1
248 100 1
248 253 1
248 277 1
248 293 1
248 445 1
248 486 1
248 502 1
249 44 1
249 85 1
249 101 1
249 254 1
249 278 1
249 294 1
249 446 1
249 487 1
249 503 1
250 45 1
250 69 1
250 102 1
250 255 1
250 279 1
250 295 1
250 447 1
250 488 1
250 504 1
251 46 1
251 70 1
251 86 1
251 239 1
251 280 1
251 296 1
251 448 1
251 489 1
251 505 1
252 47 1
252 71 1
252 87 1
252 240 1
252 281 1
252 297 1
252 449 1
252 490 1
252 506 1
253 48 1
253 72 1
253 88 1
253 241 1
253 282 1
253 298 1
253 450 1
253 491 1
253 507 1
254 49 1
254 73 1
254 89 1
254 242 1
254 283 1
254 299 1
254 451 1
254 492 1
254 508 1
255 50 1
255 74 1
255 90 1
255 243 1
255 284 1
255 300 1
255 452 1
255 493 1
255 509 1
256 107 1
256 165 1
256 181 1
256 211 1
256 269 1
256 285 1
256 526 1
256 567 1
256 583 1
257 108 1
257 166 1
257 182 1
257 212 1
257 270 1
257 286 1
257 527 1
257 568 1
257 584 1
258 109 1
258 167 1
258 183 1
258 213 1
258 271 1
258 287 1
258 511 1
258 569 1
258 585 1
259 110 1
259 168 1
259 184 1
259 214 1
259 272 1
259 288 1
259 512 1
259 570 1
259 586 1
260 111 1
260 169 1
260 185 1
260 215 1
260 256 1
260 289 1
260 513 1
260 571 1
260 587 1
261 112 1
261 170 1
261 186 1
261 216 1
261 257 1
261 273 1
261 514 1
261 572 1
261 588 1
262 113 1
262 154 1
262 187 1
262 217 1
262 258 1
262 274 1
262 515 1
262 573 1
262 589 1
263 114 1
263 155 1
263 171 1
263 218 1
263 259 1
263 275 1
263 516 1
263 574 1
263 590 1
264 115 1
264 156 1
264 172 1
264 219 1
264 260 1
264 276 1
264 517 1
264 575 1
264 591 1
265 116 1
265 157 1
265 173 1
265 220 1
265 261 1
265 277 1
265 518 1
265 576 1
265 592 1
266 117 1
266 158 1
266 174 1
266 221 1
266 262 1
266 278 1
266 519 1
266 577 1
266 593 1
267 118 1
267 159 1
267 175 1
267 205 1
267 263 1
267 279 1
267 520 1
267 578 1
267 594 1
268 119 1
268 160 1
268 176 1
268 206 1
268 264 1
268 280 1
268 521 1
268 562 1
268 595 1
269 103 1
269 161 1
269 177 1
269 207 1
269 265 1
269 281 1
269 522 1
269 563 1
269 579 1
270 104 1
270 162 1
270 178 1
270 208 1
270 266 1
270 282 1
270 523 1
270 564 1
270 580 1
271 105 1
271 163 1
271 179 1
271 209 1
271 267 1
271 283 1
271 524 1
271 565 1
271 581 1
272 106 1
272 164 1
272 180 1
272 210 1
272 268 1
272 284 1
272 525 1
272 566 1
272 582 1
273 124 1
273 165 1
273 197 1
273 228 1
273 269 1
273 301 1
273 543 1
273 567 1
273 599 1
274 125 1
274 166 1
274 198 1
274 229 1
274 270 1
274 302 1
274 544 1
274 568 1
274 600 1
275 126 1
275 167 1
275 199 1
275 230 1
275 271 1
275 303 1
275 528 1
275 569 1
275 601 1
276 127 1
276 168 1
276 200 1
276 231 1
276 272 1
276 304 1
276 529 1
276 570 1
276 602 1
277 128 1
277 169 1
277 201 1
277 232 1
277 256 1
277 305 1
277 530 1
277 571 1
277 603 1
278 129 1
278 170 1
278 202 1
278 233 1
278 257 1
278 306 1
278 531 1
278 572 1
278 604 1
279 130 1
279 154 1
279 203 1
279 234 1
279 258 1
279 290 1
279 532 1
279 573 1
279 605 1
280 131 1
280 155 1
280 204 1
280 235 1
280 259 1
280 291 1
280 533 1
280 574 1
280 606 1
281 132 1
281 156 1
281 188 1
281 236 1
281 260 1
281 292 1
281 534 1
281 575 1
281 607 1
282 133 1
282 157 1
282 189 1
282 237 1
282 261 1
282 293 1
282 535 1
282 576 1
282 608 1
283 134 1
283 158 1
283 190 1
283 238 1
283 262 1
283 294 1
283 536 1
283 577 1
283 609 1
284 135 1
284 159 1
284 191 1
284 222 1
284 263 1
284 295 1
284 537 1
284 578 1
284 610 1
285 136 1
285 160 1
285 192 1
285 223 1
285 264 1
285 296 1
285 538 1
285 562 1
285 611 1
286 120 1
286 161 1
286 193 1
286 224 1
286 265 1
286 297 1
286 539 1
286 563 1
286 612 1
287 121 1
287 162 1
287 194 1
287 225 1
287 266 1
287 298 1
287 540 1
287 564 1
287 596 1
288 122 1
288 163 1
288 195 1
288 226 1
288 267 1
288 299 1
288 541 1
288 565 1
288 597 1
289 123 1
289 164 1
289 196 1
289 227 1
289 268 1
289 300 1
289 542 1
289 566 1
289 598 1
290 140 1
290 181 1
290 197 1
290 244 1
290 285 1
290 301 1
290 559 1
290 583 1
290 599 1
291 141 1
291 182 1
291 198 1
291 245 1
291 286 1
291 302 1
291 560 1
291 584 1
291 600 1
292 142 1
292 183 1
292 199 1
292 246 1
292 287 1
292 303 1
292 561 1
292 585 1
292 601 1
293 143 1
293 184 1
293 200 1
293 247 1
293 288 1
293 304 1
293 545 1
293 586 1
293 602 1
294 144 1
294 185 1
294 201 1
294 248 1
294 289 1
294 305 1
294 546 1
294 587 1
294 603 1
295 145 1
295 186 1
295 202 1
295 249 1
295 273 1
295 306 1
295 547 1
295 588 1
295 604 1
296 146 1
296 187 1
296 203 1
296 250 1
296 274 1
296 290 1
296 548 1
296 589 1
296 605 1
297 147 1
297 171 1
297 204 1
297 251 1
297 275 1
297 291 1
297 549 1
297 590 1
297 606 1
298 148 1
298 172 1
298 188 1
298 252 1
298 276 1
298 292 1
298 550 1
298 591 1
298 607 1
299 149 1
299 173 1
299 189 1
299 253 1
299 277 1
299 293 1
299 551 1
299 592 1
299 608 1
300 150 1
300 174 1
300 190 1
300 254 1
300 278 1
300 294 1
300 552 1
300 593 1
300 609 1
301 151 1
301 175 1
301 191 1
301 255 1
301 279 1
301 295 1
301 553 1
301 594 1
301 610 1
302 152 1
302 176 1
302 192 1
302 239 1
302 280 1
302 296 1
302 554 1
302 595 1
302 611 1
303 153 1
303 177 1
303 193 1
303 240 1
303 281 1
303 297 1
303 555 1
303 579 1
303 612 1
304 137 1
304 178 1
304 194 1
304 241 1
304 282 1
304 298 1
304 556 1
304 580 1
304 596 1
305 138 1
305 179 1
305 195 1
305 242 1
305 283 1
305 299 1
305 557 1
305 581 1
305 597 1
306 139 1
306 180 1
306 196 1
306 243 1
306 284 1
306 300 1
306 558 1
306 582 1
306 598 1
