%%MatrixMarket matrix coordinate integer general
36 72 144
1 1 1
1 19 1
1 37 1
1 55 1
2 2 1
2 20 1
2 38 1
2 56 1
3 3 1
3 21 1
3 39 1
3 57 1
4 4 1
4 22 1
4 40 1
4 58 1
5 5 1
5 23 1
5 41 1
5 59 1
6 6 1
6 24 1
6 42 1
6 60 1
7 7 1
7 25 1
7 43 1
7 61 1
8 8 1
8 26 1
8 44 1
8 62 1
9 9 1
9 27 1
9 45 1
9 63 1
10 10 1
10 28 1
10 46 1
10 64 1
11 11 1
11 29 1
11 47 1
11 65 1
12 12 1
12 30 1
12 48 1
12 66 1
13 13 1
13 31 1
13 49 1
13 67 1
14 14 1
14 32 1
14 50 1
14 68 1
15 15 1
15 33 1
15 51 1
15 69 1
16 16 1
16 34 1
16 52 1
16 70 1
17 17 1
17 35 1
17 53 1
17 71 1
18 18 1
18 36 1
18 54 1
18 72 1
19 1 1
19 33 1
19 38 1
19 70 1
20 2 1
20 34 1
20 39 1
20 71 1
21 3 1
21 35 1
21 40 1
21 72 1
22 4 1
22 36 1
22 41 1
22 55 1
23 5 1
23 19 1
23 42 1
23 56 1
24 6 1
24 20 1
24 43 1
24 57 1
25 7 1
25 21 1
25 44 1
25 58 1
26 8 1
26 22 1
26 45 1
26 59 1
27 9 1
27 23 1
27 46 1
27 60 1
28 10 1
28 24 1
28 47 1
28 61 1
29 11 1
29 25 1
29 48 1
29 62 1
30 12 1
30 26 1
30 49 1
30 63 1
31 13 1
31 27 1
31 50 1
31 64 1
32 14 1
32 28 1
32 51 1
32 65 1
33 15 1
33 29 1
33 52 1
33 66 1
34 16 1
34 30 1
34 53 1
34 67 1
35 17 1
35 31 1
35 54 1
35 68 1
36 18 1
36 32 1
36 37 1
36 69 1
