%%MatrixMarket matrix coordinate integer general
324 648 2916
1 1 1
1 40 1
1 82 1
1 325 1
1 364 1
1 406 1
1 433 1
1 472 1
1 514 1
2 2 1
2 42 1
2 79 1
2 326 1
2 366 1
2 403 1
2 434 1
2 474 1
2 511 1
3 3 1
3 44 1
3 77 1
3 327 1
3 368 1
3 401 1
3 435 1
3 476 1
3 509 1
4 4 1
4 45 1
4 90 1
4 328 1
4 369 1
4 414 1
4 436 1
4 477 1
4 522 1
5 5 1
5 47 1
5 75 1
5 329 1
5 371 1
5 399 1
5 437 1
5 479 1
5 507 1
6 6 1
6 48 1
6 89 1
6 330 1
6 372 1
6 413 1
6 438 1
6 480 1
6 521 1
7 7 1
7 49 1
7 74 1
7 331 1
7 373 1
7 398 1
7 439 1
7 481 1
7 506 1
8 8 1
8 50 1
8 88 1
8 332 1
8 374 1
8 412 1
8 440 1
8 482 1
8 520 1
9 9 1
9 37 1
9 87 1
9 333 1
9 361 1
9 411 1
9 441 1
9 469 1
9 519 1
10 10 1
10 51 1
10 73 1
10 334 1
10 375 1
10 397 1
10 442 1
10 483 1
10 505 1
11 11 1
11 52 1
11 86 1
11 335 1
11 376 1
11 410 1
11 443 1
11 484 1
11 518 1
12 12 1
12 38 1
12 85 1
12 336 1
12 362 1
12 409 1
12 444 1
12 470 1
12 517 1
13 13 1
13 53 1
13 84 1
13 337 1
13 377 1
13 408 1
13 445 1
13 485 1
13 516 1
14 14 1
14 39 1
14 83 1
14 338 1
14 363 1
14 407 1
14 446 1
14 471 1
14 515 1
15 15 1
15 54 1
15 81 1
15 339 1
15 378 1
15 405 1
15 447 1
15 486 1
15 513 1
16 16 1
16 41 1
16 80 1
16 340 1
16 365 1
16 404 1
16 448 1
16 473 1
16 512 1
17 17 1
17 43 1
17 78 1
17 341 1
17 367 1
17 402 1
17 449 1
17 475 1
17 510 1
18 18 1
18 46 1
18 76 1
18 342 1
18 370 1
18 400 1
18 450 1
18 478 1
18 508 1
19 1 1
19 58 1
19 98 1
19 325 1
19 382 1
19 422 1
19 433 1
19 490 1
19 530 1
20 2 1
20 60 1
20 101 1
20 326 1
20 384 1
20 425 1
20 434 1
20 492 1
20 533 1
21 3 1
21 62 1
21 103 1
21 327 1
21 386 1
21 427 1
21 435 1
21 494 1
21 535 1
22 4 1
22 63 1
22 104 1
22 328 1
22 387 1
22 428 1
22 436 1
22 495 1
22 536 1
23 5 1
23 65 1
23 105 1
23 329 1
23 389 1
23 429 1
23 437 1
23 497 1
23 537 1
24 6 1
24 66 1
24 106 1
24 330 1
24 390 1
24 430 1
24 438 1
24 498 1
24 538 1
25 7 1
25 67 1
25 99 1
25 331 1
25 391 1
25 423 1
25 439 1
25 499 1
25 531 1
26 8 1
26 68 1
26 107 1
26 332 1
26 392 1
26 431 1
26 440 1
26 500 1
26 539 1
27 9 1
27 55 1
27 93 1
27 333 1
27 379 1
27 417 1
27 441 1
27 487 1
27 525 1
28 10 1
28 69 1
28 102 1
28 334 1
28 393 1
28 426 1
28 442 1
28 501 1
28 534 1
29 11 1
29 70 1
29 108 1
29 335 1
29 394 1
29 432 1
29 443 1
29 502 1
29 540 1
30 12 1
30 56 1
30 95 1
30 336 1
30 380 1
30 419 1
30 444 1
30 488 1
30 527 1
31 13 1
31 71 1
31 91 1
31 337 1
31 395 1
31 415 1
31 445 1
31 503 1
31 523 1
32 14 1
32 57 1
32 97 1
32 338 1
32 381 1
32 421 1
32 446 1
32 489 1
32 529 1
33 15 1
33 72 1
33 92 1
33 339 1
33 396 1
33 416 1
33 447 1
33 504 1
33 524 1
34 16 1
34 59 1
34 100 1
34 340 1
34 383 1
34 424 1
34 448 1
34 491 1
34 532 1
35 17 1
35 61 1
35 94 1
35 341 1
35 385 1
35 418 1
35 449 1
35 493 1
35 526 1
36 18 1
36 64 1
36 96 1
36 342 1
36 388 1
36 420 1
36 450 1
36 496 1
36 528 1
37 32 1
37 40 1
37 98 1
37 356 1
37 364 1
37 422 1
37 464 1
37 472 1
37 530 1
38 34 1
38 42 1
38 101 1
38 358 1
38 366 1
38 425 1
38 466 1
38 474 1
38 533 1
39 35 1
39 44 1
39 103 1
39 359 1
39 368 1
39 427 1
39 467 1
39 476 1
39 535 1
40 21 1
40 45 1
40 104 1
40 345 1
40 369 1
40 428 1
40 453 1
40 477 1
40 536 1
41 36 1
41 47 1
41 105 1
41 360 1
41 371 1
41 429 1
41 468 1
41 479 1
41 537 1
42 23 1
42 48 1
42 106 1
42 347 1
42 372 1
42 430 1
42 455 1
42 480 1
42 538 1
43 19 1
43 49 1
43 99 1
43 343 1
43 373 1
43 423 1
43 451 1
43 481 1
43 531 1
44 25 1
44 50 1
44 107 1
44 349 1
44 374 1
44 431 1
44 457 1
44 482 1
44 539 1
45 26 1
45 37 1
45 93 1
45 350 1
45 361 1
45 417 1
45 458 1
45 469 1
45 525 1
46 20 1
46 51 1
46 102 1
46 344 1
46 375 1
46 426 1
46 452 1
46 483 1
46 534 1
47 28 1
47 52 1
47 108 1
47 352 1
47 376 1
47 432 1
47 460 1
47 484 1
47 540 1
48 29 1
48 38 1
48 95 1
48 353 1
48 362 1
48 419 1
48 461 1
48 470 1
48 527 1
49 22 1
49 53 1
49 91 1
49 346 1
49 377 1
49 415 1
49 454 1
49 485 1
49 523 1
50 31 1
50 39 1
50 97 1
50 355 1
50 363 1
50 421 1
50 463 1
50 471 1
50 529 1
51 24 1
51 54 1
51 92 1
51 348 1
51 378 1
51 416 1
51 456 1
51 486 1
51 524 1
52 33 1
52 41 1
52 100 1
52 357 1
52 365 1
52 424 1
52 465 1
52 473 1
52 532 1
53 27 1
53 43 1
53 94 1
53 351 1
53 367 1
53 418 1
53 459 1
53 475 1
53 526 1
54 30 1
54 46 1
54 96 1
54 354 1
54 370 1
54 420 1
54 462 1
54 478 1
54 528 1
55 109 1
55 148 1
55 190 1
55 325 1
55 364 1
55 406 1
55 541 1
55 580 1
55 622 1
56 110 1
56 150 1
56 187 1
56 326 1
56 366 1
56 403 1
56 542 1
56 582 1
56 619 1
57 111 1
57 152 1
57 185 1
57 327 1
57 368 1
57 401 1
57 543 1
57 584 1
57 617 1
58 112 1
58 153 1
58 198 1
58 328 1
58 369 1
58 414 1
58 544 1
58 585 1
58 630 1
59 113 1
59 155 1
59 183 1
59 329 1
59 371 1
59 399 1
59 545 1
59 587 1
59 615 1
60 114 1
60 156 1
60 197 1
60 330 1
60 372 1
60 413 1
60 546 1
60 588 1
60 629 1
61 115 1
61 157 1
61 182 1
61 331 1
61 373 1
61 398 1
61 547 1
61 589 1
61 614 1
62 116 1
62 158 1
62 196 1
62 332 1
62 374 1
62 412 1
62 548 1
62 590 1
62 628 1
63 117 1
63 145 1
63 195 1
63 333 1
63 361 1
63 411 1
63 549 1
63 577 1
63 627 1
64 118 1
64 159 1
64 181 1
64 334 1
64 375 1
64 397 1
64 550 1
64 591 1
64 613 1
65 119 1
65 160 1
65 194 1
65 335 1
65 376 1
65 410 1
65 551 1
65 592 1
65 626 1
66 120 1
66 146 1
66 193 1
66 336 1
66 362 1
66 409 1
66 552 1
66 578 1
66 625 1
67 121 1
67 161 1
67 192 1
67 337 1
67 377 1
67 408 1
67 553 1
67 593 1
67 624 1
68 122 1
68 147 1
68 191 1
68 338 1
68 363 1
68 407 1
68 554 1
68 579 1
68 623 1
69 123 1
69 162 1
69 189 1
69 339 1
69 378 1
69 405 1
69 555 1
69 594 1
69 621 1
70 124 1
70 149 1
70 188 1
70 340 1
70 365 1
70 404 1
70 556 1
70 581 1
70 620 1
71 125 1
71 151 1
71 186 1
71 341 1
71 367 1
71 402 1
71 557 1
71 583 1
71 618 1
72 126 1
72 154 1
72 184 1
72 342 1
72 370 1
72 400 1
72 558 1
72 586 1
72 616 1
73 109 1
73 166 1
73 206 1
73 325 1
73 382 1
73 422 1
73 541 1
73 598 1
73 638 1
74 110 1
74 168 1
74 209 1
74 326 1
74 384 1
74 425 1
74 542 1
74 600 1
74 641 1
75 111 1
75 170 1
75 211 1
75 327 1
75 386 1
75 427 1
75 543 1
75 602 1
75 643 1
76 112 1
76 171 1
76 212 1
76 328 1
76 387 1
76 428 1
76 544 1
76 603 1
76 644 1
77 113 1
77 173 1
77 213 1
77 329 1
77 389 1
77 429 1
77 545 1
77 605 1
77 645 1
78 114 1
78 174 1
78 214 1
78 330 1
78 390 1
78 430 1
78 546 1
78 606 1
78 646 1
79 115 1
79 175 1
79 207 1
79 331 1
79 391 1
79 423 1
79 547 1
79 607 1
79 639 1
80 116 1
80 176 1
80 215 1
80 332 1
80 392 1
80 431 1
80 548 1
80 608 1
80 647 1
81 117 1
81 163 1
81 201 1
81 333 1
81 379 1
81 417 1
81 549 1
81 595 1
81 633 1
82 118 1
82 177 1
82 210 1
82 334 1
82 393 1
82 426 1
82 550 1
82 609 1
82 642 1
83 119 1
83 178 1
83 216 1
83 335 1
83 394 1
83 432 1
83 551 1
83 610 1
83 648 1
84 120 1
84 164 1
84 203 1
84 336 1
84 380 1
84 419 1
84 552 1
84 596 1
84 635 1
85 121 1
85 179 1
85 199 1
85 337 1
85 395 1
85 415 1
85 553 1
85 611 1
85 631 1
86 122 1
86 165 1
86 205 1
86 338 1
86 381 1
86 421 1
86 554 1
86 597 1
86 637 1
87 123 1
87 180 1
87 200 1
87 339 1
87 396 1
87 416 1
87 555 1
87 612 1
87 632 1
88 124 1
88 167 1
88 208 1
88 340 1
88 383 1
88 424 1
88 556 1
88 599 1
88 640 1
89 125 1
89 169 1
89 202 1
89 341 1
89 385 1
89 418 1
89 557 1
89 601 1
89 634 1
90 126 1
90 172 1
90 204 1
90 342 1
90 388 1
90 420 1
90 558 1
90 604 1
90 636 1
91 140 1
91 148 1
91 206 1
91 356 1
91 364 1
91 422 1
91 572 1
91 580 1
91 638 1
92 142 1
92 150 1
92 209 1
92 358 1
92 366 1
92 425 1
92 574 1
92 582 1
92 641 1
93 143 1
93 152 1
93 211 1
93 359 1
93 368 1
93 427 1
93 575 1
93 584 1
93 643 1
94 129 1
94 153 1
94 212 1
94 345 1
94 369 1
94 428 1
94 561 1
94 585 1
94 644 1
95 144 1
95 155 1
95 213 1
95 360 1
95 371 1
95 429 1
95 576 1
95 587 1
95 645 1
96 131 1
96 156 1
96 214 1
96 347 1
96 372 1
96 430 1
96 563 1
96 588 1
96 646 1
97 127 1
97 157 1
97 207 1
97 343 1
97 373 1
97 423 1
97 559 1
97 589 1
97 639 1
98 133 1
98 158 1
98 215 1
98 349 1
98 374 1
98 431 1
98 565 1
98 590 1
98 647 1
99 134 1
99 145 1
99 201 1
99 350 1
99 361 1
99 417 1
99 566 1
99 577 1
99 633 1
100 128 1
100 159 1
100 210 1
100 344 1
100 375 1
100 426 1
100 560 1
100 591 1
100 642 1
101 136 1
101 160 1
101 216 1
101 352 1
101 376 1
101 432 1
101 568 1
101 592 1
101 648 1
102 137 1
102 146 1
102 203 1
102 353 1
102 362 1
102 419 1
102 569 1
102 578 1
102 635 1
103 130 1
103 161 1
103 199 1
103 346 1
103 377 1
103 415 1
103 562 1
103 593 1
103 631 1
104 139 1
104 147 1
104 205 1
104 355 1
104 363 1
104 421 1
104 571 1
104 579 1
104 637 1
105 132 1
105 162 1
105 200 1
105 348 1
105 378 1
105 416 1
105 564 1
105 594 1
105 632 1
106 141 1
106 149 1
106 208 1
106 357 1
106 365 1
106 424 1
106 573 1
106 581 1
106 640 1
107 135 1
107 151 1
107 202 1
107 351 1
107 367 1
107 418 1
107 567 1
107 583 1
107 634 1
108 138 1
108 154 1
108 204 1
108 354 1
108 370 1
108 420 1
108 570 1
108 586 1
108 636 1
109 217 1
109 256 1
109 298 1
109 433 1
109 472 1
109 514 1
109 541 1
109 580 1
109 622 1
110 218 1
110 258 1
110 295 1
110 434 1
110 474 1
110 511 1
110 542 1
110 582 1
110 619 1
111 219 1
111 260 1
111 293 1
111 435 1
111 476 1
111 509 1
111 543 1
111 584 1
111 617 1
112 220 1
112 261 1
112 306 1
112 436 1
112 477 1
112 522 1
112 544 1
112 585 1
112 630 1
113 221 1
113 263 1
113 291 1
113 437 1
113 479 1
113 507 1
113 545 1
113 587 1
113 615 1
114 222 1
114 264 1
114 305 1
114 438 1
114 480 1
114 521 1
114 546 1
114 588 1
114 629 1
115 223 1
115 265 1
115 290 1
115 439 1
115 481 1
115 506 1
115 547 1
115 589 1
115 614 1
116 224 1
116 266 1
116 304 1
116 440 1
116 482 1
116 520 1
116 548 1
116 590 1
116 628 1
117 225 1
117 253 1
117 303 1
117 441 1
117 469 1
117 519 1
117 549 1
117 577 1
117 627 1
118 226 1
118 267 1
118 289 1
118 442 1
118 483 1
118 505 1
118 550 1
118 591 1
118 613 1
119 227 1
119 268 1
119 302 1
119 443 1
119 484 1
119 518 1
119 551 1
119 592 1
119 626 1
120 228 1
120 254 1
120 301 1
120 444 1
120 470 1
120 517 1
120 552 1
120 578 1
120 625 1
121 229 1
121 269 1
121 300 1
121 445 1
121 485 1
121 516 1
121 553 1
121 593 1
121 624 1
122 230 1
122 255 1
122 299 1
122 446 1
122 471 1
122 515 1
122 554 1
122 579 1
122 623 1
123 231 1
123 270 1
123 297 1
123 447 1
123 486 1
123 513 1
123 555 1
123 594 1
123 621 1
124 232 1
124 257 1
124 296 1
124 448 1
124 473 1
124 512 1
124 556 1
124 581 1
124 620 1
125 233 1
125 259 1
125 294 1
125 449 1
125 475 1
125 510 1
125 557 1
125 583 1
125 618 1
126 234 1
126 262 1
126 292 1
126 450 1
126 478 1
126 508 1
126 558 1
126 586 1
126 616 1
127 217 1
127 274 1
127 314 1
127 433 1
127 490 1
127 530 1
127 541 1
127 598 1
127 638 1
128 218 1
128 276 1
128 317 1
128 434 1
128 492 1
128 533 1
128 542 1
128 600 1
128 641 1
129 219 1
129 278 1
129 319 1
129 435 1
129 494 1
129 535 1
129 543 1
129 602 1
129 643 1
130 220 1
130 279 1
130 320 1
130 436 1
130 495 1
130 536 1
130 544 1
130 603 1
130 644 1
131 221 1
131 281 1
131 321 1
131 437 1
131 497 1
131 537 1
131 545 1
131 605 1
131 645 1
132 222 1
132 282 1
132 322 1
132 438 1
132 498 1
132 538 1
132 546 1
132 606 1
132 646 1
133 223 1
133 283 1
133 315 1
133 439 1
133 499 1
133 531 1
133 547 1
133 607 1
133 639 1
134 224 1
134 284 1
134 323 1
134 440 1
134 500 1
134 539 1
134 548 1
134 608 1
134 647 1
135 225 1
135 271 1
135 309 1
135 441 1
135 487 1
135 525 1
135 549 1
135 595 1
135 633 1
136 226 1
136 285 1
136 318 1
136 442 1
136 501 1
136 534 1
136 550 1
136 609 1
136 642 1
137 227 1
137 286 1
137 324 1
137 443 1
137 502 1
137 540 1
137 551 1
137 610 1
137 648 1
138 228 1
138 272 1
138 311 1
138 444 1
138 488 1
138 527 1
138 552 1
138 596 1
138 635 1
139 229 1
139 287 1
139 307 1
139 445 1
139 503 1
139 523 1
139 553 1
139 611 1
139 631 1
140 230 1
140 273 1
140 313 1
140 446 1
140 489 1
140 529 1
140 554 1
140 597 1
140 637 1
141 231 1
141 288 1
141 308 1
141 447 1
141 504 1
141 524 1
141 555 1
141 612 1
141 632 1
142 232 1
142 275 1
142 316 1
142 448 1
142 491 1
142 532 1
142 556 1
142 599 1
142 640 1
143 233 1
143 277 1
143 310 1
143 449 1
143 493 1
143 526 1
143 557 1
143 601 1
143 634 1
144 234 1
144 280 1
144 312 1
144 450 1
144 496 1
144 528 1
144 558 1
144 604 1
144 636 1
145 248 1
145 256 1
145 314 1
145 464 1
145 472 1
145 530 1
145 572 1
145 580 1
145 638 1
146 250 1
146 258 1
146 317 1
146 466 1
146 474 1
146 533 1
146 574 1
146 582 1
146 641 1
147 251 1
147 260 1
147 319 1
147 467 1
147 476 1
147 535 1
147 575 1
147 584 1
147 643 1
148 237 1
148 261 1
148 320 1
148 453 1
148 477 1
148 536 1
148 561 1
148 585 1
148 644 1
149 252 1
149 263 1
149 321 1
149 468 1
149 479 1
149 537 1
149 576 1
149 587 1
149 645 1
150 239 1
150 264 1
150 322 1
150 455 1
150 480 1
150 538 1
150 563 1
150 588 1
150 646 1
151 235 1
151 265 1
151 315 1
151 451 1
151 481 1
151 531 1
151 559 1
151 589 1
151 639 1
152 241 1
152 266 1
152 323 1
152 457 1
152 482 1
152 539 1
152 565 1
152 590 1
152 647 1
153 242 1
153 253 1
153 309 1
153 458 1
153 469 1
153 525 1
153 566 1
153 577 1
153 633 1
154 236 1
154 267 1
154 318 1
154 452 1
154 483 1
154 534 1
154 560 1
154 591 1
154 642 1
155 244 1
155 268 1
155 324 1
155 460 1
155 484 1
155 540 1
155 568 1
155 592 1
155 648 1
156 245 1
156 254 1
156 311 1
156 461 1
156 470 1
156 527 1
156 569 1
156 578 1
156 635 1
157 238 1
157 269 1
157 307 1
157 454 1
157 485 1
157 523 1
157 562 1
157 593 1
157 631 1
158 247 1
158 255 1
158 313 1
158 463 1
158 471 1
158 529 1
158 571 1
158 579 1
158 637 1
159 240 1
159 270 1
159 308 1
159 456 1
159 486 1
159 524 1
159 564 1
159 594 1
159 632 1
160 249 1
160 257 1
160 316 1
160 465 1
160 473 1
160 532 1
160 573 1
160 581 1
160 640 1
161 243 1
161 259 1
161 310 1
161 459 1
161 475 1
161 526 1
161 567 1
161 583 1
161 634 1
162 246 1
162 262 1
162 312 1
162 462 1
162 478 1
162 528 1
162 570 1
162 586 1
162 636 1
163 1 1
163 19 1
163 55 1
163 329 1
163 347 1
163 383 1
163 445 1
163 463 1
163 499 1
164 2 1
164 20 1
164 56 1
164 341 1
164 359 1
164 395 1
164 443 1
164 461 1
164 497 1
165 3 1
165 21 1
165 57 1
165 334 1
165 352 1
165 388 1
165 441 1
165 459 1
165 495 1
166 4 1
166 22 1
166 58 1
166 335 1
166 353 1
166 389 1
166 449 1
166 467 1
166 503 1
167 5 1
167 23 1
167 59 1
167 325 1
167 343 1
167 379 1
167 447 1
167 465 1
167 501 1
168 6 1
168 24 1
168 60 1
168 331 1
168 349 1
168 385 1
168 448 1
168 466 1
168 502 1
169 7 1
169 25 1
169 61 1
169 330 1
169 348 1
169 384 1
169 446 1
169 464 1
169 500 1
170 8 1
170 26 1
170 62 1
170 339 1
170 357 1
170 393 1
170 433 1
170 451 1
170 487 1
171 9 1
171 27 1
171 63 1
171 340 1
171 358 1
171 394 1
171 439 1
171 457 1
171 493 1
172 10 1
172 28 1
172 64 1
172 327 1
172 345 1
172 381 1
172 444 1
172 462 1
172 498 1
173 11 1
173 29 1
173 65 1
173 328 1
173 346 1
173 382 1
173 450 1
173 468 1
173 504 1
174 12 1
174 30 1
174 66 1
174 337 1
174 355 1
174 391 1
174 437 1
174 455 1
174 491 1
175 13 1
175 31 1
175 67 1
175 336 1
175 354 1
175 390 1
175 435 1
175 453 1
175 489 1
176 14 1
176 32 1
176 68 1
176 342 1
176 360 1
176 396 1
176 436 1
176 454 1
176 490 1
177 15 1
177 33 1
177 69 1
177 332 1
177 350 1
177 386 1
177 434 1
177 452 1
177 488 1
178 16 1
178 34 1
178 70 1
178 333 1
178 351 1
178 387 1
178 442 1
178 460 1
178 496 1
179 17 1
179 35 1
179 71 1
179 326 1
179 344 1
179 380 1
179 440 1
179 458 1
179 494 1
180 18 1
180 36 1
180 72 1
180 338 1
180 356 1
180 392 1
180 438 1
180 456 1
180 492 1
181 1 1
181 37 1
181 73 1
181 329 1
181 365 1
181 401 1
181 445 1
181 481 1
181 517 1
182 2 1
182 38 1
182 74 1
182 341 1
182 377 1
182 413 1
182 443 1
182 479 1
182 515 1
183 3 1
183 39 1
183 75 1
183 334 1
183 370 1
183 406 1
183 441 1
183 477 1
183 513 1
184 4 1
184 40 1
184 76 1
184 335 1
184 371 1
184 407 1
184 449 1
184 485 1
184 521 1
185 5 1
185 41 1
185 77 1
185 325 1
185 361 1
185 397 1
185 447 1
185 483 1
185 519 1
186 6 1
186 42 1
186 78 1
186 331 1
186 367 1
186 403 1
186 448 1
186 484 1
186 520 1
187 7 1
187 43 1
187 79 1
187 330 1
187 366 1
187 402 1
187 446 1
187 482 1
187 518 1
188 8 1
188 44 1
188 80 1
188 339 1
188 375 1
188 411 1
188 433 1
188 469 1
188 505 1
189 9 1
189 45 1
189 81 1
189 340 1
189 376 1
189 412 1
189 439 1
189 475 1
189 511 1
190 10 1
190 46 1
190 82 1
190 327 1
190 363 1
190 399 1
190 444 1
190 480 1
190 516 1
191 11 1
191 47 1
191 83 1
191 328 1
191 364 1
191 400 1
191 450 1
191 486 1
191 522 1
192 12 1
192 48 1
192 84 1
192 337 1
192 373 1
192 409 1
192 437 1
192 473 1
192 509 1
193 13 1
193 49 1
193 85 1
193 336 1
193 372 1
193 408 1
193 435 1
193 471 1
193 507 1
194 14 1
194 50 1
194 86 1
194 342 1
194 378 1
194 414 1
194 436 1
194 472 1
194 508 1
195 15 1
195 51 1
195 87 1
195 332 1
195 368 1
195 404 1
195 434 1
195 470 1
195 506 1
196 16 1
196 52 1
196 88 1
196 333 1
196 369 1
196 405 1
196 442 1
196 478 1
196 514 1
197 17 1
197 53 1
197 89 1
197 326 1
197 362 1
197 398 1
197 440 1
197 476 1
197 512 1
198 18 1
198 54 1
198 90 1
198 338 1
198 374 1
198 410 1
198 438 1
198 474 1
198 510 1
199 19 1
199 37 1
199 91 1
199 347 1
199 365 1
199 419 1
199 463 1
199 481 1
199 535 1
200 20 1
200 38 1
200 92 1
200 359 1
200 377 1
200 431 1
200 461 1
200 479 1
200 533 1
201 21 1
201 39 1
201 93 1
201 352 1
201 370 1
201 424 1
201 459 1
201 477 1
201 531 1
202 22 1
202 40 1
202 94 1
202 353 1
202 371 1
202 425 1
202 467 1
202 485 1
202 539 1
203 23 1
203 41 1
203 95 1
203 343 1
203 361 1
203 415 1
203 465 1
203 483 1
203 537 1
204 24 1
204 42 1
204 96 1
204 349 1
204 367 1
204 421 1
204 466 1
204 484 1
204 538 1
205 25 1
205 43 1
205 97 1
205 348 1
205 366 1
205 420 1
205 464 1
205 482 1
205 536 1
206 26 1
206 44 1
206 98 1
206 357 1
206 375 1
206 429 1
206 451 1
206 469 1
206 523 1
207 27 1
207 45 1
207 99 1
207 358 1
207 376 1
207 430 1
207 457 1
207 475 1
207 529 1
208 28 1
208 46 1
208 100 1
208 345 1
208 363 1
208 417 1
208 462 1
208 480 1
208 534 1
209 29 1
209 47 1
209 101 1
209 346 1
209 364 1
209 418 1
209 468 1
209 486 1
209 540 1
210 30 1
210 48 1
210 102 1
210 355 1
210 373 1
210 427 1
210 455 1
210 473 1
210 527 1
211 31 1
211 49 1
211 103 1
211 354 1
211 372 1
211 426 1
211 453 1
211 471 1
211 525 1
212 32 1
212 50 1
212 104 1
212 360 1
212 378 1
212 432 1
212 454 1
212 472 1
212 526 1
213 33 1
213 51 1
213 105 1
213 350 1
213 368 1
213 422 1
213 452 1
213 470 1
213 524 1
214 34 1
214 52 1
214 106 1
214 351 1
214 369 1
214 423 1
214 460 1
214 478 1
214 532 1
215 35 1
215 53 1
215 107 1
215 344 1
215 362 1
215 416 1
215 458 1
215 476 1
215 530 1
216 36 1
216 54 1
216 108 1
216 356 1
216 374 1
216 428 1
216 456 1
216 474 1
216 528 1
217 111 1
217 129 1
217 165 1
217 329 1
217 347 1
217 383 1
217 557 1
217 575 1
217 611 1
218 126 1
218 144 1
218 180 1
218 341 1
218 359 1
218 395 1
218 545 1
218 563 1
218 599 1
219 115 1
219 133 1
219 169 1
219 334 1
219 352 1
219 388 1
219 541 1
219 559 1
219 595 1
220 116 1
220 134 1
220 170 1
220 335 1
220 353 1
220 389 1
220 547 1
220 565 1
220 601 1
221 110 1
221 128 1
221 164 1
221 325 1
221 343 1
221 379 1
221 550 1
221 568 1
221 604 1
222 118 1
222 136 1
222 172 1
222 331 1
222 349 1
222 385 1
222 551 1
222 569 1
222 605 1
223 112 1
223 130 1
223 166 1
223 330 1
223 348 1
223 384 1
223 543 1
223 561 1
223 597 1
224 121 1
224 139 1
224 175 1
224 339 1
224 357 1
224 393 1
224 544 1
224 562 1
224 598 1
225 122 1
225 140 1
225 176 1
225 340 1
225 358 1
225 394 1
225 553 1
225 571 1
225 607 1
226 113 1
226 131 1
226 167 1
226 327 1
226 345 1
226 381 1
226 546 1
226 564 1
226 600 1
227 114 1
227 132 1
227 168 1
227 328 1
227 346 1
227 382 1
227 555 1
227 573 1
227 609 1
228 123 1
228 141 1
228 177 1
228 337 1
228 355 1
228 391 1
228 556 1
228 574 1
228 610 1
229 117 1
229 135 1
229 171 1
229 336 1
229 354 1
229 390 1
229 548 1
229 566 1
229 602 1
230 125 1
230 143 1
230 179 1
230 342 1
230 360 1
230 396 1
230 549 1
230 567 1
230 603 1
231 119 1
231 137 1
231 173 1
231 332 1
231 350 1
231 386 1
231 552 1
231 570 1
231 606 1
232 120 1
232 138 1
232 174 1
232 333 1
232 351 1
232 387 1
232 558 1
232 576 1
232 612 1
233 109 1
233 127 1
233 163 1
233 326 1
233 344 1
233 380 1
233 554 1
233 572 1
233 608 1
234 124 1
234 142 1
234 178 1
234 338 1
234 356 1
234 392 1
234 542 1
234 560 1
234 596 1
235 111 1
235 147 1
235 183 1
235 329 1
235 365 1
235 401 1
235 557 1
235 593 1
235 629 1
236 126 1
236 162 1
236 198 1
236 341 1
236 377 1
236 413 1
236 545 1
236 581 1
236 617 1
237 115 1
237 151 1
237 187 1
237 334 1
237 370 1
237 406 1
237 541 1
237 577 1
237 613 1
238 116 1
238 152 1
238 188 1
238 335 1
238 371 1
238 407 1
238 547 1
238 583 1
238 619 1
239 110 1
239 146 1
239 182 1
239 325 1
239 361 1
239 397 1
239 550 1
239 586 1
239 622 1
240 118 1
240 154 1
240 190 1
240 331 1
240 367 1
240 403 1
240 551 1
240 587 1
240 623 1
241 112 1
241 148 1
241 184 1
241 330 1
241 366 1
241 402 1
241 543 1
241 579 1
241 615 1
242 121 1
242 157 1
242 193 1
242 339 1
242 375 1
242 411 1
242 544 1
242 580 1
242 616 1
243 122 1
243 158 1
243 194 1
243 340 1
243 376 1
243 412 1
243 553 1
243 589 1
243 625 1
244 113 1
244 149 1
244 185 1
244 327 1
244 363 1
244 399 1
244 546 1
244 582 1
244 618 1
245 114 1
245 150 1
245 186 1
245 328 1
245 364 1
245 400 1
245 555 1
245 591 1
245 627 1
246 123 1
246 159 1
246 195 1
246 337 1
246 373 1
246 409 1
246 556 1
246 592 1
246 628 1
247 117 1
247 153 1
247 189 1
247 336 1
247 372 1
247 408 1
247 548 1
247 584 1
247 620 1
248 125 1
248 161 1
248 197 1
248 342 1
248 378 1
248 414 1
248 549 1
248 585 1
248 621 1
249 119 1
249 155 1
249 191 1
249 332 1
249 368 1
249 404 1
249 552 1
249 588 1
249 624 1
250 120 1
250 156 1
250 192 1
250 333 1
250 369 1
250 405 1
250 558 1
250 594 1
250 630 1
251 109 1
251 145 1
251 181 1
251 326 1
251 362 1
251 398 1
251 554 1
251 590 1
251 626 1
252 124 1
252 160 1
252 196 1
252 338 1
252 374 1
252 410 1
252 542 1
252 578 1
252 614 1
253 129 1
253 147 1
253 201 1
253 347 1
253 365 1
253 419 1
253 575 1
253 593 1
253 647 1
254 144 1
254 162 1
254 216 1
254 359 1
254 377 1
254 431 1
254 563 1
254 581 1
254 635 1
255 133 1
255 151 1
255 205 1
255 352 1
255 370 1
255 424 1
255 559 1
255 577 1
255 631 1
256 134 1
256 152 1
256 206 1
256 353 1
256 371 1
256 425 1
256 565 1
256 583 1
256 637 1
257 128 1
257 146 1
257 200 1
257 343 1
257 361 1
257 415 1
257 568 1
257 586 1
257 640 1
258 136 1
258 154 1
258 208 1
258 349 1
258 367 1
258 421 1
258 569 1
258 587 1
258 641 1
259 130 1
259 148 1
259 202 1
259 348 1
259 366 1
259 420 1
259 561 1
259 579 1
259 633 1
260 139 1
260 157 1
260 211 1
260 357 1
260 375 1
260 429 1
260 562 1
260 580 1
260 634 1
261 140 1
261 158 1
261 212 1
261 358 1
261 376 1
261 430 1
261 571 1
261 589 1
261 643 1
262 131 1
262 149 1
262 203 1
262 345 1
262 363 1
262 417 1
262 564 1
262 582 1
262 636 1
263 132 1
263 150 1
263 204 1
263 346 1
263 364 1
263 418 1
263 573 1
263 591 1
263 645 1
264 141 1
264 159 1
264 213 1
264 355 1
264 373 1
264 427 1
264 574 1
264 592 1
264 646 1
265 135 1
265 153 1
265 207 1
265 354 1
265 372 1
265 426 1
265 566 1
265 584 1
265 638 1
266 143 1
266 161 1
266 215 1
266 360 1
266 378 1
266 432 1
266 567 1
266 585 1
266 639 1
267 137 1
267 155 1
267 209 1
267 350 1
267 368 1
267 422 1
267 570 1
267 588 1
267 642 1
268 138 1
268 156 1
268 210 1
268 351 1
268 369 1
268 423 1
268 576 1
268 594 1
268 648 1
269 127 1
269 145 1
269 199 1
269 344 1
269 362 1
269 416 1
269 572 1
269 590 1
269 644 1
270 142 1
270 160 1
270 214 1
270 356 1
270 374 1
270 428 1
270 560 1
270 578 1
270 632 1
271 221 1
271 239 1
271 275 1
271 445 1
271 463 1
271 499 1
271 557 1
271 575 1
271 611 1
272 233 1
272 251 1
272 287 1
272 443 1
272 461 1
272 497 1
272 545 1
272 563 1
272 599 1
273 226 1
273 244 1
273 280 1
273 441 1
273 459 1
273 495 1
273 541 1
273 559 1
273 595 1
274 227 1
274 245 1
274 281 1
274 449 1
274 467 1
274 503 1
274 547 1
274 565 1
274 601 1
275 217 1
275 235 1
275 271 1
275 447 1
275 465 1
275 501 1
275 550 1
275 568 1
275 604 1
276 223 1
276 241 1
276 277 1
276 448 1
276 466 1
276 502 1
276 551 1
276 569 1
276 605 1
277 222 1
277 240 1
277 276 1
277 446 1
277 464 1
277 500 1
277 543 1
277 561 1
277 597 1
278 231 1
278 249 1
278 285 1
278 433 1
278 451 1
278 487 1
278 544 1
278 562 1
278 598 1
279 232 1
279 250 1
279 286 1
279 439 1
279 457 1
279 493 1
279 553 1
279 571 1
279 607 1
280 219 1
280 237 1
280 273 1
280 444 1
280 462 1
280 498 1
280 546 1
280 564 1
280 600 1
281 220 1
281 238 1
281 274 1
281 450 1
281 468 1
281 504 1
281 555 1
281 573 1
281 609 1
282 229 1
282 247 1
282 283 1
282 437 1
282 455 1
282 491 1
282 556 1
282 574 1
282 610 1
283 228 1
283 246 1
283 282 1
283 435 1
283 453 1
283 489 1
283 548 1
283 566 1
283 602 1
284 234 1
284 252 1
284 288 1
284 436 1
284 454 1
284 490 1
284 549 1
284 567 1
284 603 1
285 224 1
285 242 1
285 278 1
285 434 1
285 452 1
285 488 1
285 552 1
285 570 1
285 606 1
286 225 1
286 243 1
286 279 1
286 442 1
286 460 1
286 496 1
286 558 1
286 576 1
286 612 1
287 218 1
287 236 1
287 272 1
287 440 1
287 458 1
287 494 1
287 554 1
287 572 1
287 608 1
288 230 1
288 248 1
288 284 1
288 438 1
288 456 1
288 492 1
288 542 1
288 560 1
288 596 1
289 221 1
289 257 1
289 293 1
289 445 1
289 481 1
289 517 1
289 557 1
289 593 1
289 629 1
290 233 1
290 269 1
290 305 1
290 443 1
290 479 1
290 515 1
290 545 1
290 581 1
290 617 1
291 226 1
291 262 1
291 298 1
291 441 1
291 477 1
291 513 1
291 541 1
291 577 1
291 613 1
292 227 1
292 263 1
292 299 1
292 449 1
292 485 1
292 521 1
292 547 1
292 583 1
292 619 1
293 217 1
293 253 1
293 289 1
293 447 1
293 483 1
293 519 1
293 550 1
293 586 1
293 622 1
294 223 1
294 259 1
294 295 1
294 448 1
294 484 1
294 520 1
294 551 1
294 587 1
294 623 1
295 222 1
295 258 1
295 294 1
295 446 1
295 482 1
295 518 1
295 543 1
295 579 1
295 615 1
296 231 1
296 267 1
296 303 1
296 433 1
296 469 1
296 505 1
296 544 1
296 580 1
296 616 1
297 232 1
297 268 1
297 304 1
297 439 1
297 475 1
297 511 1
297 553 1
297 589 1
297 625 1
298 219 1
298 255 1
298 291 1
298 444 1
298 480 1
298 516 1
298 546 1
298 582 1
298 618 1
299 220 1
299 256 1
299 292 1
299 450 1
299 486 1
299 522 1
299 555 1
299 591 1
299 627 1
300 229 1
300 265 1
300 301 1
300 437 1
300 473 1
300 509 1
300 556 1
300 592 1
300 628 1
301 228 1
301 264 1
301 300 1
301 435 1
301 471 1
301 507 1
301 548 1
301 584 1
301 620 1
302 234 1
302 270 1
302 306 1
302 436 1
302 472 1
302 508 1
302 549 1
302 585 1
302 621 1
303 224 1
303 260 1
303 296 1
303 434 1
303 470 1
303 506 1
303 552 1
303 588 1
303 624 1
304 225 1
304 261 1
304 297 1
304 442 1
304 478 1
304 514 1
304 558 1
304 594 1
304 630 1
305 218 1
305 254 1
305 290 1
305 440 1
305 476 1
305 512 1
305 554 1
305 590 1
305 626 1
306 230 1
306 266 1
306 302 1
306 438 1
306 474 1
306 510 1
306 542 1
306 578 1
306 614 1
307 239 1
307 257 1
307 311 1
307 463 1
307 481 1
307 535 1
307 575 1
307 593 1
307 647 1
308 251 1
308 269 1
308 323 1
308 461 1
308 479 1
308 533 1
308 563 1
308 581 1
308 635 1
309 244 1
309 262 1
309 316 1
309 459 1
309 477 1
309 531 1
309 559 1
309 577 1
309 631 1
310 245 1
310 263 1
310 317 1
310 467 1
310 485 1
310 539 1
310 565 1
310 583 1
310 637 1
311 235 1
311 253 1
311 307 1
311 465 1
311 483 1
311 537 1
311 568 1
311 586 1
311 640 1
312 241 1
312 259 1
312 313 1
312 466 1
312 484 1
312 538 1
312 569 1
312 587 1
312 641 1
313 240 1
313 258 1
313 312 1
313 464 1
313 482 1
313 536 1
313 561 1
313 579 1
313 633 1
314 249 1
314 267 1
314 321 1
314 451 1
314 469 1
314 523 1
314 562 1
314 580 1
314 634 1
315 250 1
315 268 1
315 322 1
315 457 1
315 475 1
315 529 1
315 571 1
315 589 1
315 643 1
316 237 1
316 255 1
316 309 1
316 462 1
316 480 1
316 534 1
316 564 1
316 582 1
316 636 1
317 238 1
317 256 1
317 310 1
317 468 1
317 486 1
317 540 1
317 573 1
317 591 1
317 645 1
318 247 1
318 265 1
318 319 1
318 455 1
318 473 1
318 527 1
318 574 1
318 592 1
318 646 1
319 246 1
319 264 1
319 318 1
319 453 1
319 471 1
319 525 1
319 566 1
319 584 1
319 638 1
320 252 1
320 270 1
320 324 1
320 454 1
320 472 1
320 526 1
320 567 1
320 585 1
320 639 1
321 242 1
321 260 1
321 314 1
321 452 1
321 470 1
321 524 1
321 570 1
321 588 1
321 642 1
322 243 1
322 261 1
322 315 1
322 460 1
322 478 1
322 532 1
322 576 1
322 594 1
322 648 1
323 236 1
323 254 1
323 308 1
323 458 1
323 476 1
323 530 1
323 572 1
323 590 1
323 644 1
324 248 1
324 266 1
324 320 1
324 456 1
324 474 1
324 528 1
324 560 1
324 578 1
324 632 1
