%%MatrixMarket matrix coordinate integer general
198 396 1782
1 1 1
1 33 1
1 59 1
1 199 1
1 231 1
1 257 1
1 265 1
1 297 1
1 323 1
2 2 1
2 23 1
2 60 1
2 200 1
2 221 1
2 258 1
2 266 1
2 287 1
2 324 1
3 3 1
3 24 1
3 61 1
3 201 1
3 222 1
3 259 1
3 267 1
3 288 1
3 325 1
4 4 1
4 25 1
4 62 1
4 202 1
4 223 1
4 260 1
4 268 1
4 289 1
4 326 1
5 5 1
5 26 1
5 63 1
5 203 1
5 224 1
5 261 1
5 269 1
5 290 1
5 327 1
6 6 1
6 27 1
6 64 1
6 204 1
6 225 1
6 262 1
6 270 1
6 291 1
6 328 1
7 7 1
7 28 1
7 65 1
7 205 1
7 226 1
7 263 1
7 271 1
7 292 1
7 329 1
8 8 1
8 29 1
8 66 1
8 206 1
8 227 1
8 264 1
8 272 1
8 293 1
8 330 1
9 9 1
9 30 1
9 56 1
9 207 1
9 228 1
9 254 1
9 273 1
9 294 1
9 320 1
10 10 1
10 31 1
10 57 1
10 208 1
10 229 1
10 255 1
10 274 1
10 295 1
10 321 1
11 11 1
11 32 1
11 58 1
11 209 1
11 230 1
11 256 1
11 275 1
11 296 1
11 322 1
12 1 1
12 40 1
12 51 1
12 199 1
12 238 1
12 249 1
12 265 1
12 304 1
12 315 1
13 2 1
13 41 1
13 52 1
13 200 1
13 239 1
13 250 1
13 266 1
13 305 1
13 316 1
14 3 1
14 42 1
14 53 1
14 201 1
14 240 1
14 251 1
14 267 1
14 306 1
14 317 1
15 4 1
15 43 1
15 54 1
15 202 1
15 241 1
15 252 1
15 268 1
15 307 1
15 318 1
16 5 1
16 44 1
16 55 1
16 203 1
16 242 1
16 253 1
16 269 1
16 308 1
16 319 1
17 6 1
17 34 1
17 45 1
17 204 1
17 232 1
17 243 1
17 270 1
17 298 1
17 309 1
18 7 1
18 35 1
18 46 1
18 205 1
18 233 1
18 244 1
18 271 1
18 299 1
18 310 1
19 8 1
19 36 1
19 47 1
19 206 1
19 234 1
19 245 1
19 272 1
19 300 1
19 311 1
20 9 1
20 37 1
20 48 1
20 207 1
20 235 1
20 246 1
20 273 1
20 301 1
20 312 1
21 10 1
21 38 1
21 49 1
21 208 1
21 236 1
21 247 1
21 274 1
21 302 1
21 313 1
22 11 1
22 39 1
22 50 1
22 209 1
22 237 1
22 248 1
22 275 1
22 303 1
22 314 1
23 22 1
23 33 1
23 51 1
23 220 1
23 231 1
23 249 1
23 286 1
23 297 1
23 315 1
24 12 1
24 23 1
24 52 1
24 210 1
24 221 1
24 250 1
24 276 1
24 287 1
24 316 1
25 13 1
25 24 1
25 53 1
25 211 1
25 222 1
25 251 1
25 277 1
25 288 1
25 317 1
26 14 1
26 25 1
26 54 1
26 212 1
26 223 1
26 252 1
26 278 1
26 289 1
26 318 1
27 15 1
27 26 1
27 55 1
27 213 1
27 224 1
27 253 1
27 279 1
27 290 1
27 319 1
28 16 1
28 27 1
28 45 1
28 214 1
28 225 1
28 243 1
28 280 1
28 291 1
28 309 1
29 17 1
29 28 1
29 46 1
29 215 1
29 226 1
29 244 1
29 281 1
29 292 1
29 310 1
30 18 1
30 29 1
30 47 1
30 216 1
30 227 1
30 245 1
30 282 1
30 293 1
30 311 1
31 19 1
31 30 1
31 48 1
31 217 1
31 228 1
31 246 1
31 283 1
31 294 1
31 312 1
32 20 1
32 31 1
32 49 1
32 218 1
32 229 1
32 247 1
32 284 1
32 295 1
32 313 1
33 21 1
33 32 1
33 50 1
33 219 1
33 230 1
33 248 1
33 285 1
33 296 1
33 314 1
34 67 1
34 99 1
34 125 1
34 199 1
34 231 1
34 257 1
34 331 1
34 363 1
34 389 1
35 68 1
35 89 1
35 126 1
35 200 1
35 221 1
35 258 1
35 332 1
35 353 1
35 390 1
36 69 1
36 90 1
36 127 1
36 201 1
36 222 1
36 259 1
36 333 1
36 354 1
36 391 1
37 70 1
37 91 1
37 128 1
37 202 1
37 223 1
37 260 1
37 334 1
37 355 1
37 392 1
38 71 1
38 92 1
38 129 1
38 203 1
38 224 1
38 261 1
38 335 1
38 356 1
38 393 1
39 72 1
39 93 1
39 130 1
39 204 1
39 225 1
39 262 1
39 336 1
39 357 1
39 394 1
40 73 1
40 94 1
40 131 1
40 205 1
40 226 1
40 263 1
40 337 1
40 358 1
40 395 1
41 74 1
41 95 1
41 132 1
41 206 1
41 227 1
41 264 1
41 338 1
41 359 1
41 396 1
42 75 1
42 96 1
42 122 1
42 207 1
42 228 1
42 254 1
42 339 1
42 360 1
42 386 1
43 76 1
43 97 1
43 123 1
43 208 1
43 229 1
43 255 1
43 340 1
43 361 1
43 387 1
44 77 1
44 98 1
44 124 1
44 209 1
44 230 1
44 256 1
44 341 1
44 362 1
44 388 1
45 67 1
45 106 1
45 117 1
45 199 1
45 238 1
45 249 1
45 331 1
45 370 1
45 381 1
46 68 1
46 107 1
46 118 1
46 200 1
46 239 1
46 250 1
46 332 1
46 371 1
46 382 1
47 69 1
47 108 1
47 119 1
47 201 1
47 240 1
47 251 1
47 333 1
47 372 1
47 383 1
48 70 1
48 109 1
48 120 1
48 202 1
48 241 1
48 252 1
48 334 1
48 373 1
48 384 1
49 71 1
49 110 1
49 121 1
49 203 1
49 242 1
49 253 1
49 335 1
49 374 1
49 385 1
50 72 1
50 100 1
50 111 1
50 204 1
50 232 1
50 243 1
50 336 1
50 364 1
50 375 1
51 73 1
51 101 1
51 112 1
51 205 1
51 233 1
51 244 1
51 337 1
51 365 1
51 376 1
52 74 1
52 102 1
52 113 1
52 206 1
52 234 1
52 245 1
52 338 1
52 366 1
52 377 1
53 75 1
53 103 1
53 114 1
53 207 1
53 235 1
53 246 1
53 339 1
53 367 1
53 378 1
54 76 1
54 104 1
54 115 1
54 208 1
54 236 1
54 247 1
54 340 1
54 368 1
54 379 1
55 77 1
55 105 1
55 116 1
55 209 1
55 237 1
55 248 1
55 341 1
55 369 1
55 380 1
56 88 1
56 99 1
56 117 1
56 220 1
56 231 1
56 249 1
56 352 1
56 363 1
56 381 1
57 78 1
57 89 1
57 118 1
57 210 1
57 221 1
57 250 1
57 342 1
57 353 1
57 382 1
58 79 1
58 90 1
58 119 1
58 211 1
58 222 1
58 251 1
58 343 1
58 354 1
58 383 1
59 80 1
59 91 1
59 120 1
59 212 1
59 223 1
59 252 1
59 344 1
59 355 1
59 384 1
60 81 1
60 92 1
60 121 1
60 213 1
60 224 1
60 253 1
60 345 1
60 356 1
60 385 1
61 82 1
61 93 1
61 111 1
61 214 1
61 225 1
61 243 1
61 346 1
61 357 1
61 375 1
62 83 1
62 94 1
62 112 1
62 215 1
62 226 1
62 244 1
62 347 1
62 358 1
62 376 1
63 84 1
63 95 1
63 113 1
63 216 1
63 227 1
63 245 1
63 348 1
63 359 1
63 377 1
64 85 1
64 96 1
64 114 1
64 217 1
64 228 1
64 246 1
64 349 1
64 360 1
64 378 1
65 86 1
65 97 1
65 115 1
65 218 1
65 229 1
65 247 1
65 350 1
65 361 1
65 379 1
66 87 1
66 98 1
66 116 1
66 219 1
66 230 1
66 248 1
66 351 1
66 362 1
66 380 1
67 133 1
67 165 1
67 191 1
67 265 1
67 297 1
67 323 1
67 331 1
67 363 1
67 389 1
68 134 1
68 155 1
68 192 1
68 266 1
68 287 1
68 324 1
68 332 1
68 353 1
68 390 1
69 135 1
69 156 1
69 193 1
69 267 1
69 288 1
69 325 1
69 333 1
69 354 1
69 391 1
70 136 1
70 157 1
70 194 1
70 268 1
70 289 1
70 326 1
70 334 1
70 355 1
70 392 1
71 137 1
71 158 1
71 195 1
71 269 1
71 290 1
71 327 1
71 335 1
71 356 1
71 393 1
72 138 1
72 159 1
72 196 1
72 270 1
72 291 1
72 328 1
72 336 1
72 357 1
72 394 1
73 139 1
73 160 1
73 197 1
73 271 1
73 292 1
73 329 1
73 337 1
73 358 1
73 395 1
74 140 1
74 161 1
74 198 1
74 272 1
74 293 1
74 330 1
74 338 1
74 359 1
74 396 1
75 141 1
75 162 1
75 188 1
75 273 1
75 294 1
75 320 1
75 339 1
75 360 1
75 386 1
76 142 1
76 163 1
76 189 1
76 274 1
76 295 1
76 321 1
76 340 1
76 361 1
76 387 1
77 143 1
77 164 1
77 190 1
77 275 1
77 296 1
77 322 1
77 341 1
77 362 1
77 388 1
78 133 1
78 172 1
78 183 1
78 265 1
78 304 1
78 315 1
78 331 1
78 370 1
78 381 1
79 134 1
79 173 1
79 184 1
79 266 1
79 305 1
79 316 1
79 332 1
79 371 1
79 382 1
80 135 1
80 174 1
80 185 1
80 267 1
80 306 1
80 317 1
80 333 1
80 372 1
80 383 1
81 136 1
81 175 1
81 186 1
81 268 1
81 307 1
81 318 1
81 334 1
81 373 1
81 384 1
82 137 1
82 176 1
82 187 1
82 269 1
82 308 1
82 319 1
82 335 1
82 374 1
82 385 1
83 138 1
83 166 1
83 177 1
83 270 1
83 298 1
83 309 1
83 336 1
83 364 1
83 375 1
84 139 1
84 167 1
84 178 1
84 271 1
84 299 1
84 310 1
84 337 1
84 365 1
84 376 1
85 140 1
85 168 1
85 179 1
85 272 1
85 300 1
85 311 1
85 338 1
85 366 1
85 377 1
86 141 1
86 169 1
86 180 1
86 273 1
86 301 1
86 312 1
86 339 1
86 367 1
86 378 1
87 142 1
87 170 1
87 181 1
87 274 1
87 302 1
87 313 1
87 340 1
87 368 1
87 379 1
88 143 1
88 171 1
88 182 1
88 275 1
88 303 1
88 314 1
88 341 1
88 369 1
88 380 1
89 154 1
89 165 1
89 183 1
89 286 1
89 297 1
89 315 1
89 352 1
89 363 1
89 381 1
90 144 1
90 155 1
90 184 1
90 276 1
90 287 1
90 316 1
90 342 1
90 353 1
90 382 1
91 145 1
91 156 1
91 185 1
91 277 1
91 288 1
91 317 1
91 343 1
91 354 1
91 383 1
92 146 1
92 157 1
92 186 1
92 278 1
92 289 1
92 318 1
92 344 1
92 355 1
92 384 1
93 147 1
93 158 1
93 187 1
93 279 1
93 290 1
93 319 1
93 345 1
93 356 1
93 385 1
94 148 1
94 159 1
94 177 1
94 280 1
94 291 1
94 309 1
94 346 1
94 357 1
94 375 1
95 149 1
95 160 1
95 178 1
95 281 1
95 292 1
95 310 1
95 347 1
95 358 1
95 376 1
96 150 1
96 161 1
96 179 1
96 282 1
96 293 1
96 311 1
96 348 1
96 359 1
96 377 1
97 151 1
97 162 1
97 180 1
97 283 1
97 294 1
97 312 1
97 349 1
97 360 1
97 378 1
98 152 1
98 163 1
98 181 1
98 284 1
98 295 1
98 313 1
98 350 1
98 361 1
98 379 1
99 153 1
99 164 1
99 182 1
99 285 1
99 296 1
99 314 1
99 351 1
99 362 1
99 380 1
100 1 1
100 12 1
100 34 1
100 266 1
100 277 1
100 299 1
100 338 1
100 349 1
100 371 1
101 2 1
101 13 1
101 35 1
101 267 1
101 278 1
101 300 1
101 339 1
101 350 1
101 372 1
102 3 1
102 14 1
102 36 1
102 268 1
102 279 1
102 301 1
102 340 1
102 351 1
102 373 1
103 4 1
103 15 1
103 37 1
103 269 1
103 280 1
103 302 1
103 341 1
103 352 1
103 374 1
104 5 1
104 16 1
104 38 1
104 270 1
104 281 1
104 303 1
104 331 1
104 342 1
104 364 1
105 6 1
105 17 1
105 39 1
105 271 1
105 282 1
105 304 1
105 332 1
105 343 1
105 365 1
106 7 1
106 18 1
106 40 1
106 272 1
106 283 1
106 305 1
106 333 1
106 344 1
106 366 1
107 8 1
107 19 1
107 41 1
107 273 1
107 284 1
107 306 1
107 334 1
107 345 1
107 367 1
108 9 1
108 20 1
108 42 1
108 274 1
108 285 1
108 307 1
108 335 1
108 346 1
108 368 1
109 10 1
109 21 1
109 43 1
109 275 1
109 286 1
109 308 1
109 336 1
109 347 1
109 369 1
110 11 1
110 22 1
110 44 1
110 265 1
110 276 1
110 298 1
110 337 1
110 348 1
110 370 1
111 1 1
111 23 1
111 45 1
111 266 1
111 288 1
111 310 1
111 338 1
111 360 1
111 382 1
112 2 1
112 24 1
112 46 1
112 267 1
112 289 1
112 311 1
112 339 1
112 361 1
112 383 1
113 3 1
113 25 1
113 47 1
113 268 1
113 290 1
113 312 1
113 340 1
113 362 1
113 384 1
114 4 1
114 26 1
114 48 1
114 269 1
114 291 1
114 313 1
114 341 1
114 363 1
114 385 1
115 5 1
115 27 1
115 49 1
115 270 1
115 292 1
115 314 1
115 331 1
115 353 1
115 375 1
116 6 1
116 28 1
116 50 1
116 271 1
116 293 1
116 315 1
116 332 1
116 354 1
116 376 1
117 7 1
117 29 1
117 51 1
117 272 1
117 294 1
117 316 1
117 333 1
117 355 1
117 377 1
118 8 1
118 30 1
118 52 1
118 273 1
118 295 1
118 317 1
118 334 1
118 356 1
118 378 1
119 9 1
119 31 1
119 53 1
119 274 1
119 296 1
119 318 1
119 335 1
119 357 1
119 379 1
120 10 1
120 32 1
120 54 1
120 275 1
120 297 1
120 319 1
120 336 1
120 358 1
120 380 1
121 11 1
121 33 1
121 55 1
121 265 1
121 287 1
121 309 1
121 337 1
121 359 1
121 381 1
122 12 1
122 23 1
122 56 1
122 277 1
122 288 1
122 321 1
122 349 1
122 360 1
122 393 1
123 13 1
123 24 1
123 57 1
123 278 1
123 289 1
123 322 1
123 350 1
123 361 1
123 394 1
124 14 1
124 25 1
124 58 1
124 279 1
124 290 1
124 323 1
124 351 1
124 362 1
124 395 1
125 15 1
125 26 1
125 59 1
125 280 1
125 291 1
125 324 1
125 352 1
125 363 1
125 396 1
126 16 1
126 27 1
126 60 1
126 281 1
126 292 1
126 325 1
126 342 1
126 353 1
126 386 1
127 17 1
127 28 1
127 61 1
127 282 1
127 293 1
127 326 1
127 343 1
127 354 1
127 387 1
128 18 1
128 29 1
128 62 1
128 283 1
128 294 1
128 327 1
128 344 1
128 355 1
128 388 1
129 19 1
129 30 1
129 63 1
129 284 1
129 295 1
129 328 1
129 345 1
129 356 1
129 389 1
130 20 1
130 31 1
130 64 1
130 285 1
130 296 1
130 329 1
130 346 1
130 357 1
130 390 1
131 21 1
131 32 1
131 65 1
131 286 1
131 297 1
131 330 1
131 347 1
131 358 1
131 391 1
132 22 1
132 33 1
132 66 1
132 276 1
132 287 1
132 320 1
132 348 1
132 359 1
132 392 1
133 67 1
133 78 1
133 100 1
133 133 1
133 144 1
133 166 1
133 338 1
133 349 1
133 371 1
134 68 1
134 79 1
134 101 1
134 134 1
134 145 1
134 167 1
134 339 1
134 350 1
134 372 1
135 69 1
135 80 1
135 102 1
135 135 1
135 146 1
135 168 1
135 340 1
135 351 1
135 373 1
136 70 1
136 81 1
136 103 1
136 136 1
136 147 1
136 169 1
136 341 1
136 352 1
136 374 1
137 71 1
137 82 1
137 104 1
137 137 1
137 148 1
137 170 1
137 331 1
137 342 1
137 364 1
138 72 1
138 83 1
138 105 1
138 138 1
138 149 1
138 171 1
138 332 1
138 343 1
138 365 1
139 73 1
139 84 1
139 106 1
139 139 1
139 150 1
139 172 1
139 333 1
139 344 1
139 366 1
140 74 1
140 85 1
140 107 1
140 140 1
140 151 1
140 173 1
140 334 1
140 345 1
140 367 1
141 75 1
141 86 1
141 108 1
141 141 1
141 152 1
141 174 1
141 335 1
141 346 1
141 368 1
142 76 1
142 87 1
142 109 1
142 142 1
142 153 1
142 175 1
142 336 1
142 347 1
142 369 1
143 77 1
143 88 1
143 110 1
143 143 1
143 154 1
143 176 1
143 337 1
143 348 1
143 370 1
144 67 1
144 89 1
144 111 1
144 133 1
144 155 1
144 177 1
144 338 1
144 360 1
144 382 1
145 68 1
145 90 1
145 112 1
145 134 1
145 156 1
145 178 1
145 339 1
145 361 1
145 383 1
146 69 1
146 91 1
146 113 1
146 135 1
146 157 1
146 179 1
146 340 1
146 362 1
146 384 1
147 70 1
147 92 1
147 114 1
147 136 1
147 158 1
147 180 1
147 341 1
147 363 1
147 385 1
148 71 1
148 93 1
148 115 1
148 137 1
148 159 1
148 181 1
148 331 1
148 353 1
148 375 1
149 72 1
149 94 1
149 116 1
149 138 1
149 160 1
149 182 1
149 332 1
149 354 1
149 376 1
150 73 1
150 95 1
150 117 1
150 139 1
150 161 1
150 183 1
150 333 1
150 355 1
150 377 1
151 74 1
151 96 1
151 118 1
151 140 1
151 162 1
151 184 1
151 334 1
151 356 1
151 378 1
152 75 1
152 97 1
152 119 1
152 141 1
152 163 1
152 185 1
152 335 1
152 357 1
152 379 1
153 76 1
153 98 1
153 120 1
153 142 1
153 164 1
153 186 1
153 336 1
153 358 1
153 380 1
154 77 1
154 99 1
154 121 1
154 143 1
154 165 1
154 187 1
154 337 1
154 359 1
154 381 1
155 78 1
155 89 1
155 122 1
155 144 1
155 155 1
155 188 1
155 349 1
155 360 1
155 393 1
156 79 1
156 90 1
156 123 1
156 145 1
156 156 1
156 189 1
156 350 1
156 361 1
156 394 1
157 80 1
157 91 1
157 124 1
157 146 1
157 157 1
157 190 1
157 351 1
157 362 1
157 395 1
158 81 1
158 92 1
158 125 1
158 147 1
158 158 1
158 191 1
158 352 1
158 363 1
158 396 1
159 82 1
159 93 1
159 126 1
159 148 1
159 159 1
159 192 1
159 342 1
159 353 1
159 386 1
160 83 1
160 94 1
160 127 1
160 149 1
160 160 1
160 193 1
160 343 1
160 354 1
160 387 1
161 84 1
161 95 1
161 128 1
161 150 1
161 161 1
161 194 1
161 344 1
161 355 1
161 388 1
162 85 1
162 96 1
162 129 1
162 151 1
162 162 1
162 195 1
162 345 1
162 356 1
162 389 1
163 86 1
163 97 1
163 130 1
163 152 1
163 163 1
163 196 1
163 346 1
163 357 1
163 390 1
164 87 1
164 98 1
164 131 1
164 153 1
164 164 1
164 197 1
164 347 1
164 358 1
164 391 1
165 88 1
165 99 1
165 132 1
165 154 1
165 165 1
165 198 1
165 348 1
165 359 1
165 392 1
166 133 1
166 144 1
166 166 1
166 200 1
166 211 1
166 233 1
166 266 1
166 277 1
166 299 1
167 134 1
167 145 1
167 167 1
167 201 1
167 212 1
167 234 1
167 267 1
167 278 1
167 300 1
168 135 1
168 146 1
168 168 1
168 202 1
168 213 1
168 235 1
168 268 1
168 279 1
168 301 1
169 136 1
169 147 1
169 169 1
169 203 1
169 214 1
169 236 1
169 269 1
169 280 1
169 302 1
170 137 1
170 148 1
170 170 1
170 204 1
170 215 1
170 237 1
170 270 1
170 281 1
170 303 1
171 138 1
171 149 1
171 171 1
171 205 1
171 216 1
171 238 1
171 271 1
171 282 1
171 304 1
172 139 1
172 150 1
172 172 1
172 206 1
172 217 1
172 239 1
172 272 1
172 283 1
172 305 1
173 140 1
173 151 1
173 173 1
173 207 1
173 218 1
173 240 1
173 273 1
173 284 1
173 306 1
174 141 1
174 152 1
174 174 1
174 208 1
174 219 1
174 241 1
174 274 1
174 285 1
174 307 1
175 142 1
175 153 1
175 175 1
175 209 1
175 220 1
175 242 1
175 275 1
175 286 1
175 308 1
176 143 1
176 154 1
176 176 1
176 199 1
176 210 1
176 232 1
176 265 1
176 276 1
176 298 1
177 133 1
177 155 1
177 177 1
177 200 1
177 222 1
177 244 1
177 266 1
177 288 1
177 310 1
178 134 1
178 156 1
178 178 1
178 201 1
178 223 1
178 245 1
178 267 1
178 289 1
178 311 1
179 135 1
179 157 1
179 179 1
179 202 1
179 224 1
179 246 1
179 268 1
179 290 1
179 312 1
180 136 1
180 158 1
180 180 1
180 203 1
180 225 1
180 247 1
180 269 1
180 291 1
180 313 1
181 137 1
181 159 1
181 181 1
181 204 1
181 226 1
181 248 1
181 270 1
181 292 1
181 314 1
182 138 1
182 160 1
182 182 1
182 205 1
182 227 1
182 249 1
182 271 1
182 293 1
182 315 1
183 139 1
183 161 1
183 183 1
183 206 1
183 228 1
183 250 1
183 272 1
183 294 1
183 316 1
184 140 1
184 162 1
184 184 1
184 207 1
184 229 1
184 251 1
184 273 1
184 295 1
184 317 1
185 141 1
185 163 1
185 185 1
185 208 1
185 230 1
185 252 1
185 274 1
185 296 1
185 318 1
186 142 1
186 164 1
186 186 1
186 209 1
186 231 1
186 253 1
186 275 1
186 297 1
186 319 1
187 143 1
187 165 1
187 187 1
187 199 1
187 221 1
187 243 1
187 265 1
187 287 1
187 309 1
188 144 1
188 155 1
188 188 1
188 211 1
188 222 1
188 255 1
188 277 1
188 288 1
188 321 1
189 145 1
189 156 1
189 189 1
189 212 1
189 223 1
189 256 1
189 278 1
189 289 1
189 322 1
190 146 1
190 157 1
190 190 1
190 213 1
190 224 1
190 257 1
190 279 1
190 290 1
190 323 1
191 147 1
191 158 1
191 191 1
191 214 1
191 225 1
191 258 1
191 280 1
191 291 1
191 324 1
192 148 1
192 159 1
192 192 1
192 215 1
192 226 1
192 259 1
192 281 1
192 292 1
192 325 1
193 149 1
193 160 1
193 193 1
193 216 1
193 227 1
193 260 1
193 282 1
193 293 1
193 326 1
194 150 1
194 161 1
194 194 1
194 217 1
194 228 1
194 261 1
194 283 1
194 294 1
194 327 1
195 151 1
195 162 1
195 195 1
195 218 1
195 229 1
195 262 1
195 284 1
195 295 1
195 328 1
196 152 1
196 163 1
196 196 1
196 219 1
196 230 1
196 263 1
196 285 1
196 296 1
196 329 1
197 153 1
197 164 1
197 197 1
197 220 1
197 231 1
197 264 1
197 286 1
197 297 1
197 330 1
198 154 1
198 165 1
198 198 1
198 210 1
198 221 1
198 254 1
198 276 1
198 287 1
198 320 1
