%%MatrixMarket matrix coordinate integer general
256 512 4096
1 1 1
1 33 1
1 41 1
1 49 1
1 257 1
1 289 1
1 297 1
1 305 1
1 321 1
1 353 1
1 361 1
1 369 1
1 385 1
1 417 1
1 425 1
1 433 1
2 2 1
2 34 1
2 42 1
2 50 1
2 258 1
2 290 1
2 298 1
2 306 1
2 322 1
2 354 1
2 362 1
2 370 1
2 386 1
2 418 1
2 426 1
2 434 1
3 3 1
3 35 1
3 43 1
3 51 1
3 259 1
3 291 1
3 299 1
3 307 1
3 323 1
3 355 1
3 363 1
3 371 1
3 387 1
3 419 1
3 427 1
3 435 1
4 4 1
4 36 1
4 44 1
4 52 1
4 260 1
4 292 1
4 300 1
4 308 1
4 324 1
4 356 1
4 364 1
4 372 1
4 388 1
4 420 1
4 428 1
4 436 1
5 5 1
5 37 1
5 45 1
5 53 1
5 261 1
5 293 1
5 301 1
5 309 1
5 325 1
5 357 1
5 365 1
5 373 1
5 389 1
5 421 1
5 429 1
5 437 1
6 6 1
6 38 1
6 46 1
6 54 1
6 262 1
6 294 1
6 302 1
6 310 1
6 326 1
6 358 1
6 366 1
6 374 1
6 390 1
6 422 1
6 430 1
6 438 1
7 7 1
7 39 1
7 47 1
7 55 1
7 263 1
7 295 1
7 303 1
7 311 1
7 327 1
7 359 1
7 367 1
7 375 1
7 391 1
7 423 1
7 431 1
7 439 1
8 8 1
8 40 1
8 48 1
8 56 1
8 264 1
8 296 1
8 304 1
8 312 1
8 328 1
8 360 1
8 368 1
8 376 1
8 392 1
8 424 1
8 432 1
8 440 1
9 9 1
9 33 1
9 41 1
9 57 1
9 265 1
9 289 1
9 297 1
9 313 1
9 329 1
9 353 1
9 361 1
9 377 1
9 393 1
9 417 1
9 425 1
9 441 1
10 10 1
10 34 1
10 42 1
10 58 1
10 266 1
10 290 1
10 298 1
10 314 1
10 330 1
10 354 1
10 362 1
10 378 1
10 394 1
10 418 1
10 426 1
10 442 1
11 11 1
11 35 1
11 43 1
11 59 1
11 267 1
11 291 1
11 299 1
11 315 1
11 331 1
11 355 1
11 363 1
11 379 1
11 395 1
11 419 1
11 427 1
11 443 1
12 12 1
12 36 1
12 44 1
12 60 1
12 268 1
12 292 1
12 300 1
12 316 1
12 332 1
12 356 1
12 364 1
12 380 1
12 396 1
12 420 1
12 428 1
12 444 1
13 13 1
13 37 1
13 45 1
13 61 1
13 269 1
13 293 1
13 301 1
13 317 1
13 333 1
13 357 1
13 365 1
13 381 1
13 397 1
13 421 1
13 429 1
13 445 1
14 14 1
14 38 1
14 46 1
14 62 1
14 270 1
14 294 1
14 302 1
14 318 1
14 334 1
14 358 1
14 366 1
14 382 1
14 398 1
14 422 1
14 430 1
14 446 1
15 15 1
15 39 1
15 47 1
15 63 1
15 271 1
15 295 1
15 303 1
15 319 1
15 335 1
15 359 1
15 367 1
15 383 1
15 399 1
15 423 1
15 431 1
15 447 1
16 16 1
16 40 1
16 48 1
16 64 1
16 272 1
16 296 1
16 304 1
16 320 1
16 336 1
16 360 1
16 368 1
16 384 1
16 400 1
16 424 1
16 432 1
16 448 1
17 17 1
17 33 1
17 49 1
17 57 1
17 273 1
17 289 1
17 305 1
17 313 1
17 337 1
17 353 1
17 369 1
17 377 1
17 401 1
17 417 1
17 433 1
17 441 1
18 18 1
18 34 1
18 50 1
18 58 1
18 274 1
18 290 1
18 306 1
18 314 1
18 338 1
18 354 1
18 370 1
18 378 1
18 402 1
18 418 1
18 434 1
18 442 1
19 19 1
19 35 1
19 51 1
19 59 1
19 275 1
19 291 1
19 307 1
19 315 1
19 339 1
19 355 1
19 371 1
19 379 1
19 403 1
19 419 1
19 435 1
19 443 1
20 20 1
20 36 1
20 52 1
20 60 1
20 276 1
20 292 1
20 308 1
20 316 1
20 340 1
20 356 1
20 372 1
20 380 1
20 404 1
20 420 1
20 436 1
20 444 1
21 21 1
21 37 1
21 53 1
21 61 1
21 277 1
21 293 1
21 309 1
21 317 1
21 341 1
21 357 1
21 373 1
21 381 1
21 405 1
21 421 1
21 437 1
21 445 1
22 22 1
22 38 1
22 54 1
22 62 1
22 278 1
22 294 1
22 310 1
22 318 1
22 342 1
22 358 1
22 374 1
22 382 1
22 406 1
22 422 1
22 438 1
22 446 1
23 23 1
23 39 1
23 55 1
23 63 1
23 279 1
23 295 1
23 311 1
23 319 1
23 343 1
23 359 1
23 375 1
23 383 1
23 407 1
23 423 1
23 439 1
23 447 1
24 24 1
24 40 1
24 56 1
24 64 1
24 280 1
24 296 1
24 312 1
24 320 1
24 344 1
24 360 1
24 376 1
24 384 1
24 408 1
24 424 1
24 440 1
24 448 1
25 25 1
25 41 1
25 49 1
25 57 1
25 281 1
25 297 1
25 305 1
25 313 1
25 345 1
25 361 1
25 369 1
25 377 1
25 409 1
25 425 1
25 433 1
25 441 1
26 26 1
26 42 1
26 50 1
26 58 1
26 282 1
26 298 1
26 306 1
26 314 1
26 346 1
26 362 1
26 370 1
26 378 1
26 410 1
26 426 1
26 434 1
26 442 1
27 27 1
27 43 1
27 51 1
27 59 1
27 283 1
27 299 1
27 307 1
27 315 1
27 347 1
27 363 1
27 371 1
27 379 1
27 411 1
27 427 1
27 435 1
27 443 1
28 28 1
28 44 1
28 52 1
28 60 1
28 284 1
28 300 1
28 308 1
28 316 1
28 348 1
28 364 1
28 372 1
28 380 1
28 412 1
28 428 1
28 436 1
28 444 1
29 29 1
29 45 1
29 53 1
29 61 1
29 285 1
29 301 1
29 309 1
29 317 1
29 349 1
29 365 1
29 373 1
29 381 1
29 413 1
29 429 1
29 437 1
29 445 1
30 30 1
30 46 1
30 54 1
30 62 1
30 286 1
30 302 1
30 310 1
30 318 1
30 350 1
30 366 1
30 374 1
30 382 1
30 414 1
30 430 1
30 438 1
30 446 1
31 31 1
31 47 1
31 55 1
31 63 1
31 287 1
31 303 1
31 311 1
31 319 1
31 351 1
31 367 1
31 375 1
31 383 1
31 415 1
31 431 1
31 439 1
31 447 1
32 32 1
32 48 1
32 56 1
32 64 1
32 288 1
32 304 1
32 312 1
32 320 1
32 352 1
32 368 1
32 376 1
32 384 1
32 416 1
32 432 1
32 440 1
32 448 1
33 65 1
33 97 1
33 105 1
33 113 1
33 257 1
33 289 1
33 297 1
33 305 1
33 321 1
33 353 1
33 361 1
33 369 1
33 449 1
33 481 1
33 489 1
33 497 1
34 66 1
34 98 1
34 106 1
34 114 1
34 258 1
34 290 1
34 298 1
34 306 1
34 322 1
34 354 1
34 362 1
34 370 1
34 450 1
34 482 1
34 490 1
34 498 1
35 67 1
35 99 1
35 107 1
35 115 1
35 259 1
35 291 1
35 299 1
35 307 1
35 323 1
35 355 1
35 363 1
35 371 1
35 451 1
35 483 1
35 491 1
35 499 1
36 68 1
36 100 1
36 108 1
36 116 1
36 260 1
36 292 1
36 300 1
36 308 1
36 324 1
36 356 1
36 364 1
36 372 1
36 452 1
36 484 1
36 492 1
36 500 1
37 69 1
37 101 1
37 109 1
37 117 1
37 261 1
37 293 1
37 301 1
37 309 1
37 325 1
37 357 1
37 365 1
37 373 1
37 453 1
37 485 1
37 493 1
37 501 1
38 70 1
38 102 1
38 110 1
38 118 1
38 262 1
38 294 1
38 302 1
38 310 1
38 326 1
38 358 1
38 366 1
38 374 1
38 454 1
38 486 1
38 494 1
38 502 1
39 71 1
39 103 1
39 111 1
39 119 1
39 263 1
39 295 1
39 303 1
39 311 1
39 327 1
39 359 1
39 367 1
39 375 1
39 455 1
39 487 1
39 495 1
39 503 1
40 72 1
40 104 1
40 112 1
40 120 1
40 264 1
40 296 1
40 304 1
40 312 1
40 328 1
40 360 1
40 368 1
40 376 1
40 456 1
40 488 1
40 496 1
40 504 1
41 73 1
41 97 1
41 105 1
41 121 1
41 265 1
41 289 1
41 297 1
41 313 1
41 329 1
41 353 1
41 361 1
41 377 1
41 457 1
41 481 1
41 489 1
41 505 1
42 74 1
42 98 1
42 106 1
42 122 1
42 266 1
42 290 1
42 298 1
42 314 1
42 330 1
42 354 1
42 362 1
42 378 1
42 458 1
42 482 1
42 490 1
42 506 1
43 75 1
43 99 1
43 107 1
43 123 1
43 267 1
43 291 1
43 299 1
43 315 1
43 331 1
43 355 1
43 363 1
43 379 1
43 459 1
43 483 1
43 491 1
43 507 1
44 76 1
44 100 1
44 108 1
44 124 1
44 268 1
44 292 1
44 300 1
44 316 1
44 332 1
44 356 1
44 364 1
44 380 1
44 460 1
44 484 1
44 492 1
44 508 1
45 77 1
45 101 1
45 109 1
45 125 1
45 269 1
45 293 1
45 301 1
45 317 1
45 333 1
45 357 1
45 365 1
45 381 1
45 461 1
45 485 1
45 493 1
45 509 1
46 78 1
46 102 1
46 110 1
46 126 1
46 270 1
46 294 1
46 302 1
46 318 1
46 334 1
46 358 1
46 366 1
46 382 1
46 462 1
46 486 1
46 494 1
46 510 1
47 79 1
47 103 1
47 111 1
47 127 1
47 271 1
47 295 1
47 303 1
47 319 1
47 335 1
47 359 1
47 367 1
47 383 1
47 463 1
47 487 1
47 495 1
47 511 1
48 80 1
48 104 1
48 112 1
48 128 1
48 272 1
48 296 1
48 304 1
48 320 1
48 336 1
48 360 1
48 368 1
48 384 1
48 464 1
48 488 1
48 496 1
48 512 1
49 81 1
49 97 1
49 113 1
49 121 1
49 273 1
49 289 1
49 305 1
49 313 1
49 337 1
49 353 1
49 369 1
49 377 1
49 465 1
49 481 1
49 497 1
49 505 1
50 82 1
50 98 1
50 114 1
50 122 1
50 274 1
50 290 1
50 306 1
50 314 1
50 338 1
50 354 1
50 370 1
50 378 1
50 466 1
50 482 1
50 498 1
50 506 1
51 83 1
51 99 1
51 115 1
51 123 1
51 275 1
51 291 1
51 307 1
51 315 1
51 339 1
51 355 1
51 371 1
51 379 1
51 467 1
51 483 1
51 499 1
51 507 1
52 84 1
52 100 1
52 116 1
52 124 1
52 276 1
52 292 1
52 308 1
52 316 1
52 340 1
52 356 1
52 372 1
52 380 1
52 468 1
52 484 1
52 500 1
52 508 1
53 85 1
53 101 1
53 117 1
53 125 1
53 277 1
53 293 1
53 309 1
53 317 1
53 341 1
53 357 1
53 373 1
53 381 1
53 469 1
53 485 1
53 501 1
53 509 1
54 86 1
54 102 1
54 118 1
54 126 1
54 278 1
54 294 1
54 310 1
54 318 1
54 342 1
54 358 1
54 374 1
54 382 1
54 470 1
54 486 1
54 502 1
54 510 1
55 87 1
55 103 1
55 119 1
55 127 1
55 279 1
55 295 1
55 311 1
55 319 1
55 343 1
55 359 1
55 375 1
55 383 1
55 471 1
55 487 1
55 503 1
55 511 1
56 88 1
56 104 1
56 120 1
56 128 1
56 280 1
56 296 1
56 312 1
56 320 1
56 344 1
56 360 1
56 376 1
56 384 1
56 472 1
56 488 1
56 504 1
56 512 1
57 89 1
57 105 1
57 113 1
57 121 1
57 281 1
57 297 1
57 305 1
57 313 1
57 345 1
57 361 1
57 369 1
57 377 1
57 473 1
57 489 1
57 497 1
57 505 1
58 90 1
58 106 1
58 114 1
58 122 1
58 282 1
58 298 1
58 306 1
58 314 1
58 346 1
58 362 1
58 370 1
58 378 1
58 474 1
58 490 1
58 498 1
58 506 1
59 91 1
59 107 1
59 115 1
59 123 1
59 283 1
59 299 1
59 307 1
59 315 1
59 347 1
59 363 1
59 371 1
59 379 1
59 475 1
59 491 1
59 499 1
59 507 1
60 92 1
60 108 1
60 116 1
60 124 1
60 284 1
60 300 1
60 308 1
60 316 1
60 348 1
60 364 1
60 372 1
60 380 1
60 476 1
60 492 1
60 500 1
60 508 1
61 93 1
61 109 1
61 117 1
61 125 1
61 285 1
61 301 1
61 309 1
61 317 1
61 349 1
61 365 1
61 373 1
61 381 1
61 477 1
61 493 1
61 501 1
61 509 1
62 94 1
62 110 1
62 118 1
62 126 1
62 286 1
62 302 1
62 310 1
62 318 1
62 350 1
62 366 1
62 374 1
62 382 1
62 478 1
62 494 1
62 502 1
62 510 1
63 95 1
63 111 1
63 119 1
63 127 1
63 287 1
63 303 1
63 311 1
63 319 1
63 351 1
63 367 1
63 375 1
63 383 1
63 479 1
63 495 1
63 503 1
63 511 1
64 96 1
64 112 1
64 120 1
64 128 1
64 288 1
64 304 1
64 312 1
64 320 1
64 352 1
64 368 1
64 376 1
64 384 1
64 480 1
64 496 1
64 504 1
64 512 1
65 129 1
65 161 1
65 169 1
65 177 1
65 257 1
65 289 1
65 297 1
65 305 1
65 385 1
65 417 1
65 425 1
65 433 1
65 449 1
65 481 1
65 489 1
65 497 1
66 130 1
66 162 1
66 170 1
66 178 1
66 258 1
66 290 1
66 298 1
66 306 1
66 386 1
66 418 1
66 426 1
66 434 1
66 450 1
66 482 1
66 490 1
66 498 1
67 131 1
67 163 1
67 171 1
67 179 1
67 259 1
67 291 1
67 299 1
67 307 1
67 387 1
67 419 1
67 427 1
67 435 1
67 451 1
67 483 1
67 491 1
67 499 1
68 132 1
68 164 1
68 172 1
68 180 1
68 260 1
68 292 1
68 300 1
68 308 1
68 388 1
68 420 1
68 428 1
68 436 1
68 452 1
68 484 1
68 492 1
68 500 1
69 133 1
69 165 1
69 173 1
69 181 1
69 261 1
69 293 1
69 301 1
69 309 1
69 389 1
69 421 1
69 429 1
69 437 1
69 453 1
69 485 1
69 493 1
69 501 1
70 134 1
70 166 1
70 174 1
70 182 1
70 262 1
70 294 1
70 302 1
70 310 1
70 390 1
70 422 1
70 430 1
70 438 1
70 454 1
70 486 1
70 494 1
70 502 1
71 135 1
71 167 1
71 175 1
71 183 1
71 263 1
71 295 1
71 303 1
71 311 1
71 391 1
71 423 1
71 431 1
71 439 1
71 455 1
71 487 1
71 495 1
71 503 1
72 136 1
72 168 1
72 176 1
72 184 1
72 264 1
72 296 1
72 304 1
72 312 1
72 392 1
72 424 1
72 432 1
72 440 1
72 456 1
72 488 1
72 496 1
72 504 1
73 137 1
73 161 1
73 169 1
73 185 1
73 265 1
73 289 1
73 297 1
73 313 1
73 393 1
73 417 1
73 425 1
73 441 1
73 457 1
73 481 1
73 489 1
73 505 1
74 138 1
74 162 1
74 170 1
74 186 1
74 266 1
74 290 1
74 298 1
74 314 1
74 394 1
74 418 1
74 426 1
74 442 1
74 458 1
74 482 1
74 490 1
74 506 1
75 139 1
75 163 1
75 171 1
75 187 1
75 267 1
75 291 1
75 299 1
75 315 1
75 395 1
75 419 1
75 427 1
75 443 1
75 459 1
75 483 1
75 491 1
75 507 1
76 140 1
76 164 1
76 172 1
76 188 1
76 268 1
76 292 1
76 300 1
76 316 1
76 396 1
76 420 1
76 428 1
76 444 1
76 460 1
76 484 1
76 492 1
76 508 1
77 141 1
77 165 1
77 173 1
77 189 1
77 269 1
77 293 1
77 301 1
77 317 1
77 397 1
77 421 1
77 429 1
77 445 1
77 461 1
77 485 1
77 493 1
77 509 1
78 142 1
78 166 1
78 174 1
78 190 1
78 270 1
78 294 1
78 302 1
78 318 1
78 398 1
78 422 1
78 430 1
78 446 1
78 462 1
78 486 1
78 494 1
78 510 1
79 143 1
79 167 1
79 175 1
79 191 1
79 271 1
79 295 1
79 303 1
79 319 1
79 399 1
79 423 1
79 431 1
79 447 1
79 463 1
79 487 1
79 495 1
79 511 1
80 144 1
80 168 1
80 176 1
80 192 1
80 272 1
80 296 1
80 304 1
80 320 1
80 400 1
80 424 1
80 432 1
80 448 1
80 464 1
80 488 1
80 496 1
80 512 1
81 145 1
81 161 1
81 177 1
81 185 1
81 273 1
81 289 1
81 305 1
81 313 1
81 401 1
81 417 1
81 433 1
81 441 1
81 465 1
81 481 1
81 497 1
81 505 1
82 146 1
82 162 1
82 178 1
82 186 1
82 274 1
82 290 1
82 306 1
82 314 1
82 402 1
82 418 1
82 434 1
82 442 1
82 466 1
82 482 1
82 498 1
82 506 1
83 147 1
83 163 1
83 179 1
83 187 1
83 275 1
83 291 1
83 307 1
83 315 1
83 403 1
83 419 1
83 435 1
83 443 1
83 467 1
83 483 1
83 499 1
83 507 1
84 148 1
84 164 1
84 180 1
84 188 1
84 276 1
84 292 1
84 308 1
84 316 1
84 404 1
84 420 1
84 436 1
84 444 1
84 468 1
84 484 1
84 500 1
84 508 1
85 149 1
85 165 1
85 181 1
85 189 1
85 277 1
85 293 1
85 309 1
85 317 1
85 405 1
85 421 1
85 437 1
85 445 1
85 469 1
85 485 1
85 501 1
85 509 1
86 150 1
86 166 1
86 182 1
86 190 1
86 278 1
86 294 1
86 310 1
86 318 1
86 406 1
86 422 1
86 438 1
86 446 1
86 470 1
86 486 1
86 502 1
86 510 1
87 151 1
87 167 1
87 183 1
87 191 1
87 279 1
87 295 1
87 311 1
87 319 1
87 407 1
87 423 1
87 439 1
87 447 1
87 471 1
87 487 1
87 503 1
87 511 1
88 152 1
88 168 1
88 184 1
88 192 1
88 280 1
88 296 1
88 312 1
88 320 1
88 408 1
88 424 1
88 440 1
88 448 1
88 472 1
88 488 1
88 504 1
88 512 1
89 153 1
89 169 1
89 177 1
89 185 1
89 281 1
89 297 1
89 305 1
89 313 1
89 409 1
89 425 1
89 433 1
89 441 1
89 473 1
89 489 1
89 497 1
89 505 1
90 154 1
90 170 1
90 178 1
90 186 1
90 282 1
90 298 1
90 306 1
90 314 1
90 410 1
90 426 1
90 434 1
90 442 1
90 474 1
90 490 1
90 498 1
90 506 1
91 155 1
91 171 1
91 179 1
91 187 1
91 283 1
91 299 1
91 307 1
91 315 1
91 411 1
91 427 1
91 435 1
91 443 1
91 475 1
91 491 1
91 499 1
91 507 1
92 156 1
92 172 1
92 180 1
92 188 1
92 284 1
92 300 1
92 308 1
92 316 1
92 412 1
92 428 1
92 436 1
92 444 1
92 476 1
92 492 1
92 500 1
92 508 1
93 157 1
93 173 1
93 181 1
93 189 1
93 285 1
93 301 1
93 309 1
93 317 1
93 413 1
93 429 1
93 437 1
93 445 1
93 477 1
93 493 1
93 501 1
93 509 1
94 158 1
94 174 1
94 182 1
94 190 1
94 286 1
94 302 1
94 310 1
94 318 1
94 414 1
94 430 1
94 438 1
94 446 1
94 478 1
94 494 1
94 502 1
94 510 1
95 159 1
95 175 1
95 183 1
95 191 1
95 287 1
95 303 1
95 311 1
95 319 1
95 415 1
95 431 1
95 439 1
95 447 1
95 479 1
95 495 1
95 503 1
95 511 1
96 160 1
96 176 1
96 184 1
96 192 1
96 288 1
96 304 1
96 312 1
96 320 1
96 416 1
96 432 1
96 440 1
96 448 1
96 480 1
96 496 1
96 504 1
96 512 1
97 193 1
97 225 1
97 233 1
97 241 1
97 321 1
97 353 1
97 361 1
97 369 1
97 385 1
97 417 1
97 425 1
97 433 1
97 449 1
97 481 1
97 489 1
97 497 1
98 194 1
98 226 1
98 234 1
98 242 1
98 322 1
98 354 1
98 362 1
98 370 1
98 386 1
98 418 1
98 426 1
98 434 1
98 450 1
98 482 1
98 490 1
98 498 1
99 195 1
99 227 1
99 235 1
99 243 1
99 323 1
99 355 1
99 363 1
99 371 1
99 387 1
99 419 1
99 427 1
99 435 1
99 451 1
99 483 1
99 491 1
99 499 1
100 196 1
100 228 1
100 236 1
100 244 1
100 324 1
100 356 1
100 364 1
100 372 1
100 388 1
100 420 1
100 428 1
100 436 1
100 452 1
100 484 1
100 492 1
100 500 1
101 197 1
101 229 1
101 237 1
101 245 1
101 325 1
101 357 1
101 365 1
101 373 1
101 389 1
101 421 1
101 429 1
101 437 1
101 453 1
101 485 1
101 493 1
101 501 1
102 198 1
102 230 1
102 238 1
102 246 1
102 326 1
102 358 1
102 366 1
102 374 1
102 390 1
102 422 1
102 430 1
102 438 1
102 454 1
102 486 1
102 494 1
102 502 1
103 199 1
103 231 1
103 239 1
103 247 1
103 327 1
103 359 1
103 367 1
103 375 1
103 391 1
103 423 1
103 431 1
103 439 1
103 455 1
103 487 1
103 495 1
103 503 1
104 200 1
104 232 1
104 240 1
104 248 1
104 328 1
104 360 1
104 368 1
104 376 1
104 392 1
104 424 1
104 432 1
104 440 1
104 456 1
104 488 1
104 496 1
104 504 1
105 201 1
105 225 1
105 233 1
105 249 1
105 329 1
105 353 1
105 361 1
105 377 1
105 393 1
105 417 1
105 425 1
105 441 1
105 457 1
105 481 1
105 489 1
105 505 1
106 202 1
106 226 1
106 234 1
106 250 1
106 330 1
106 354 1
106 362 1
106 378 1
106 394 1
106 418 1
106 426 1
106 442 1
106 458 1
106 482 1
106 490 1
106 506 1
107 203 1
107 227 1
107 235 1
107 251 1
107 331 1
107 355 1
107 363 1
107 379 1
107 395 1
107 419 1
107 427 1
107 443 1
107 459 1
107 483 1
107 491 1
107 507 1
108 204 1
108 228 1
108 236 1
108 252 1
108 332 1
108 356 1
108 364 1
108 380 1
108 396 1
108 420 1
108 428 1
108 444 1
108 460 1
108 484 1
108 492 1
108 508 1
109 205 1
109 229 1
109 237 1
109 253 1
109 333 1
109 357 1
109 365 1
109 381 1
109 397 1
109 421 1
109 429 1
109 445 1
109 461 1
109 485 1
109 493 1
109 509 1
110 206 1
110 230 1
110 238 1
110 254 1
110 334 1
110 358 1
110 366 1
110 382 1
110 398 1
110 422 1
110 430 1
110 446 1
110 462 1
110 486 1
110 494 1
110 510 1
111 207 1
111 231 1
111 239 1
111 255 1
111 335 1
111 359 1
111 367 1
111 383 1
111 399 1
111 423 1
111 431 1
111 447 1
111 463 1
111 487 1
111 495 1
111 511 1
112 208 1
112 232 1
112 240 1
112 256 1
112 336 1
112 360 1
112 368 1
112 384 1
112 400 1
112 424 1
112 432 1
112 448 1
112 464 1
112 488 1
112 496 1
112 512 1
113 209 1
113 225 1
113 241 1
113 249 1
113 337 1
113 353 1
113 369 1
113 377 1
113 401 1
113 417 1
113 433 1
113 441 1
113 465 1
113 481 1
113 497 1
113 505 1
114 210 1
114 226 1
114 242 1
114 250 1
114 338 1
114 354 1
114 370 1
114 378 1
114 402 1
114 418 1
114 434 1
114 442 1
114 466 1
114 482 1
114 498 1
114 506 1
115 211 1
115 227 1
115 243 1
115 251 1
115 339 1
115 355 1
115 371 1
115 379 1
115 403 1
115 419 1
115 435 1
115 443 1
115 467 1
115 483 1
115 499 1
115 507 1
116 212 1
116 228 1
116 244 1
116 252 1
116 340 1
116 356 1
116 372 1
116 380 1
116 404 1
116 420 1
116 436 1
116 444 1
116 468 1
116 484 1
116 500 1
116 508 1
117 213 1
117 229 1
117 245 1
117 253 1
117 341 1
117 357 1
117 373 1
117 381 1
117 405 1
117 421 1
117 437 1
117 445 1
117 469 1
117 485 1
117 501 1
117 509 1
118 214 1
118 230 1
118 246 1
118 254 1
118 342 1
118 358 1
118 374 1
118 382 1
118 406 1
118 422 1
118 438 1
118 446 1
118 470 1
118 486 1
118 502 1
118 510 1
119 215 1
119 231 1
119 247 1
119 255 1
119 343 1
119 359 1
119 375 1
119 383 1
119 407 1
119 423 1
119 439 1
119 447 1
119 471 1
119 487 1
119 503 1
119 511 1
120 216 1
120 232 1
120 248 1
120 256 1
120 344 1
120 360 1
120 376 1
120 384 1
120 408 1
120 424 1
120 440 1
120 448 1
120 472 1
120 488 1
120 504 1
120 512 1
121 217 1
121 233 1
121 241 1
121 249 1
121 345 1
121 361 1
121 369 1
121 377 1
121 409 1
121 425 1
121 433 1
121 441 1
121 473 1
121 489 1
121 497 1
121 505 1
122 218 1
122 234 1
122 242 1
122 250 1
122 346 1
122 362 1
122 370 1
122 378 1
122 410 1
122 426 1
122 434 1
122 442 1
122 474 1
122 490 1
122 498 1
122 506 1
123 219 1
123 235 1
123 243 1
123 251 1
123 347 1
123 363 1
123 371 1
123 379 1
123 411 1
123 427 1
123 435 1
123 443 1
123 475 1
123 491 1
123 499 1
123 507 1
124 220 1
124 236 1
124 244 1
124 252 1
124 348 1
124 364 1
124 372 1
124 380 1
124 412 1
124 428 1
124 436 1
124 444 1
124 476 1
124 492 1
124 500 1
124 508 1
125 221 1
125 237 1
125 245 1
125 253 1
125 349 1
125 365 1
125 373 1
125 381 1
125 413 1
125 429 1
125 437 1
125 445 1
125 477 1
125 493 1
125 501 1
125 509 1
126 222 1
126 238 1
126 246 1
126 254 1
126 350 1
126 366 1
126 374 1
126 382 1
126 414 1
126 430 1
126 438 1
126 446 1
126 478 1
126 494 1
126 502 1
126 510 1
127 223 1
127 239 1
127 247 1
127 255 1
127 351 1
127 367 1
127 375 1
127 383 1
127 415 1
127 431 1
127 439 1
127 447 1
127 479 1
127 495 1
127 503 1
127 511 1
128 224 1
128 240 1
128 248 1
128 256 1
128 352 1
128 368 1
128 376 1
128 384 1
128 416 1
128 432 1
128 440 1
128 448 1
128 480 1
128 496 1
128 504 1
128 512 1
129 1 1
129 27 1
129 48 1
129 54 1
129 260 1
129 287 1
129 301 1
129 306 1
129 391 1
129 412 1
129 430 1
129 440 1
129 456 1
129 478 1
129 492 1
129 503 1
130 2 1
130 29 1
130 47 1
130 52 1
130 262 1
130 288 1
130 299 1
130 305 1
130 389 1
130 410 1
130 425 1
130 435 1
130 451 1
130 473 1
130 490 1
130 501 1
131 3 1
131 25 1
131 42 1
131 53 1
131 263 1
131 284 1
131 302 1
131 312 1
131 388 1
131 415 1
131 429 1
131 434 1
131 454 1
131 480 1
131 491 1
131 497 1
132 4 1
132 31 1
132 45 1
132 50 1
132 257 1
132 283 1
132 304 1
132 310 1
132 387 1
132 409 1
132 426 1
132 437 1
132 453 1
132 474 1
132 489 1
132 499 1
133 5 1
133 26 1
133 41 1
133 51 1
133 264 1
133 286 1
133 300 1
133 311 1
133 386 1
133 413 1
133 431 1
133 436 1
133 449 1
133 475 1
133 496 1
133 502 1
134 6 1
134 32 1
134 43 1
134 49 1
134 258 1
134 285 1
134 303 1
134 308 1
134 392 1
134 414 1
134 428 1
134 439 1
134 455 1
134 476 1
134 494 1
134 504 1
135 7 1
135 28 1
135 46 1
135 56 1
135 259 1
135 281 1
135 298 1
135 309 1
135 385 1
135 411 1
135 432 1
135 438 1
135 450 1
135 477 1
135 495 1
135 500 1
136 8 1
136 30 1
136 44 1
136 55 1
136 261 1
136 282 1
136 297 1
136 307 1
136 390 1
136 416 1
136 427 1
136 433 1
136 452 1
136 479 1
136 493 1
136 498 1
137 10 1
137 27 1
137 48 1
137 63 1
137 270 1
137 287 1
137 301 1
137 315 1
137 397 1
137 412 1
137 430 1
137 441 1
137 459 1
137 478 1
137 492 1
137 506 1
138 9 1
138 29 1
138 47 1
138 64 1
138 268 1
138 288 1
138 299 1
138 317 1
138 399 1
138 410 1
138 425 1
138 446 1
138 464 1
138 473 1
138 490 1
138 508 1
139 16 1
139 25 1
139 42 1
139 60 1
139 269 1
139 284 1
139 302 1
139 313 1
139 398 1
139 415 1
139 429 1
139 443 1
139 460 1
139 480 1
139 491 1
139 509 1
140 14 1
140 31 1
140 45 1
140 59 1
140 266 1
140 283 1
140 304 1
140 319 1
140 400 1
140 409 1
140 426 1
140 444 1
140 463 1
140 474 1
140 489 1
140 510 1
141 15 1
141 26 1
141 41 1
141 62 1
141 267 1
141 286 1
141 300 1
141 314 1
141 393 1
141 413 1
141 431 1
141 448 1
141 458 1
141 475 1
141 496 1
141 511 1
142 12 1
142 32 1
142 43 1
142 61 1
142 265 1
142 285 1
142 303 1
142 320 1
142 395 1
142 414 1
142 428 1
142 442 1
142 461 1
142 476 1
142 494 1
142 505 1
143 13 1
143 28 1
143 46 1
143 57 1
143 272 1
143 281 1
143 298 1
143 316 1
143 394 1
143 411 1
143 432 1
143 447 1
143 457 1
143 477 1
143 495 1
143 512 1
144 11 1
144 30 1
144 44 1
144 58 1
144 271 1
144 282 1
144 297 1
144 318 1
144 396 1
144 416 1
144 427 1
144 445 1
144 462 1
144 479 1
144 493 1
144 507 1
145 19 1
145 27 1
145 54 1
145 63 1
145 279 1
145 287 1
145 306 1
145 315 1
145 404 1
145 412 1
145 440 1
145 441 1
145 470 1
145 478 1
145 503 1
145 506 1
146 21 1
146 29 1
146 52 1
146 64 1
146 280 1
146 288 1
146 305 1
146 317 1
146 402 1
146 410 1
146 435 1
146 446 1
146 465 1
146 473 1
146 501 1
146 508 1
147 17 1
147 25 1
147 53 1
147 60 1
147 276 1
147 284 1
147 312 1
147 313 1
147 407 1
147 415 1
147 434 1
147 443 1
147 472 1
147 480 1
147 497 1
147 509 1
148 23 1
148 31 1
148 50 1
148 59 1
148 275 1
148 283 1
148 310 1
148 319 1
148 401 1
148 409 1
148 437 1
148 444 1
148 466 1
148 474 1
148 499 1
148 510 1
149 18 1
149 26 1
149 51 1
149 62 1
149 278 1
149 286 1
149 311 1
149 314 1
149 405 1
149 413 1
149 436 1
149 448 1
149 467 1
149 475 1
149 502 1
149 511 1
150 24 1
150 32 1
150 49 1
150 61 1
150 277 1
150 285 1
150 308 1
150 320 1
150 406 1
150 414 1
150 439 1
150 442 1
150 468 1
150 476 1
150 504 1
150 505 1
151 20 1
151 28 1
151 56 1
151 57 1
151 273 1
151 281 1
151 309 1
151 316 1
151 403 1
151 411 1
151 438 1
151 447 1
151 469 1
151 477 1
151 500 1
151 512 1
152 22 1
152 30 1
152 55 1
152 58 1
152 274 1
152 282 1
152 307 1
152 318 1
152 408 1
152 416 1
152 433 1
152 445 1
152 471 1
152 479 1
152 498 1
152 507 1
153 40 1
153 48 1
153 54 1
153 63 1
153 293 1
153 301 1
153 306 1
153 315 1
153 422 1
153 430 1
153 440 1
153 441 1
153 484 1
153 492 1
153 503 1
153 506 1
154 39 1
154 47 1
154 52 1
154 64 1
154 291 1
154 299 1
154 305 1
154 317 1
154 417 1
154 425 1
154 435 1
154 446 1
154 482 1
154 490 1
154 501 1
154 508 1
155 34 1
155 42 1
155 53 1
155 60 1
155 294 1
155 302 1
155 312 1
155 313 1
155 421 1
155 429 1
155 434 1
155 443 1
155 483 1
155 491 1
155 497 1
155 509 1
156 37 1
156 45 1
156 50 1
156 59 1
156 296 1
156 304 1
156 310 1
156 319 1
156 418 1
156 426 1
156 437 1
156 444 1
156 481 1
156 489 1
156 499 1
156 510 1
157 33 1
157 41 1
157 51 1
157 62 1
157 292 1
157 300 1
157 311 1
157 314 1
157 423 1
157 431 1
157 436 1
157 448 1
157 488 1
157 496 1
157 502 1
157 511 1
158 35 1
158 43 1
158 49 1
158 61 1
158 295 1
158 303 1
158 308 1
158 320 1
158 420 1
158 428 1
158 439 1
158 442 1
158 486 1
158 494 1
158 504 1
158 505 1
159 38 1
159 46 1
159 56 1
159 57 1
159 290 1
159 298 1
159 309 1
159 316 1
159 424 1
159 432 1
159 438 1
159 447 1
159 487 1
159 495 1
159 500 1
159 512 1
160 36 1
160 44 1
160 55 1
160 58 1
160 289 1
160 297 1
160 307 1
160 318 1
160 419 1
160 427 1
160 433 1
160 445 1
160 485 1
160 493 1
160 498 1
160 507 1
161 65 1
161 91 1
161 112 1
161 118 1
161 260 1
161 287 1
161 301 1
161 306 1
161 325 1
161 346 1
161 361 1
161 371 1
161 456 1
161 478 1
161 492 1
161 503 1
162 66 1
162 93 1
162 111 1
162 116 1
162 262 1
162 288 1
162 299 1
162 305 1
162 327 1
162 348 1
162 366 1
162 376 1
162 451 1
162 473 1
162 490 1
162 501 1
163 67 1
163 89 1
163 106 1
163 117 1
163 263 1
163 284 1
163 302 1
163 312 1
163 322 1
163 349 1
163 367 1
163 372 1
163 454 1
163 480 1
163 491 1
163 497 1
164 68 1
164 95 1
164 109 1
164 114 1
164 257 1
164 283 1
164 304 1
164 310 1
164 328 1
164 350 1
164 364 1
164 375 1
164 453 1
164 474 1
164 489 1
164 499 1
165 69 1
165 90 1
165 105 1
165 115 1
165 264 1
165 286 1
165 300 1
165 311 1
165 324 1
165 351 1
165 365 1
165 370 1
165 449 1
165 475 1
165 496 1
165 502 1
166 70 1
166 96 1
166 107 1
166 113 1
166 258 1
166 285 1
166 303 1
166 308 1
166 323 1
166 345 1
166 362 1
166 373 1
166 455 1
166 476 1
166 494 1
166 504 1
167 71 1
167 92 1
167 110 1
167 120 1
167 259 1
167 281 1
167 298 1
167 309 1
167 326 1
167 352 1
167 363 1
167 369 1
167 450 1
167 477 1
167 495 1
167 500 1
168 72 1
168 94 1
168 108 1
168 119 1
168 261 1
168 282 1
168 297 1
168 307 1
168 321 1
168 347 1
168 368 1
168 374 1
168 452 1
168 479 1
168 493 1
168 498 1
169 74 1
169 91 1
169 112 1
169 127 1
169 270 1
169 287 1
169 301 1
169 315 1
169 335 1
169 346 1
169 361 1
169 382 1
169 459 1
169 478 1
169 492 1
169 506 1
170 73 1
170 93 1
170 111 1
170 128 1
170 268 1
170 288 1
170 299 1
170 317 1
170 333 1
170 348 1
170 366 1
170 377 1
170 464 1
170 473 1
170 490 1
170 508 1
171 80 1
171 89 1
171 106 1
171 124 1
171 269 1
171 284 1
171 302 1
171 313 1
171 329 1
171 349 1
171 367 1
171 384 1
171 460 1
171 480 1
171 491 1
171 509 1
172 78 1
172 95 1
172 109 1
172 123 1
172 266 1
172 283 1
172 304 1
172 319 1
172 331 1
172 350 1
172 364 1
172 378 1
172 463 1
172 474 1
172 489 1
172 510 1
173 79 1
173 90 1
173 105 1
173 126 1
173 267 1
173 286 1
173 300 1
173 314 1
173 334 1
173 351 1
173 365 1
173 379 1
173 458 1
173 475 1
173 496 1
173 511 1
174 76 1
174 96 1
174 107 1
174 125 1
174 265 1
174 285 1
174 303 1
174 320 1
174 336 1
174 345 1
174 362 1
174 380 1
174 461 1
174 476 1
174 494 1
174 505 1
175 77 1
175 92 1
175 110 1
175 121 1
175 272 1
175 281 1
175 298 1
175 316 1
175 332 1
175 352 1
175 363 1
175 381 1
175 457 1
175 477 1
175 495 1
175 512 1
176 75 1
176 94 1
176 108 1
176 122 1
176 271 1
176 282 1
176 297 1
176 318 1
176 330 1
176 347 1
176 368 1
176 383 1
176 462 1
176 479 1
176 493 1
176 507 1
177 83 1
177 91 1
177 118 1
177 127 1
177 279 1
177 287 1
177 306 1
177 315 1
177 338 1
177 346 1
177 371 1
177 382 1
177 470 1
177 478 1
177 503 1
177 506 1
178 85 1
178 93 1
178 116 1
178 128 1
178 280 1
178 288 1
178 305 1
178 317 1
178 340 1
178 348 1
178 376 1
178 377 1
178 465 1
178 473 1
178 501 1
178 508 1
179 81 1
179 89 1
179 117 1
179 124 1
179 276 1
179 284 1
179 312 1
179 313 1
179 341 1
179 349 1
179 372 1
179 384 1
179 472 1
179 480 1
179 497 1
179 509 1
180 87 1
180 95 1
180 114 1
180 123 1
180 275 1
180 283 1
180 310 1
180 319 1
180 342 1
180 350 1
180 375 1
180 378 1
180 466 1
180 474 1
180 499 1
180 510 1
181 82 1
181 90 1
181 115 1
181 126 1
181 278 1
181 286 1
181 311 1
181 314 1
181 343 1
181 351 1
181 370 1
181 379 1
181 467 1
181 475 1
181 502 1
181 511 1
182 88 1
182 96 1
182 113 1
182 125 1
182 277 1
182 285 1
182 308 1
182 320 1
182 337 1
182 345 1
182 373 1
182 380 1
182 468 1
182 476 1
182 504 1
182 505 1
183 84 1
183 92 1
183 120 1
183 121 1
183 273 1
183 281 1
183 309 1
183 316 1
183 344 1
183 352 1
183 369 1
183 381 1
183 469 1
183 477 1
183 500 1
183 512 1
184 86 1
184 94 1
184 119 1
184 122 1
184 274 1
184 282 1
184 307 1
184 318 1
184 339 1
184 347 1
184 374 1
184 383 1
184 471 1
184 479 1
184 498 1
184 507 1
185 104 1
185 112 1
185 118 1
185 127 1
185 293 1
185 301 1
185 306 1
185 315 1
185 353 1
185 361 1
185 371 1
185 382 1
185 484 1
185 492 1
185 503 1
185 506 1
186 103 1
186 111 1
186 116 1
186 128 1
186 291 1
186 299 1
186 305 1
186 317 1
186 358 1
186 366 1
186 376 1
186 377 1
186 482 1
186 490 1
186 501 1
186 508 1
187 98 1
187 106 1
187 117 1
187 124 1
187 294 1
187 302 1
187 312 1
187 313 1
187 359 1
187 367 1
187 372 1
187 384 1
187 483 1
187 491 1
187 497 1
187 509 1
188 101 1
188 109 1
188 114 1
188 123 1
188 296 1
188 304 1
188 310 1
188 319 1
188 356 1
188 364 1
188 375 1
188 378 1
188 481 1
188 489 1
188 499 1
188 510 1
189 97 1
189 105 1
189 115 1
189 126 1
189 292 1
189 300 1
189 311 1
189 314 1
189 357 1
189 365 1
189 370 1
189 379 1
189 488 1
189 496 1
189 502 1
189 511 1
190 99 1
190 107 1
190 113 1
190 125 1
190 295 1
190 303 1
190 308 1
190 320 1
190 354 1
190 362 1
190 373 1
190 380 1
190 486 1
190 494 1
190 504 1
190 505 1
191 102 1
191 110 1
191 120 1
191 121 1
191 290 1
191 298 1
191 309 1
191 316 1
191 355 1
191 363 1
191 369 1
191 381 1
191 487 1
191 495 1
191 500 1
191 512 1
192 100 1
192 108 1
192 119 1
192 122 1
192 289 1
192 297 1
192 307 1
192 318 1
192 360 1
192 368 1
192 374 1
192 383 1
192 485 1
192 493 1
192 498 1
192 507 1
193 130 1
193 157 1
193 175 1
193 180 1
193 260 1
193 287 1
193 301 1
193 306 1
193 325 1
193 346 1
193 361 1
193 371 1
193 391 1
193 412 1
193 430 1
193 440 1
194 129 1
194 155 1
194 176 1
194 182 1
194 262 1
194 288 1
194 299 1
194 305 1
194 327 1
194 348 1
194 366 1
194 376 1
194 389 1
194 410 1
194 425 1
194 435 1
195 133 1
195 154 1
195 169 1
195 179 1
195 263 1
195 284 1
195 302 1
195 312 1
195 322 1
195 349 1
195 367 1
195 372 1
195 388 1
195 415 1
195 429 1
195 434 1
196 134 1
196 160 1
196 171 1
196 177 1
196 257 1
196 283 1
196 304 1
196 310 1
196 328 1
196 350 1
196 364 1
196 375 1
196 387 1
196 409 1
196 426 1
196 437 1
197 131 1
197 153 1
197 170 1
197 181 1
197 264 1
197 286 1
197 300 1
197 311 1
197 324 1
197 351 1
197 365 1
197 370 1
197 386 1
197 413 1
197 431 1
197 436 1
198 132 1
198 159 1
198 173 1
198 178 1
198 258 1
198 285 1
198 303 1
198 308 1
198 323 1
198 345 1
198 362 1
198 373 1
198 392 1
198 414 1
198 428 1
198 439 1
199 136 1
199 158 1
199 172 1
199 183 1
199 259 1
199 281 1
199 298 1
199 309 1
199 326 1
199 352 1
199 363 1
199 369 1
199 385 1
199 411 1
199 432 1
199 438 1
200 135 1
200 156 1
200 174 1
200 184 1
200 261 1
200 282 1
200 297 1
200 307 1
200 321 1
200 347 1
200 368 1
200 374 1
200 390 1
200 416 1
200 427 1
200 433 1
201 137 1
201 157 1
201 175 1
201 192 1
201 270 1
201 287 1
201 301 1
201 315 1
201 335 1
201 346 1
201 361 1
201 382 1
201 397 1
201 412 1
201 430 1
201 441 1
202 138 1
202 155 1
202 176 1
202 191 1
202 268 1
202 288 1
202 299 1
202 317 1
202 333 1
202 348 1
202 366 1
202 377 1
202 399 1
202 410 1
202 425 1
202 446 1
203 143 1
203 154 1
203 169 1
203 190 1
203 269 1
203 284 1
203 302 1
203 313 1
203 329 1
203 349 1
203 367 1
203 384 1
203 398 1
203 415 1
203 429 1
203 443 1
204 140 1
204 160 1
204 171 1
204 189 1
204 266 1
204 283 1
204 304 1
204 319 1
204 331 1
204 350 1
204 364 1
204 378 1
204 400 1
204 409 1
204 426 1
204 444 1
205 144 1
205 153 1
205 170 1
205 188 1
205 267 1
205 286 1
205 300 1
205 314 1
205 334 1
205 351 1
205 365 1
205 379 1
205 393 1
205 413 1
205 431 1
205 448 1
206 142 1
206 159 1
206 173 1
206 187 1
206 265 1
206 285 1
206 303 1
206 320 1
206 336 1
206 345 1
206 362 1
206 380 1
206 395 1
206 414 1
206 428 1
206 442 1
207 139 1
207 158 1
207 172 1
207 186 1
207 272 1
207 281 1
207 298 1
207 316 1
207 332 1
207 352 1
207 363 1
207 381 1
207 394 1
207 411 1
207 432 1
207 447 1
208 141 1
208 156 1
208 174 1
208 185 1
208 271 1
208 282 1
208 297 1
208 318 1
208 330 1
208 347 1
208 368 1
208 383 1
208 396 1
208 416 1
208 427 1
208 445 1
209 149 1
209 157 1
209 180 1
209 192 1
209 279 1
209 287 1
209 306 1
209 315 1
209 338 1
209 346 1
209 371 1
209 382 1
209 404 1
209 412 1
209 440 1
209 441 1
210 147 1
210 155 1
210 182 1
210 191 1
210 280 1
210 288 1
210 305 1
210 317 1
210 340 1
210 348 1
210 376 1
210 377 1
210 402 1
210 410 1
210 435 1
210 446 1
211 146 1
211 154 1
211 179 1
211 190 1
211 276 1
211 284 1
211 312 1
211 313 1
211 341 1
211 349 1
211 372 1
211 384 1
211 407 1
211 415 1
211 434 1
211 443 1
212 152 1
212 160 1
212 177 1
212 189 1
212 275 1
212 283 1
212 310 1
212 319 1
212 342 1
212 350 1
212 375 1
212 378 1
212 401 1
212 409 1
212 437 1
212 444 1
213 145 1
213 153 1
213 181 1
213 188 1
213 278 1
213 286 1
213 311 1
213 314 1
213 343 1
213 351 1
213 370 1
213 379 1
213 405 1
213 413 1
213 436 1
213 448 1
214 151 1
214 159 1
214 178 1
214 187 1
214 277 1
214 285 1
214 308 1
214 320 1
214 337 1
214 345 1
214 373 1
214 380 1
214 406 1
214 414 1
214 439 1
214 442 1
215 150 1
215 158 1
215 183 1
215 186 1
215 273 1
215 281 1
215 309 1
215 316 1
215 344 1
215 352 1
215 369 1
215 381 1
215 403 1
215 411 1
215 438 1
215 447 1
216 148 1
216 156 1
216 184 1
216 185 1
216 274 1
216 282 1
216 307 1
216 318 1
216 339 1
216 347 1
216 374 1
216 383 1
216 408 1
216 416 1
216 433 1
216 445 1
217 167 1
217 175 1
217 180 1
217 192 1
217 293 1
217 301 1
217 306 1
217 315 1
217 353 1
217 361 1
217 371 1
217 382 1
217 422 1
217 430 1
217 440 1
217 441 1
218 168 1
218 176 1
218 182 1
218 191 1
218 291 1
218 299 1
218 305 1
218 317 1
218 358 1
218 366 1
218 376 1
218 377 1
218 417 1
218 425 1
218 435 1
218 446 1
219 161 1
219 169 1
219 179 1
219 190 1
219 294 1
219 302 1
219 312 1
219 313 1
219 359 1
219 367 1
219 372 1
219 384 1
219 421 1
219 429 1
219 434 1
219 443 1
220 163 1
220 171 1
220 177 1
220 189 1
220 296 1
220 304 1
220 310 1
220 319 1
220 356 1
220 364 1
220 375 1
220 378 1
220 418 1
220 426 1
220 437 1
220 444 1
221 162 1
221 170 1
221 181 1
221 188 1
221 292 1
221 300 1
221 311 1
221 314 1
221 357 1
221 365 1
221 370 1
221 379 1
221 423 1
221 431 1
221 436 1
221 448 1
222 165 1
222 173 1
222 178 1
222 187 1
222 295 1
222 303 1
222 308 1
222 320 1
222 354 1
222 362 1
222 373 1
222 380 1
222 420 1
222 428 1
222 439 1
222 442 1
223 164 1
223 172 1
223 183 1
223 186 1
223 290 1
223 298 1
223 309 1
223 316 1
223 355 1
223 363 1
223 369 1
223 381 1
223 424 1
223 432 1
223 438 1
223 447 1
224 166 1
224 174 1
224 184 1
224 185 1
224 289 1
224 297 1
224 307 1
224 318 1
224 360 1
224 368 1
224 374 1
224 383 1
224 419 1
224 427 1
224 433 1
224 445 1
225 195 1
225 217 1
225 234 1
225 245 1
225 325 1
225 346 1
225 361 1
225 371 1
225 391 1
225 412 1
225 430 1
225 440 1
225 456 1
225 478 1
225 492 1
225 503 1
226 200 1
226 222 1
226 236 1
226 247 1
226 327 1
226 348 1
226 366 1
226 376 1
226 389 1
226 410 1
226 425 1
226 435 1
226 451 1
226 473 1
226 490 1
226 501 1
227 193 1
227 219 1
227 240 1
227 246 1
227 322 1
227 349 1
227 367 1
227 372 1
227 388 1
227 415 1
227 429 1
227 434 1
227 454 1
227 480 1
227 491 1
227 497 1
228 199 1
228 220 1
228 238 1
228 248 1
228 328 1
228 350 1
228 364 1
228 375 1
228 387 1
228 409 1
228 426 1
228 437 1
228 453 1
228 474 1
228 489 1
228 499 1
229 198 1
229 224 1
229 235 1
229 241 1
229 324 1
229 351 1
229 365 1
229 370 1
229 386 1
229 413 1
229 431 1
229 436 1
229 449 1
229 475 1
229 496 1
229 502 1
230 197 1
230 218 1
230 233 1
230 243 1
230 323 1
230 345 1
230 362 1
230 373 1
230 392 1
230 414 1
230 428 1
230 439 1
230 455 1
230 476 1
230 494 1
230 504 1
231 196 1
231 223 1
231 237 1
231 242 1
231 326 1
231 352 1
231 363 1
231 369 1
231 385 1
231 411 1
231 432 1
231 438 1
231 450 1
231 477 1
231 495 1
231 500 1
232 194 1
232 221 1
232 239 1
232 244 1
232 321 1
232 347 1
232 368 1
232 374 1
232 390 1
232 416 1
232 427 1
232 433 1
232 452 1
232 479 1
232 493 1
232 498 1
233 208 1
233 217 1
233 234 1
233 252 1
233 335 1
233 346 1
233 361 1
233 382 1
233 397 1
233 412 1
233 430 1
233 441 1
233 459 1
233 478 1
233 492 1
233 506 1
234 203 1
234 222 1
234 236 1
234 250 1
234 333 1
234 348 1
234 366 1
234 377 1
234 399 1
234 410 1
234 425 1
234 446 1
234 464 1
234 473 1
234 490 1
234 508 1
235 202 1
235 219 1
235 240 1
235 255 1
235 329 1
235 349 1
235 367 1
235 384 1
235 398 1
235 415 1
235 429 1
235 443 1
235 460 1
235 480 1
235 491 1
235 509 1
236 205 1
236 220 1
236 238 1
236 249 1
236 331 1
236 350 1
236 364 1
236 378 1
236 400 1
236 409 1
236 426 1
236 444 1
236 463 1
236 474 1
236 489 1
236 510 1
237 204 1
237 224 1
237 235 1
237 253 1
237 334 1
237 351 1
237 365 1
237 379 1
237 393 1
237 413 1
237 431 1
237 448 1
237 458 1
237 475 1
237 496 1
237 511 1
238 207 1
238 218 1
238 233 1
238 254 1
238 336 1
238 345 1
238 362 1
238 380 1
238 395 1
238 414 1
238 428 1
238 442 1
238 461 1
238 476 1
238 494 1
238 505 1
239 206 1
239 223 1
239 237 1
239 251 1
239 332 1
239 352 1
239 363 1
239 381 1
239 394 1
239 411 1
239 432 1
239 447 1
239 457 1
239 477 1
239 495 1
239 512 1
240 201 1
240 221 1
240 239 1
240 256 1
240 330 1
240 347 1
240 368 1
240 383 1
240 396 1
240 416 1
240 427 1
240 445 1
240 462 1
240 479 1
240 493 1
240 507 1
241 209 1
241 217 1
241 245 1
241 252 1
241 338 1
241 346 1
241 371 1
241 382 1
241 404 1
241 412 1
241 440 1
241 441 1
241 470 1
241 478 1
241 503 1
241 506 1
242 214 1
242 222 1
242 247 1
242 250 1
242 340 1
242 348 1
242 376 1
242 377 1
242 402 1
242 410 1
242 435 1
242 446 1
242 465 1
242 473 1
242 501 1
242 508 1
243 211 1
243 219 1
243 246 1
243 255 1
243 341 1
243 349 1
243 372 1
243 384 1
243 407 1
243 415 1
243 434 1
243 443 1
243 472 1
243 480 1
243 497 1
243 509 1
244 212 1
244 220 1
244 248 1
244 249 1
244 342 1
244 350 1
244 375 1
244 378 1
244 401 1
244 409 1
244 437 1
244 444 1
244 466 1
244 474 1
244 499 1
244 510 1
245 216 1
245 224 1
245 241 1
245 253 1
245 343 1
245 351 1
245 370 1
245 379 1
245 405 1
245 413 1
245 436 1
245 448 1
245 467 1
245 475 1
245 502 1
245 511 1
246 210 1
246 218 1
246 243 1
246 254 1
246 337 1
246 345 1
246 373 1
246 380 1
246 406 1
246 414 1
246 439 1
246 442 1
246 468 1
246 476 1
246 504 1
246 505 1
247 215 1
247 223 1
247 242 1
247 251 1
247 344 1
247 352 1
247 369 1
247 381 1
247 403 1
247 411 1
247 438 1
247 447 1
247 469 1
247 477 1
247 500 1
247 512 1
248 213 1
248 221 1
248 244 1
248 256 1
248 339 1
248 347 1
248 374 1
248 383 1
248 408 1
248 416 1
248 433 1
248 445 1
248 471 1
248 479 1
248 498 1
248 507 1
249 226 1
249 234 1
249 245 1
249 252 1
249 353 1
249 361 1
249 371 1
249 382 1
249 422 1
249 430 1
249 440 1
249 441 1
249 484 1
249 492 1
249 503 1
249 506 1
250 228 1
250 236 1
250 247 1
250 250 1
250 358 1
250 366 1
250 376 1
250 377 1
250 417 1
250 425 1
250 435 1
250 446 1
250 482 1
250 490 1
250 501 1
250 508 1
251 232 1
251 240 1
251 246 1
251 255 1
251 359 1
251 367 1
251 372 1
251 384 1
251 421 1
251 429 1
251 434 1
251 443 1
251 483 1
251 491 1
251 497 1
251 509 1
252 230 1
252 238 1
252 248 1
252 249 1
252 356 1
252 364 1
252 375 1
252 378 1
252 418 1
252 426 1
252 437 1
252 444 1
252 481 1
252 489 1
252 499 1
252 510 1
253 227 1
253 235 1
253 241 1
253 253 1
253 357 1
253 365 1
253 370 1
253 379 1
253 423 1
253 431 1
253 436 1
253 448 1
253 488 1
253 496 1
253 502 1
253 511 1
254 225 1
254 233 1
254 243 1
254 254 1
254 354 1
254 362 1
254 373 1
254 380 1
254 420 1
254 428 1
254 439 1
254 442 1
254 486 1
254 494 1
254 504 1
254 505 1
255 229 1
255 237 1
255 242 1
255 251 1
255 355 1
255 363 1
255 369 1
255 381 1
255 424 1
255 432 1
255 438 1
255 447 1
255 487 1
255 495 1
255 500 1
255 512 1
256 231 1
256 239 1
256 244 1
256 256 1
256 360 1
256 368 1
256 374 1
256 383 1
256 419 1
256 427 1
256 433 1
256 445 1
256 485 1
256 493 1
256 498 1
256 507 1
