%%MatrixMarket matrix coordinate integer general
288 576 2592
1 1 1
1 49 1
1 65 1
1 97 1
1 145 1
1 161 1
1 289 1
1 337 1
1 353 1
2 2 1
2 50 1
2 66 1
2 98 1
2 146 1
2 162 1
2 290 1
2 338 1
2 354 1
3 3 1
3 51 1
3 67 1
3 99 1
3 147 1
3 163 1
3 291 1
3 339 1
3 355 1
4 4 1
4 52 1
4 68 1
4 100 1
4 148 1
4 164 1
4 292 1
4 340 1
4 356 1
5 5 1
5 53 1
5 69 1
5 101 1
5 149 1
5 165 1
5 293 1
5 341 1
5 357 1
6 6 1
6 54 1
6 70 1
6 102 1
6 150 1
6 166 1
6 294 1
6 342 1
6 358 1
7 7 1
7 55 1
7 71 1
7 103 1
7 151 1
7 167 1
7 295 1
7 343 1
7 359 1
8 8 1
8 56 1
8 72 1
8 104 1
8 152 1
8 168 1
8 296 1
8 344 1
8 360 1
9 9 1
9 57 1
9 73 1
9 105 1
9 153 1
9 169 1
9 297 1
9 345 1
9 361 1
10 10 1
10 58 1
10 74 1
10 106 1
10 154 1
10 170 1
10 298 1
10 346 1
10 362 1
11 11 1
11 59 1
11 75 1
11 107 1
11 155 1
11 171 1
11 299 1
11 347 1
11 363 1
12 12 1
12 60 1
12 76 1
12 108 1
12 156 1
12 172 1
12 300 1
12 348 1
12 364 1
13 13 1
13 61 1
13 77 1
13 109 1
13 157 1
13 173 1
13 301 1
13 349 1
13 365 1
14 14 1
14 62 1
14 78 1
14 110 1
14 158 1
14 174 1
14 302 1
14 350 1
14 366 1
15 15 1
15 63 1
15 79 1
15 111 1
15 159 1
15 175 1
15 303 1
15 351 1
15 367 1
16 16 1
16 64 1
16 80 1
16 112 1
16 160 1
16 176 1
16 304 1
16 352 1
16 368 1
17 17 1
17 49 1
17 81 1
17 113 1
17 145 1
17 177 1
17 305 1
17 337 1
17 369 1
18 18 1
18 50 1
18 82 1
18 114 1
18 146 1
18 178 1
18 306 1
18 338 1
18 370 1
19 19 1
19 51 1
19 83 1
19 115 1
19 147 1
19 179 1
19 307 1
19 339 1
19 371 1
20 20 1
20 52 1
20 84 1
20 116 1
20 148 1
20 180 1
20 308 1
20 340 1
20 372 1
21 21 1
21 53 1
21 85 1
21 117 1
21 149 1
21 181 1
21 309 1
21 341 1
21 373 1
22 22 1
22 54 1
22 86 1
22 118 1
22 150 1
22 182 1
22 310 1
22 342 1
22 374 1
23 23 1
23 55 1
23 87 1
23 119 1
23 151 1
23 183 1
23 311 1
23 343 1
23 375 1
24 24 1
24 56 1
24 88 1
24 120 1
24 152 1
24 184 1
24 312 1
24 344 1
24 376 1
25 25 1
25 57 1
25 89 1
25 121 1
25 153 1
25 185 1
25 313 1
25 345 1
25 377 1
26 26 1
26 58 1
26 90 1
26 122 1
26 154 1
26 186 1
26 314 1
26 346 1
26 378 1
27 27 1
27 59 1
27 91 1
27 123 1
27 155 1
27 187 1
27 315 1
27 347 1
27 379 1
28 28 1
28 60 1
28 92 1
28 124 1
28 156 1
28 188 1
28 316 1
28 348 1
28 380 1
29 29 1
29 61 1
29 93 1
29 125 1
29 157 1
29 189 1
29 317 1
29 349 1
29 381 1
30 30 1
30 62 1
30 94 1
30 126 1
30 158 1
30 190 1
30 318 1
30 350 1
30 382 1
31 31 1
31 63 1
31 95 1
31 127 1
31 159 1
31 191 1
31 319 1
31 351 1
31 383 1
32 32 1
32 64 1
32 96 1
32 128 1
32 160 1
32 192 1
32 320 1
32 352 1
32 384 1
33 33 1
33 65 1
33 81 1
33 129 1
33 161 1
33 177 1
33 321 1
33 353 1
33 369 1
34 34 1
34 66 1
34 82 1
34 130 1
34 162 1
34 178 1
34 322 1
34 354 1
34 370 1
35 35 1
35 67 1
35 83 1
35 131 1
35 163 1
35 179 1
35 323 1
35 355 1
35 371 1
36 36 1
36 68 1
36 84 1
36 132 1
36 164 1
36 180 1
36 324 1
36 356 1
36 372 1
37 37 1
37 69 1
37 85 1
37 133 1
37 165 1
37 181 1
37 325 1
37 357 1
37 373 1
38 38 1
38 70 1
38 86 1
38 134 1
38 166 1
38 182 1
38 326 1
38 358 1
38 374 1
39 39 1
39 71 1
39 87 1
39 135 1
39 167 1
39 183 1
39 327 1
39 359 1
39 375 1
40 40 1
40 72 1
40 88 1
40 136 1
40 168 1
40 184 1
40 328 1
40 360 1
40 376 1
41 41 1
41 73 1
41 89 1
41 137 1
41 169 1
41 185 1
41 329 1
41 361 1
41 377 1
42 42 1
42 74 1
42 90 1
42 138 1
42 170 1
42 186 1
42 330 1
42 362 1
42 378 1
43 43 1
43 75 1
43 91 1
43 139 1
43 171 1
43 187 1
43 331 1
43 363 1
43 379 1
44 44 1
44 76 1
44 92 1
44 140 1
44 172 1
44 188 1
44 332 1
44 364 1
44 380 1
45 45 1
45 77 1
45 93 1
45 141 1
45 173 1
45 189 1
45 333 1
45 365 1
45 381 1
46 46 1
46 78 1
46 94 1
46 142 1
46 174 1
46 190 1
46 334 1
46 366 1
46 382 1
47 47 1
47 79 1
47 95 1
47 143 1
47 175 1
47 191 1
47 335 1
47 367 1
47 383 1
48 48 1
48 80 1
48 96 1
48 144 1
48 176 1
48 192 1
48 336 1
48 368 1
48 384 1
49 1 1
49 49 1
49 65 1
49 193 1
49 241 1
49 257 1
49 385 1
49 433 1
49 449 1
50 2 1
50 50 1
50 66 1
50 194 1
50 242 1
50 258 1
50 386 1
50 434 1
50 450 1
51 3 1
51 51 1
51 67 1
51 195 1
51 243 1
51 259 1
51 387 1
51 435 1
51 451 1
52 4 1
52 52 1
52 68 1
52 196 1
52 244 1
52 260 1
52 388 1
52 436 1
52 452 1
53 5 1
53 53 1
53 69 1
53 197 1
53 245 1
53 261 1
53 389 1
53 437 1
53 453 1
54 6 1
54 54 1
54 70 1
54 198 1
54 246 1
54 262 1
54 390 1
54 438 1
54 454 1
55 7 1
55 55 1
55 71 1
55 199 1
55 247 1
55 263 1
55 391 1
55 439 1
55 455 1
56 8 1
56 56 1
56 72 1
56 200 1
56 248 1
56 264 1
56 392 1
56 440 1
56 456 1
57 9 1
57 57 1
57 73 1
57 201 1
57 249 1
57 265 1
57 393 1
57 441 1
57 457 1
58 10 1
58 58 1
58 74 1
58 202 1
58 250 1
58 266 1
58 394 1
58 442 1
58 458 1
59 11 1
59 59 1
59 75 1
59 203 1
59 251 1
59 267 1
59 395 1
59 443 1
59 459 1
60 12 1
60 60 1
60 76 1
60 204 1
60 252 1
60 268 1
60 396 1
60 444 1
60 460 1
61 13 1
61 61 1
61 77 1
61 205 1
61 253 1
61 269 1
61 397 1
61 445 1
61 461 1
62 14 1
62 62 1
62 78 1
62 206 1
62 254 1
62 270 1
62 398 1
62 446 1
62 462 1
63 15 1
63 63 1
63 79 1
63 207 1
63 255 1
63 271 1
63 399 1
63 447 1
63 463 1
64 16 1
64 64 1
64 80 1
64 208 1
64 256 1
64 272 1
64 400 1
64 448 1
64 464 1
65 17 1
65 49 1
65 81 1
65 209 1
65 241 1
65 273 1
65 401 1
65 433 1
65 465 1
66 18 1
66 50 1
66 82 1
66 210 1
66 242 1
66 274 1
66 402 1
66 434 1
66 466 1
67 19 1
67 51 1
67 83 1
67 211 1
67 243 1
67 275 1
67 403 1
67 435 1
67 467 1
68 20 1
68 52 1
68 84 1
68 212 1
68 244 1
68 276 1
68 404 1
68 436 1
68 468 1
69 21 1
69 53 1
69 85 1
69 213 1
69 245 1
69 277 1
69 405 1
69 437 1
69 469 1
70 22 1
70 54 1
70 86 1
70 214 1
70 246 1
70 278 1
70 406 1
70 438 1
70 470 1
71 23 1
71 55 1
71 87 1
71 215 1
71 247 1
71 279 1
71 407 1
71 439 1
71 471 1
72 24 1
72 56 1
72 88 1
72 216 1
72 248 1
72 280 1
72 408 1
72 440 1
72 472 1
73 25 1
73 57 1
73 89 1
73 217 1
73 249 1
73 281 1
73 409 1
73 441 1
73 473 1
74 26 1
74 58 1
74 90 1
74 218 1
74 250 1
74 282 1
74 410 1
74 442 1
74 474 1
75 27 1
75 59 1
75 91 1
75 219 1
75 251 1
75 283 1
75 411 1
75 443 1
75 475 1
76 28 1
76 60 1
76 92 1
76 220 1
76 252 1
76 284 1
76 412 1
76 444 1
76 476 1
77 29 1
77 61 1
77 93 1
77 221 1
77 253 1
77 285 1
77 413 1
77 445 1
77 477 1
78 30 1
78 62 1
78 94 1
78 222 1
78 254 1
78 286 1
78 414 1
78 446 1
78 478 1
79 31 1
79 63 1
79 95 1
79 223 1
79 255 1
79 287 1
79 415 1
79 447 1
79 479 1
80 32 1
80 64 1
80 96 1
80 224 1
80 256 1
80 288 1
80 416 1
80 448 1
80 480 1
81 33 1
81 65 1
81 81 1
81 225 1
81 257 1
81 273 1
81 417 1
81 449 1
81 465 1
82 34 1
82 66 1
82 82 1
82 226 1
82 258 1
82 274 1
82 418 1
82 450 1
82 466 1
83 35 1
83 67 1
83 83 1
83 227 1
83 259 1
83 275 1
83 419 1
83 451 1
83 467 1
84 36 1
84 68 1
84 84 1
84 228 1
84 260 1
84 276 1
84 420 1
84 452 1
84 468 1
85 37 1
85 69 1
85 85 1
85 229 1
85 261 1
85 277 1
85 421 1
85 453 1
85 469 1
86 38 1
86 70 1
86 86 1
86 230 1
86 262 1
86 278 1
86 422 1
86 454 1
86 470 1
87 39 1
87 71 1
87 87 1
87 231 1
87 263 1
87 279 1
87 423 1
87 455 1
87 471 1
88 40 1
88 72 1
88 88 1
88 232 1
88 264 1
88 280 1
88 424 1
88 456 1
88 472 1
89 41 1
89 73 1
89 89 1
89 233 1
89 265 1
89 281 1
89 425 1
89 457 1
89 473 1
90 42 1
90 74 1
90 90 1
90 234 1
90 266 1
90 282 1
90 426 1
90 458 1
90 474 1
91 43 1
91 75 1
91 91 1
91 235 1
91 267 1
91 283 1
91 427 1
91 459 1
91 475 1
92 44 1
92 76 1
92 92 1
92 236 1
92 268 1
92 284 1
92 428 1
92 460 1
92 476 1
93 45 1
93 77 1
93 93 1
93 237 1
93 269 1
93 285 1
93 429 1
93 461 1
93 477 1
94 46 1
94 78 1
94 94 1
94 238 1
94 270 1
94 286 1
94 430 1
94 462 1
94 478 1
95 47 1
95 79 1
95 95 1
95 239 1
95 271 1
95 287 1
95 431 1
95 463 1
95 479 1
96 48 1
96 80 1
96 96 1
96 240 1
96 272 1
96 288 1
96 432 1
96 464 1
96 480 1
97 97 1
97 145 1
97 161 1
97 193 1
97 241 1
97 257 1
97 481 1
97 529 1
97 545 1
98 98 1
98 146 1
98 162 1
98 194 1
98 242 1
98 258 1
98 482 1
98 530 1
98 546 1
99 99 1
99 147 1
99 163 1
99 195 1
99 243 1
99 259 1
99 483 1
99 531 1
99 547 1
100 100 1
100 148 1
100 164 1
100 196 1
100 244 1
100 260 1
100 484 1
100 532 1
100 548 1
101 101 1
101 149 1
101 165 1
101 197 1
101 245 1
101 261 1
101 485 1
101 533 1
101 549 1
102 102 1
102 150 1
102 166 1
102 198 1
102 246 1
102 262 1
102 486 1
102 534 1
102 550 1
103 103 1
103 151 1
103 167 1
103 199 1
103 247 1
103 263 1
103 487 1
103 535 1
103 551 1
104 104 1
104 152 1
104 168 1
104 200 1
104 248 1
104 264 1
104 488 1
104 536 1
104 552 1
105 105 1
105 153 1
105 169 1
105 201 1
105 249 1
105 265 1
105 489 1
105 537 1
105 553 1
106 106 1
106 154 1
106 170 1
106 202 1
106 250 1
106 266 1
106 490 1
106 538 1
106 554 1
107 107 1
107 155 1
107 171 1
107 203 1
107 251 1
107 267 1
107 491 1
107 539 1
107 555 1
108 108 1
108 156 1
108 172 1
108 204 1
108 252 1
108 268 1
108 492 1
108 540 1
108 556 1
109 109 1
109 157 1
109 173 1
109 205 1
109 253 1
109 269 1
109 493 1
109 541 1
109 557 1
110 110 1
110 158 1
110 174 1
110 206 1
110 254 1
110 270 1
110 494 1
110 542 1
110 558 1
111 111 1
111 159 1
111 175 1
111 207 1
111 255 1
111 271 1
111 495 1
111 543 1
111 559 1
112 112 1
112 160 1
112 176 1
112 208 1
112 256 1
112 272 1
112 496 1
112 544 1
112 560 1
113 113 1
113 145 1
113 177 1
113 209 1
113 241 1
113 273 1
113 497 1
113 529 1
113 561 1
114 114 1
114 146 1
114 178 1
114 210 1
114 242 1
114 274 1
114 498 1
114 530 1
114 562 1
115 115 1
115 147 1
115 179 1
115 211 1
115 243 1
115 275 1
115 499 1
115 531 1
115 563 1
116 116 1
116 148 1
116 180 1
116 212 1
116 244 1
116 276 1
116 500 1
116 532 1
116 564 1
117 117 1
117 149 1
117 181 1
117 213 1
117 245 1
117 277 1
117 501 1
117 533 1
117 565 1
118 118 1
118 150 1
118 182 1
118 214 1
118 246 1
118 278 1
118 502 1
118 534 1
118 566 1
119 119 1
119 151 1
119 183 1
119 215 1
119 247 1
119 279 1
119 503 1
119 535 1
119 567 1
120 120 1
120 152 1
120 184 1
120 216 1
120 248 1
120 280 1
120 504 1
120 536 1
120 568 1
121 121 1
121 153 1
121 185 1
121 217 1
121 249 1
121 281 1
121 505 1
121 537 1
121 569 1
122 122 1
122 154 1
122 186 1
122 218 1
122 250 1
122 282 1
122 506 1
122 538 1
122 570 1
123 123 1
123 155 1
123 187 1
123 219 1
123 251 1
123 283 1
123 507 1
123 539 1
123 571 1
124 124 1
124 156 1
124 188 1
124 220 1
124 252 1
124 284 1
124 508 1
124 540 1
124 572 1
125 125 1
125 157 1
125 189 1
125 221 1
125 253 1
125 285 1
125 509 1
125 541 1
125 573 1
126 126 1
126 158 1
126 190 1
126 222 1
126 254 1
126 286 1
126 510 1
126 542 1
126 574 1
127 127 1
127 159 1
127 191 1
127 223 1
127 255 1
127 287 1
127 511 1
127 543 1
127 575 1
128 128 1
128 160 1
128 192 1
128 224 1
128 256 1
128 288 1
128 512 1
128 544 1
128 576 1
129 129 1
129 161 1
129 177 1
129 225 1
129 257 1
129 273 1
129 513 1
129 545 1
129 561 1
130 130 1
130 162 1
130 178 1
130 226 1
130 258 1
130 274 1
130 514 1
130 546 1
130 562 1
131 131 1
131 163 1
131 179 1
131 227 1
131 259 1
131 275 1
131 515 1
131 547 1
131 563 1
132 132 1
132 164 1
132 180 1
132 228 1
132 260 1
132 276 1
132 516 1
132 548 1
132 564 1
133 133 1
133 165 1
133 181 1
133 229 1
133 261 1
133 277 1
133 517 1
133 549 1
133 565 1
134 134 1
134 166 1
134 182 1
134 230 1
134 262 1
134 278 1
134 518 1
134 550 1
134 566 1
135 135 1
135 167 1
135 183 1
135 231 1
135 263 1
135 279 1
135 519 1
135 551 1
135 567 1
136 136 1
136 168 1
136 184 1
136 232 1
136 264 1
136 280 1
136 520 1
136 552 1
136 568 1
137 137 1
137 169 1
137 185 1
137 233 1
137 265 1
137 281 1
137 521 1
137 553 1
137 569 1
138 138 1
138 170 1
138 186 1
138 234 1
138 266 1
138 282 1
138 522 1
138 554 1
138 570 1
139 139 1
139 171 1
139 187 1
139 235 1
139 267 1
139 283 1
139 523 1
139 555 1
139 571 1
140 140 1
140 172 1
140 188 1
140 236 1
140 268 1
140 284 1
140 524 1
140 556 1
140 572 1
141 141 1
141 173 1
141 189 1
141 237 1
141 269 1
141 285 1
141 525 1
141 557 1
141 573 1
142 142 1
142 174 1
142 190 1
142 238 1
142 270 1
142 286 1
142 526 1
142 558 1
142 574 1
143 143 1
143 175 1
143 191 1
143 239 1
143 271 1
143 287 1
143 527 1
143 559 1
143 575 1
144 144 1
144 176 1
144 192 1
144 240 1
144 272 1
144 288 1
144 528 1
144 560 1
144 576 1
145 1 1
145 73 1
145 82 1
145 102 1
145 168 1
145 180 1
145 494 1
145 550 1
145 575 1
146 2 1
146 76 1
146 83 1
146 100 1
146 170 1
146 183 1
146 495 1
146 548 1
146 576 1
147 3 1
147 69 1
147 86 1
147 103 1
147 173 1
147 185 1
147 496 1
147 551 1
147 561 1
148 4 1
148 74 1
148 87 1
148 108 1
148 174 1
148 181 1
148 482 1
148 556 1
148 563 1
149 5 1
149 79 1
149 88 1
149 109 1
149 162 1
149 187 1
149 487 1
149 557 1
149 569 1
150 6 1
150 72 1
150 84 1
150 105 1
150 171 1
150 188 1
150 481 1
150 553 1
150 562 1
151 7 1
151 77 1
151 89 1
151 101 1
151 175 1
151 184 1
151 483 1
151 549 1
151 566 1
152 8 1
152 80 1
152 90 1
152 107 1
152 163 1
152 190 1
152 489 1
152 555 1
152 572 1
153 9 1
153 75 1
153 92 1
153 104 1
153 176 1
153 186 1
153 486 1
153 552 1
153 564 1
154 10 1
154 65 1
154 93 1
154 110 1
154 166 1
154 191 1
154 492 1
154 558 1
154 565 1
155 11 1
155 67 1
155 94 1
155 112 1
155 167 1
155 177 1
155 488 1
155 560 1
155 570 1
156 12 1
156 78 1
156 85 1
156 106 1
156 161 1
156 189 1
156 484 1
156 554 1
156 567 1
157 13 1
157 66 1
157 91 1
157 111 1
157 164 1
157 192 1
157 485 1
157 559 1
157 568 1
158 14 1
158 70 1
158 95 1
158 97 1
158 169 1
158 178 1
158 490 1
158 545 1
158 573 1
159 15 1
159 68 1
159 96 1
159 98 1
159 172 1
159 179 1
159 493 1
159 546 1
159 571 1
160 16 1
160 71 1
160 81 1
160 99 1
160 165 1
160 182 1
160 491 1
160 547 1
160 574 1
161 31 1
161 62 1
161 82 1
161 114 1
161 145 1
161 180 1
161 509 1
161 538 1
161 575 1
162 32 1
162 63 1
162 83 1
162 115 1
162 146 1
162 183 1
162 507 1
162 541 1
162 576 1
163 17 1
163 64 1
163 86 1
163 118 1
163 147 1
163 185 1
163 510 1
163 539 1
163 561 1
164 19 1
164 50 1
164 87 1
164 119 1
164 148 1
164 181 1
164 512 1
164 543 1
164 563 1
165 25 1
165 55 1
165 88 1
165 120 1
165 149 1
165 187 1
165 502 1
165 531 1
165 569 1
166 18 1
166 49 1
166 84 1
166 116 1
166 150 1
166 188 1
166 511 1
166 542 1
166 562 1
167 22 1
167 51 1
167 89 1
167 121 1
167 151 1
167 184 1
167 497 1
167 544 1
167 566 1
168 28 1
168 57 1
168 90 1
168 122 1
168 152 1
168 190 1
168 500 1
168 534 1
168 572 1
169 20 1
169 54 1
169 92 1
169 124 1
169 153 1
169 186 1
169 498 1
169 529 1
169 564 1
170 21 1
170 60 1
170 93 1
170 125 1
170 154 1
170 191 1
170 503 1
170 532 1
170 565 1
171 26 1
171 56 1
171 94 1
171 126 1
171 155 1
171 177 1
171 508 1
171 537 1
171 570 1
172 23 1
172 52 1
172 85 1
172 117 1
172 156 1
172 189 1
172 499 1
172 530 1
172 567 1
173 24 1
173 53 1
173 91 1
173 123 1
173 157 1
173 192 1
173 505 1
173 535 1
173 568 1
174 29 1
174 58 1
174 95 1
174 127 1
174 158 1
174 178 1
174 501 1
174 540 1
174 573 1
175 27 1
175 61 1
175 96 1
175 128 1
175 159 1
175 179 1
175 504 1
175 533 1
175 571 1
176 30 1
176 59 1
176 81 1
176 113 1
176 160 1
176 182 1
176 506 1
176 536 1
176 574 1
177 37 1
177 62 1
177 73 1
177 141 1
177 145 1
177 168 1
177 519 1
177 538 1
177 550 1
178 40 1
178 63 1
178 76 1
178 139 1
178 146 1
178 170 1
178 521 1
178 541 1
178 548 1
179 42 1
179 64 1
179 69 1
179 142 1
179 147 1
179 173 1
179 524 1
179 539 1
179 551 1
180 43 1
180 50 1
180 74 1
180 144 1
180 148 1
180 174 1
180 520 1
180 543 1
180 556 1
181 33 1
181 55 1
181 79 1
181 134 1
181 149 1
181 162 1
181 526 1
181 531 1
181 557 1
182 45 1
182 49 1
182 72 1
182 143 1
182 150 1
182 171 1
182 517 1
182 542 1
182 553 1
183 46 1
183 51 1
183 77 1
183 129 1
183 151 1
183 175 1
183 522 1
183 544 1
183 549 1
184 34 1
184 57 1
184 80 1
184 132 1
184 152 1
184 163 1
184 527 1
184 534 1
184 555 1
185 47 1
185 54 1
185 75 1
185 130 1
185 153 1
185 176 1
185 525 1
185 529 1
185 552 1
186 35 1
186 60 1
186 65 1
186 135 1
186 154 1
186 166 1
186 528 1
186 532 1
186 558 1
187 36 1
187 56 1
187 67 1
187 140 1
187 155 1
187 167 1
187 514 1
187 537 1
187 560 1
188 48 1
188 52 1
188 78 1
188 131 1
188 156 1
188 161 1
188 523 1
188 530 1
188 554 1
189 38 1
189 53 1
189 66 1
189 137 1
189 157 1
189 164 1
189 513 1
189 535 1
189 559 1
190 39 1
190 58 1
190 70 1
190 133 1
190 158 1
190 169 1
190 515 1
190 540 1
190 545 1
191 41 1
191 61 1
191 68 1
191 136 1
191 159 1
191 172 1
191 518 1
191 533 1
191 546 1
192 44 1
192 59 1
192 71 1
192 138 1
192 160 1
192 165 1
192 516 1
192 536 1
192 547 1
193 1 1
193 73 1
193 82 1
193 297 1
193 363 1
193 380 1
193 397 1
193 450 1
193 475 1
194 2 1
194 76 1
194 83 1
194 300 1
194 366 1
194 373 1
194 395 1
194 451 1
194 478 1
195 3 1
195 69 1
195 86 1
195 293 1
195 367 1
195 376 1
195 398 1
195 454 1
195 479 1
196 4 1
196 74 1
196 87 1
196 298 1
196 353 1
196 381 1
196 400 1
196 455 1
196 465 1
197 5 1
197 79 1
197 88 1
197 303 1
197 356 1
197 384 1
197 390 1
197 456 1
197 468 1
198 6 1
198 72 1
198 84 1
198 296 1
198 368 1
198 378 1
198 399 1
198 452 1
198 480 1
199 7 1
199 77 1
199 89 1
199 301 1
199 354 1
199 379 1
199 385 1
199 457 1
199 466 1
200 8 1
200 80 1
200 90 1
200 304 1
200 359 1
200 369 1
200 388 1
200 458 1
200 471 1
201 9 1
201 75 1
201 92 1
201 299 1
201 355 1
201 382 1
201 386 1
201 460 1
201 467 1
202 10 1
202 65 1
202 93 1
202 289 1
202 361 1
202 370 1
202 391 1
202 461 1
202 473 1
203 11 1
203 67 1
203 94 1
203 291 1
203 357 1
203 374 1
203 396 1
203 462 1
203 469 1
204 12 1
204 78 1
204 85 1
204 302 1
204 358 1
204 383 1
204 387 1
204 453 1
204 470 1
205 13 1
205 66 1
205 91 1
205 290 1
205 364 1
205 371 1
205 393 1
205 459 1
205 476 1
206 14 1
206 70 1
206 95 1
206 294 1
206 360 1
206 372 1
206 389 1
206 463 1
206 472 1
207 15 1
207 68 1
207 96 1
207 292 1
207 362 1
207 375 1
207 392 1
207 464 1
207 474 1
208 16 1
208 71 1
208 81 1
208 295 1
208 365 1
208 377 1
208 394 1
208 449 1
208 477 1
209 31 1
209 62 1
209 82 1
209 308 1
209 342 1
209 380 1
209 408 1
209 437 1
209 475 1
210 32 1
210 63 1
210 83 1
210 311 1
210 340 1
210 373 1
210 410 1
210 440 1
210 478 1
211 17 1
211 64 1
211 86 1
211 313 1
211 343 1
211 376 1
211 413 1
211 442 1
211 479 1
212 19 1
212 50 1
212 87 1
212 309 1
212 348 1
212 381 1
212 414 1
212 443 1
212 465 1
213 25 1
213 55 1
213 88 1
213 315 1
213 349 1
213 384 1
213 402 1
213 433 1
213 468 1
214 18 1
214 49 1
214 84 1
214 316 1
214 345 1
214 378 1
214 411 1
214 445 1
214 480 1
215 22 1
215 51 1
215 89 1
215 312 1
215 341 1
215 379 1
215 415 1
215 446 1
215 466 1
216 28 1
216 57 1
216 90 1
216 318 1
216 347 1
216 369 1
216 403 1
216 434 1
216 471 1
217 20 1
217 54 1
217 92 1
217 314 1
217 344 1
217 382 1
217 416 1
217 447 1
217 467 1
218 21 1
218 60 1
218 93 1
218 319 1
218 350 1
218 370 1
218 406 1
218 435 1
218 473 1
219 26 1
219 56 1
219 94 1
219 305 1
219 352 1
219 374 1
219 407 1
219 436 1
219 469 1
220 23 1
220 52 1
220 85 1
220 317 1
220 346 1
220 383 1
220 401 1
220 448 1
220 470 1
221 24 1
221 53 1
221 91 1
221 320 1
221 351 1
221 371 1
221 404 1
221 438 1
221 476 1
222 29 1
222 58 1
222 95 1
222 306 1
222 337 1
222 372 1
222 409 1
222 439 1
222 472 1
223 27 1
223 61 1
223 96 1
223 307 1
223 338 1
223 375 1
223 412 1
223 441 1
223 474 1
224 30 1
224 59 1
224 81 1
224 310 1
224 339 1
224 377 1
224 405 1
224 444 1
224 477 1
225 37 1
225 62 1
225 73 1
225 335 1
225 342 1
225 363 1
225 422 1
225 437 1
225 450 1
226 40 1
226 63 1
226 76 1
226 336 1
226 340 1
226 366 1
226 420 1
226 440 1
226 451 1
227 42 1
227 64 1
227 69 1
227 321 1
227 343 1
227 367 1
227 423 1
227 442 1
227 454 1
228 43 1
228 50 1
228 74 1
228 323 1
228 348 1
228 353 1
228 428 1
228 443 1
228 455 1
229 33 1
229 55 1
229 79 1
229 329 1
229 349 1
229 356 1
229 429 1
229 433 1
229 456 1
230 45 1
230 49 1
230 72 1
230 322 1
230 345 1
230 368 1
230 425 1
230 445 1
230 452 1
231 46 1
231 51 1
231 77 1
231 326 1
231 341 1
231 354 1
231 421 1
231 446 1
231 457 1
232 34 1
232 57 1
232 80 1
232 332 1
232 347 1
232 359 1
232 427 1
232 434 1
232 458 1
233 47 1
233 54 1
233 75 1
233 324 1
233 344 1
233 355 1
233 424 1
233 447 1
233 460 1
234 35 1
234 60 1
234 65 1
234 325 1
234 350 1
234 361 1
234 430 1
234 435 1
234 461 1
235 36 1
235 56 1
235 67 1
235 330 1
235 352 1
235 357 1
235 432 1
235 436 1
235 462 1
236 48 1
236 52 1
236 78 1
236 327 1
236 346 1
236 358 1
236 426 1
236 448 1
236 453 1
237 38 1
237 53 1
237 66 1
237 328 1
237 351 1
237 364 1
237 431 1
237 438 1
237 459 1
238 39 1
238 58 1
238 70 1
238 333 1
238 337 1
238 360 1
238 417 1
238 439 1
238 463 1
239 41 1
239 61 1
239 68 1
239 331 1
239 338 1
239 362 1
239 418 1
239 441 1
239 464 1
240 44 1
240 59 1
240 71 1
240 334 1
240 339 1
240 365 1
240 419 1
240 444 1
240 449 1
241 102 1
241 168 1
241 180 1
241 200 1
241 272 1
241 282 1
241 297 1
241 363 1
241 380 1
242 100 1
242 170 1
242 183 1
242 202 1
242 257 1
242 285 1
242 300 1
242 366 1
242 373 1
243 103 1
243 173 1
243 185 1
243 205 1
243 258 1
243 283 1
243 293 1
243 367 1
243 376 1
244 108 1
244 174 1
244 181 1
244 206 1
244 262 1
244 287 1
244 298 1
244 353 1
244 381 1
245 109 1
245 162 1
245 187 1
245 194 1
245 268 1
245 275 1
245 303 1
245 356 1
245 384 1
246 105 1
246 171 1
246 188 1
246 203 1
246 259 1
246 286 1
246 296 1
246 368 1
246 378 1
247 101 1
247 175 1
247 184 1
247 207 1
247 260 1
247 288 1
247 301 1
247 354 1
247 379 1
248 107 1
248 163 1
248 190 1
248 195 1
248 261 1
248 278 1
248 304 1
248 359 1
248 369 1
249 104 1
249 176 1
249 186 1
249 208 1
249 263 1
249 273 1
249 299 1
249 355 1
249 382 1
250 110 1
250 166 1
250 191 1
250 198 1
250 264 1
250 276 1
250 289 1
250 361 1
250 370 1
251 112 1
251 167 1
251 177 1
251 199 1
251 269 1
251 281 1
251 291 1
251 357 1
251 374 1
252 106 1
252 161 1
252 189 1
252 193 1
252 265 1
252 274 1
252 302 1
252 358 1
252 383 1
253 111 1
253 164 1
253 192 1
253 196 1
253 266 1
253 279 1
253 290 1
253 364 1
253 371 1
254 97 1
254 169 1
254 178 1
254 201 1
254 267 1
254 284 1
254 294 1
254 360 1
254 372 1
255 98 1
255 172 1
255 179 1
255 204 1
255 270 1
255 277 1
255 292 1
255 362 1
255 375 1
256 99 1
256 165 1
256 182 1
256 197 1
256 271 1
256 280 1
256 295 1
256 365 1
256 377 1
257 114 1
257 145 1
257 180 1
257 220 1
257 249 1
257 282 1
257 308 1
257 342 1
257 380 1
258 115 1
258 146 1
258 183 1
258 213 1
258 252 1
258 285 1
258 311 1
258 340 1
258 373 1
259 118 1
259 147 1
259 185 1
259 216 1
259 245 1
259 283 1
259 313 1
259 343 1
259 376 1
260 119 1
260 148 1
260 181 1
260 221 1
260 250 1
260 287 1
260 309 1
260 348 1
260 381 1
261 120 1
261 149 1
261 187 1
261 224 1
261 255 1
261 275 1
261 315 1
261 349 1
261 384 1
262 116 1
262 150 1
262 188 1
262 218 1
262 248 1
262 286 1
262 316 1
262 345 1
262 378 1
263 121 1
263 151 1
263 184 1
263 219 1
263 253 1
263 288 1
263 312 1
263 341 1
263 379 1
264 122 1
264 152 1
264 190 1
264 209 1
264 256 1
264 278 1
264 318 1
264 347 1
264 369 1
265 124 1
265 153 1
265 186 1
265 222 1
265 251 1
265 273 1
265 314 1
265 344 1
265 382 1
266 125 1
266 154 1
266 191 1
266 210 1
266 241 1
266 276 1
266 319 1
266 350 1
266 370 1
267 126 1
267 155 1
267 177 1
267 214 1
267 243 1
267 281 1
267 305 1
267 352 1
267 374 1
268 117 1
268 156 1
268 189 1
268 223 1
268 254 1
268 274 1
268 317 1
268 346 1
268 383 1
269 123 1
269 157 1
269 192 1
269 211 1
269 242 1
269 279 1
269 320 1
269 351 1
269 371 1
270 127 1
270 158 1
270 178 1
270 212 1
270 246 1
270 284 1
270 306 1
270 337 1
270 372 1
271 128 1
271 159 1
271 179 1
271 215 1
271 244 1
271 277 1
271 307 1
271 338 1
271 375 1
272 113 1
272 160 1
272 182 1
272 217 1
272 247 1
272 280 1
272 310 1
272 339 1
272 377 1
273 141 1
273 145 1
273 168 1
273 226 1
273 249 1
273 272 1
273 335 1
273 342 1
273 363 1
274 139 1
274 146 1
274 170 1
274 227 1
274 252 1
274 257 1
274 336 1
274 340 1
274 366 1
275 142 1
275 147 1
275 173 1
275 230 1
275 245 1
275 258 1
275 321 1
275 343 1
275 367 1
276 144 1
276 148 1
276 174 1
276 231 1
276 250 1
276 262 1
276 323 1
276 348 1
276 353 1
277 134 1
277 149 1
277 162 1
277 232 1
277 255 1
277 268 1
277 329 1
277 349 1
277 356 1
278 143 1
278 150 1
278 171 1
278 228 1
278 248 1
278 259 1
278 322 1
278 345 1
278 368 1
279 129 1
279 151 1
279 175 1
279 233 1
279 253 1
279 260 1
279 326 1
279 341 1
279 354 1
280 132 1
280 152 1
280 163 1
280 234 1
280 256 1
280 261 1
280 332 1
280 347 1
280 359 1
281 130 1
281 153 1
281 176 1
281 236 1
281 251 1
281 263 1
281 324 1
281 344 1
281 355 1
282 135 1
282 154 1
282 166 1
282 237 1
282 241 1
282 264 1
282 325 1
282 350 1
282 361 1
283 140 1
283 155 1
283 167 1
283 238 1
283 243 1
283 269 1
283 330 1
283 352 1
283 357 1
284 131 1
284 156 1
284 161 1
284 229 1
284 254 1
284 265 1
284 327 1
284 346 1
284 358 1
285 137 1
285 157 1
285 164 1
285 235 1
285 242 1
285 266 1
285 328 1
285 351 1
285 364 1
286 133 1
286 158 1
286 169 1
286 239 1
286 246 1
286 267 1
286 333 1
286 337 1
286 360 1
287 136 1
287 159 1
287 172 1
287 240 1
287 244 1
287 270 1
287 331 1
287 338 1
287 362 1
288 138 1
288 160 1
288 165 1
288 225 1
288 247 1
288 271 1
288 334 1
288 339 1
288 365 1
