%%MatrixMarket matrix coordinate integer general
270 540 2430
1 1 1
1 19 1
1 54 1
1 271 1
1 289 1
1 324 1
1 361 1
1 379 1
1 414 1
2 2 1
2 16 1
2 56 1
2 272 1
2 286 1
2 326 1
2 362 1
2 376 1
2 416 1
3 3 1
3 22 1
3 57 1
3 273 1
3 292 1
3 327 1
3 363 1
3 382 1
3 417 1
4 4 1
4 17 1
4 58 1
4 274 1
4 287 1
4 328 1
4 364 1
4 377 1
4 418 1
5 5 1
5 18 1
5 59 1
5 275 1
5 288 1
5 329 1
5 365 1
5 378 1
5 419 1
6 6 1
6 25 1
6 46 1
6 276 1
6 295 1
6 316 1
6 366 1
6 385 1
6 406 1
7 7 1
7 20 1
7 60 1
7 277 1
7 290 1
7 330 1
7 367 1
7 380 1
7 420 1
8 8 1
8 21 1
8 47 1
8 278 1
8 291 1
8 317 1
8 368 1
8 381 1
8 407 1
9 9 1
9 28 1
9 48 1
9 279 1
9 298 1
9 318 1
9 369 1
9 388 1
9 408 1
10 10 1
10 23 1
10 49 1
10 280 1
10 293 1
10 319 1
10 370 1
10 383 1
10 409 1
11 11 1
11 24 1
11 50 1
11 281 1
11 294 1
11 320 1
11 371 1
11 384 1
11 410 1
12 12 1
12 30 1
12 51 1
12 282 1
12 300 1
12 321 1
12 372 1
12 390 1
12 411 1
13 13 1
13 26 1
13 52 1
13 283 1
13 296 1
13 322 1
13 373 1
13 386 1
13 412 1
14 14 1
14 27 1
14 53 1
14 284 1
14 297 1
14 323 1
14 374 1
14 387 1
14 413 1
15 15 1
15 29 1
15 55 1
15 285 1
15 299 1
15 325 1
15 375 1
15 389 1
15 415 1
16 1 1
16 39 1
16 71 1
16 271 1
16 309 1
16 341 1
16 361 1
16 399 1
16 431 1
17 2 1
17 41 1
17 73 1
17 272 1
17 311 1
17 343 1
17 362 1
17 401 1
17 433 1
18 3 1
18 42 1
18 74 1
18 273 1
18 312 1
18 344 1
18 363 1
18 402 1
18 434 1
19 4 1
19 43 1
19 69 1
19 274 1
19 313 1
19 339 1
19 364 1
19 403 1
19 429 1
20 5 1
20 44 1
20 75 1
20 275 1
20 314 1
20 345 1
20 365 1
20 404 1
20 435 1
21 6 1
21 31 1
21 62 1
21 276 1
21 301 1
21 332 1
21 366 1
21 391 1
21 422 1
22 7 1
22 45 1
22 72 1
22 277 1
22 315 1
22 342 1
22 367 1
22 405 1
22 432 1
23 8 1
23 32 1
23 64 1
23 278 1
23 302 1
23 334 1
23 368 1
23 392 1
23 424 1
24 9 1
24 33 1
24 65 1
24 279 1
24 303 1
24 335 1
24 369 1
24 393 1
24 425 1
25 10 1
25 34 1
25 61 1
25 280 1
25 304 1
25 331 1
25 370 1
25 394 1
25 421 1
26 11 1
26 35 1
26 67 1
26 281 1
26 305 1
26 337 1
26 371 1
26 395 1
26 427 1
27 12 1
27 36 1
27 68 1
27 282 1
27 306 1
27 338 1
27 372 1
27 396 1
27 428 1
28 13 1
28 37 1
28 63 1
28 283 1
28 307 1
28 333 1
28 373 1
28 397 1
28 423 1
29 14 1
29 38 1
29 70 1
29 284 1
29 308 1
29 340 1
29 374 1
29 398 1
29 430 1
30 15 1
30 40 1
30 66 1
30 285 1
30 310 1
30 336 1
30 375 1
30 400 1
30 426 1
31 19 1
31 39 1
31 85 1
31 289 1
31 309 1
31 355 1
31 379 1
31 399 1
31 445 1
32 16 1
32 41 1
32 81 1
32 286 1
32 311 1
32 351 1
32 376 1
32 401 1
32 441 1
33 22 1
33 42 1
33 88 1
33 292 1
33 312 1
33 358 1
33 382 1
33 402 1
33 448 1
34 17 1
34 43 1
34 83 1
34 287 1
34 313 1
34 353 1
34 377 1
34 403 1
34 443 1
35 18 1
35 44 1
35 84 1
35 288 1
35 314 1
35 354 1
35 378 1
35 404 1
35 444 1
36 25 1
36 31 1
36 90 1
36 295 1
36 301 1
36 360 1
36 385 1
36 391 1
36 450 1
37 20 1
37 45 1
37 86 1
37 290 1
37 315 1
37 356 1
37 380 1
37 405 1
37 446 1
38 21 1
38 32 1
38 87 1
38 291 1
38 302 1
38 357 1
38 381 1
38 392 1
38 447 1
39 28 1
39 33 1
39 79 1
39 298 1
39 303 1
39 349 1
39 388 1
39 393 1
39 439 1
40 23 1
40 34 1
40 89 1
40 293 1
40 304 1
40 359 1
40 383 1
40 394 1
40 449 1
41 24 1
41 35 1
41 76 1
41 294 1
41 305 1
41 346 1
41 384 1
41 395 1
41 436 1
42 30 1
42 36 1
42 82 1
42 300 1
42 306 1
42 352 1
42 390 1
42 396 1
42 442 1
43 26 1
43 37 1
43 77 1
43 296 1
43 307 1
43 347 1
43 386 1
43 397 1
43 437 1
44 27 1
44 38 1
44 78 1
44 297 1
44 308 1
44 348 1
44 387 1
44 398 1
44 438 1
45 29 1
45 40 1
45 80 1
45 299 1
45 310 1
45 350 1
45 389 1
45 400 1
45 440 1
46 91 1
46 109 1
46 144 1
46 271 1
46 289 1
46 324 1
46 451 1
46 469 1
46 504 1
47 92 1
47 106 1
47 146 1
47 272 1
47 286 1
47 326 1
47 452 1
47 466 1
47 506 1
48 93 1
48 112 1
48 147 1
48 273 1
48 292 1
48 327 1
48 453 1
48 472 1
48 507 1
49 94 1
49 107 1
49 148 1
49 274 1
49 287 1
49 328 1
49 454 1
49 467 1
49 508 1
50 95 1
50 108 1
50 149 1
50 275 1
50 288 1
50 329 1
50 455 1
50 468 1
50 509 1
51 96 1
51 115 1
51 136 1
51 276 1
51 295 1
51 316 1
51 456 1
51 475 1
51 496 1
52 97 1
52 110 1
52 150 1
52 277 1
52 290 1
52 330 1
52 457 1
52 470 1
52 510 1
53 98 1
53 111 1
53 137 1
53 278 1
53 291 1
53 317 1
53 458 1
53 471 1
53 497 1
54 99 1
54 118 1
54 138 1
54 279 1
54 298 1
54 318 1
54 459 1
54 478 1
54 498 1
55 100 1
55 113 1
55 139 1
55 280 1
55 293 1
55 319 1
55 460 1
55 473 1
55 499 1
56 101 1
56 114 1
56 140 1
56 281 1
56 294 1
56 320 1
56 461 1
56 474 1
56 500 1
57 102 1
57 120 1
57 141 1
57 282 1
57 300 1
57 321 1
57 462 1
57 480 1
57 501 1
58 103 1
58 116 1
58 142 1
58 283 1
58 296 1
58 322 1
58 463 1
58 476 1
58 502 1
59 104 1
59 117 1
59 143 1
59 284 1
59 297 1
59 323 1
59 464 1
59 477 1
59 503 1
60 105 1
60 119 1
60 145 1
60 285 1
60 299 1
60 325 1
60 465 1
60 479 1
60 505 1
61 91 1
61 129 1
61 161 1
61 271 1
61 309 1
61 341 1
61 451 1
61 489 1
61 521 1
62 92 1
62 131 1
62 163 1
62 272 1
62 311 1
62 343 1
62 452 1
62 491 1
62 523 1
63 93 1
63 132 1
63 164 1
63 273 1
63 312 1
63 344 1
63 453 1
63 492 1
63 524 1
64 94 1
64 133 1
64 159 1
64 274 1
64 313 1
64 339 1
64 454 1
64 493 1
64 519 1
65 95 1
65 134 1
65 165 1
65 275 1
65 314 1
65 345 1
65 455 1
65 494 1
65 525 1
66 96 1
66 121 1
66 152 1
66 276 1
66 301 1
66 332 1
66 456 1
66 481 1
66 512 1
67 97 1
67 135 1
67 162 1
67 277 1
67 315 1
67 342 1
67 457 1
67 495 1
67 522 1
68 98 1
68 122 1
68 154 1
68 278 1
68 302 1
68 334 1
68 458 1
68 482 1
68 514 1
69 99 1
69 123 1
69 155 1
69 279 1
69 303 1
69 335 1
69 459 1
69 483 1
69 515 1
70 100 1
70 124 1
70 151 1
70 280 1
70 304 1
70 331 1
70 460 1
70 484 1
70 511 1
71 101 1
71 125 1
71 157 1
71 281 1
71 305 1
71 337 1
71 461 1
71 485 1
71 517 1
72 102 1
72 126 1
72 158 1
72 282 1
72 306 1
72 338 1
72 462 1
72 486 1
72 518 1
73 103 1
73 127 1
73 153 1
73 283 1
73 307 1
73 333 1
73 463 1
73 487 1
73 513 1
74 104 1
74 128 1
74 160 1
74 284 1
74 308 1
74 340 1
74 464 1
74 488 1
74 520 1
75 105 1
75 130 1
75 156 1
75 285 1
75 310 1
75 336 1
75 465 1
75 490 1
75 516 1
76 109 1
76 129 1
76 175 1
76 289 1
76 309 1
76 355 1
76 469 1
76 489 1
76 535 1
77 106 1
77 131 1
77 171 1
77 286 1
77 311 1
77 351 1
77 466 1
77 491 1
77 531 1
78 112 1
78 132 1
78 178 1
78 292 1
78 312 1
78 358 1
78 472 1
78 492 1
78 538 1
79 107 1
79 133 1
79 173 1
79 287 1
79 313 1
79 353 1
79 467 1
79 493 1
79 533 1
80 108 1
80 134 1
80 174 1
80 288 1
80 314 1
80 354 1
80 468 1
80 494 1
80 534 1
81 115 1
81 121 1
81 180 1
81 295 1
81 301 1
81 360 1
81 475 1
81 481 1
81 540 1
82 110 1
82 135 1
82 176 1
82 290 1
82 315 1
82 356 1
82 470 1
82 495 1
82 536 1
83 111 1
83 122 1
83 177 1
83 291 1
83 302 1
83 357 1
83 471 1
83 482 1
83 537 1
84 118 1
84 123 1
84 169 1
84 298 1
84 303 1
84 349 1
84 478 1
84 483 1
84 529 1
85 113 1
85 124 1
85 179 1
85 293 1
85 304 1
85 359 1
85 473 1
85 484 1
85 539 1
86 114 1
86 125 1
86 166 1
86 294 1
86 305 1
86 346 1
86 474 1
86 485 1
86 526 1
87 120 1
87 126 1
87 172 1
87 300 1
87 306 1
87 352 1
87 480 1
87 486 1
87 532 1
88 116 1
88 127 1
88 167 1
88 296 1
88 307 1
88 347 1
88 476 1
88 487 1
88 527 1
89 117 1
89 128 1
89 168 1
89 297 1
89 308 1
89 348 1
89 477 1
89 488 1
89 528 1
90 119 1
90 130 1
90 170 1
90 299 1
90 310 1
90 350 1
90 479 1
90 490 1
90 530 1
91 181 1
91 199 1
91 234 1
91 361 1
91 379 1
91 414 1
91 451 1
91 469 1
91 504 1
92 182 1
92 196 1
92 236 1
92 362 1
92 376 1
92 416 1
92 452 1
92 466 1
92 506 1
93 183 1
93 202 1
93 237 1
93 363 1
93 382 1
93 417 1
93 453 1
93 472 1
93 507 1
94 184 1
94 197 1
94 238 1
94 364 1
94 377 1
94 418 1
94 454 1
94 467 1
94 508 1
95 185 1
95 198 1
95 239 1
95 365 1
95 378 1
95 419 1
95 455 1
95 468 1
95 509 1
96 186 1
96 205 1
96 226 1
96 366 1
96 385 1
96 406 1
96 456 1
96 475 1
96 496 1
97 187 1
97 200 1
97 240 1
97 367 1
97 380 1
97 420 1
97 457 1
97 470 1
97 510 1
98 188 1
98 201 1
98 227 1
98 368 1
98 381 1
98 407 1
98 458 1
98 471 1
98 497 1
99 189 1
99 208 1
99 228 1
99 369 1
99 388 1
99 408 1
99 459 1
99 478 1
99 498 1
100 190 1
100 203 1
100 229 1
100 370 1
100 383 1
100 409 1
100 460 1
100 473 1
100 499 1
101 191 1
101 204 1
101 230 1
101 371 1
101 384 1
101 410 1
101 461 1
101 474 1
101 500 1
102 192 1
102 210 1
102 231 1
102 372 1
102 390 1
102 411 1
102 462 1
102 480 1
102 501 1
103 193 1
103 206 1
103 232 1
103 373 1
103 386 1
103 412 1
103 463 1
103 476 1
103 502 1
104 194 1
104 207 1
104 233 1
104 374 1
104 387 1
104 413 1
104 464 1
104 477 1
104 503 1
105 195 1
105 209 1
105 235 1
105 375 1
105 389 1
105 415 1
105 465 1
105 479 1
105 505 1
106 181 1
106 219 1
106 251 1
106 361 1
106 399 1
106 431 1
106 451 1
106 489 1
106 521 1
107 182 1
107 221 1
107 253 1
107 362 1
107 401 1
107 433 1
107 452 1
107 491 1
107 523 1
108 183 1
108 222 1
108 254 1
108 363 1
108 402 1
108 434 1
108 453 1
108 492 1
108 524 1
109 184 1
109 223 1
109 249 1
109 364 1
109 403 1
109 429 1
109 454 1
109 493 1
109 519 1
110 185 1
110 224 1
110 255 1
110 365 1
110 404 1
110 435 1
110 455 1
110 494 1
110 525 1
111 186 1
111 211 1
111 242 1
111 366 1
111 391 1
111 422 1
111 456 1
111 481 1
111 512 1
112 187 1
112 225 1
112 252 1
112 367 1
112 405 1
112 432 1
112 457 1
112 495 1
112 522 1
113 188 1
113 212 1
113 244 1
113 368 1
113 392 1
113 424 1
113 458 1
113 482 1
113 514 1
114 189 1
114 213 1
114 245 1
114 369 1
114 393 1
114 425 1
114 459 1
114 483 1
114 515 1
115 190 1
115 214 1
115 241 1
115 370 1
115 394 1
115 421 1
115 460 1
115 484 1
115 511 1
116 191 1
116 215 1
116 247 1
116 371 1
116 395 1
116 427 1
116 461 1
116 485 1
116 517 1
117 192 1
117 216 1
117 248 1
117 372 1
117 396 1
117 428 1
117 462 1
117 486 1
117 518 1
118 193 1
118 217 1
118 243 1
118 373 1
118 397 1
118 423 1
118 463 1
118 487 1
118 513 1
119 194 1
119 218 1
119 250 1
119 374 1
119 398 1
119 430 1
119 464 1
119 488 1
119 520 1
120 195 1
120 220 1
120 246 1
120 375 1
120 400 1
120 426 1
120 465 1
120 490 1
120 516 1
121 199 1
121 219 1
121 265 1
121 379 1
121 399 1
121 445 1
121 469 1
121 489 1
121 535 1
122 196 1
122 221 1
122 261 1
122 376 1
122 401 1
122 441 1
122 466 1
122 491 1
122 531 1
123 202 1
123 222 1
123 268 1
123 382 1
123 402 1
123 448 1
123 472 1
123 492 1
123 538 1
124 197 1
124 223 1
124 263 1
124 377 1
124 403 1
124 443 1
124 467 1
124 493 1
124 533 1
125 198 1
125 224 1
125 264 1
125 378 1
125 404 1
125 444 1
125 468 1
125 494 1
125 534 1
126 205 1
126 211 1
126 270 1
126 385 1
126 391 1
126 450 1
126 475 1
126 481 1
126 540 1
127 200 1
127 225 1
127 266 1
127 380 1
127 405 1
127 446 1
127 470 1
127 495 1
127 536 1
128 201 1
128 212 1
128 267 1
128 381 1
128 392 1
128 447 1
128 471 1
128 482 1
128 537 1
129 208 1
129 213 1
129 259 1
129 388 1
129 393 1
129 439 1
129 478 1
129 483 1
129 529 1
130 203 1
130 214 1
130 269 1
130 383 1
130 394 1
130 449 1
130 473 1
130 484 1
130 539 1
131 204 1
131 215 1
131 256 1
131 384 1
131 395 1
131 436 1
131 474 1
131 485 1
131 526 1
132 210 1
132 216 1
132 262 1
132 390 1
132 396 1
132 442 1
132 480 1
132 486 1
132 532 1
133 206 1
133 217 1
133 257 1
133 386 1
133 397 1
133 437 1
133 476 1
133 487 1
133 527 1
134 207 1
134 218 1
134 258 1
134 387 1
134 398 1
134 438 1
134 477 1
134 488 1
134 528 1
135 209 1
135 220 1
135 260 1
135 389 1
135 400 1
135 440 1
135 479 1
135 490 1
135 530 1
136 1 1
136 16 1
136 46 1
136 274 1
136 289 1
136 319 1
136 463 1
136 478 1
136 508 1
137 2 1
137 17 1
137 47 1
137 271 1
137 286 1
137 316 1
137 459 1
137 474 1
137 504 1
138 3 1
138 18 1
138 48 1
138 277 1
138 292 1
138 322 1
138 465 1
138 480 1
138 510 1
139 4 1
139 19 1
139 49 1
139 272 1
139 287 1
139 317 1
139 461 1
139 476 1
139 506 1
140 5 1
140 20 1
140 50 1
140 273 1
140 288 1
140 318 1
140 462 1
140 477 1
140 507 1
141 6 1
141 21 1
141 51 1
141 280 1
141 295 1
141 325 1
141 454 1
141 469 1
141 499 1
142 7 1
142 22 1
142 52 1
142 275 1
142 290 1
142 320 1
142 464 1
142 479 1
142 509 1
143 8 1
143 23 1
143 53 1
143 276 1
143 291 1
143 321 1
143 451 1
143 466 1
143 496 1
144 9 1
144 24 1
144 54 1
144 283 1
144 298 1
144 328 1
144 457 1
144 472 1
144 502 1
145 10 1
145 25 1
145 55 1
145 278 1
145 293 1
145 323 1
145 452 1
145 467 1
145 497 1
146 11 1
146 26 1
146 56 1
146 279 1
146 294 1
146 324 1
146 453 1
146 468 1
146 498 1
147 12 1
147 27 1
147 57 1
147 285 1
147 300 1
147 330 1
147 460 1
147 475 1
147 505 1
148 13 1
148 28 1
148 58 1
148 281 1
148 296 1
148 326 1
148 455 1
148 470 1
148 500 1
149 14 1
149 29 1
149 59 1
149 282 1
149 297 1
149 327 1
149 456 1
149 471 1
149 501 1
150 15 1
150 30 1
150 60 1
150 284 1
150 299 1
150 329 1
150 458 1
150 473 1
150 503 1
151 1 1
151 31 1
151 61 1
151 274 1
151 304 1
151 334 1
151 463 1
151 493 1
151 523 1
152 2 1
152 32 1
152 62 1
152 271 1
152 301 1
152 331 1
152 459 1
152 489 1
152 519 1
153 3 1
153 33 1
153 63 1
153 277 1
153 307 1
153 337 1
153 465 1
153 495 1
153 525 1
154 4 1
154 34 1
154 64 1
154 272 1
154 302 1
154 332 1
154 461 1
154 491 1
154 521 1
155 5 1
155 35 1
155 65 1
155 273 1
155 303 1
155 333 1
155 462 1
155 492 1
155 522 1
156 6 1
156 36 1
156 66 1
156 280 1
156 310 1
156 340 1
156 454 1
156 484 1
156 514 1
157 7 1
157 37 1
157 67 1
157 275 1
157 305 1
157 335 1
157 464 1
157 494 1
157 524 1
158 8 1
158 38 1
158 68 1
158 276 1
158 306 1
158 336 1
158 451 1
158 481 1
158 511 1
159 9 1
159 39 1
159 69 1
159 283 1
159 313 1
159 343 1
159 457 1
159 487 1
159 517 1
160 10 1
160 40 1
160 70 1
160 278 1
160 308 1
160 338 1
160 452 1
160 482 1
160 512 1
161 11 1
161 41 1
161 71 1
161 279 1
161 309 1
161 339 1
161 453 1
161 483 1
161 513 1
162 12 1
162 42 1
162 72 1
162 285 1
162 315 1
162 345 1
162 460 1
162 490 1
162 520 1
163 13 1
163 43 1
163 73 1
163 281 1
163 311 1
163 341 1
163 455 1
163 485 1
163 515 1
164 14 1
164 44 1
164 74 1
164 282 1
164 312 1
164 342 1
164 456 1
164 486 1
164 516 1
165 15 1
165 45 1
165 75 1
165 284 1
165 314 1
165 344 1
165 458 1
165 488 1
165 518 1
166 16 1
166 31 1
166 76 1
166 289 1
166 304 1
166 349 1
166 478 1
166 493 1
166 538 1
167 17 1
167 32 1
167 77 1
167 286 1
167 301 1
167 346 1
167 474 1
167 489 1
167 534 1
168 18 1
168 33 1
168 78 1
168 292 1
168 307 1
168 352 1
168 480 1
168 495 1
168 540 1
169 19 1
169 34 1
169 79 1
169 287 1
169 302 1
169 347 1
169 476 1
169 491 1
169 536 1
170 20 1
170 35 1
170 80 1
170 288 1
170 303 1
170 348 1
170 477 1
170 492 1
170 537 1
171 21 1
171 36 1
171 81 1
171 295 1
171 310 1
171 355 1
171 469 1
171 484 1
171 529 1
172 22 1
172 37 1
172 82 1
172 290 1
172 305 1
172 350 1
172 479 1
172 494 1
172 539 1
173 23 1
173 38 1
173 83 1
173 291 1
173 306 1
173 351 1
173 466 1
173 481 1
173 526 1
174 24 1
174 39 1
174 84 1
174 298 1
174 313 1
174 358 1
174 472 1
174 487 1
174 532 1
175 25 1
175 40 1
175 85 1
175 293 1
175 308 1
175 353 1
175 467 1
175 482 1
175 527 1
176 26 1
176 41 1
176 86 1
176 294 1
176 309 1
176 354 1
176 468 1
176 483 1
176 528 1
177 27 1
177 42 1
177 87 1
177 300 1
177 315 1
177 360 1
177 475 1
177 490 1
177 535 1
178 28 1
178 43 1
178 88 1
178 296 1
178 311 1
178 356 1
178 470 1
178 485 1
178 530 1
179 29 1
179 44 1
179 89 1
179 297 1
179 312 1
179 357 1
179 471 1
179 486 1
179 531 1
180 30 1
180 45 1
180 90 1
180 299 1
180 314 1
180 359 1
180 473 1
180 488 1
180 533 1
181 93 1
181 108 1
181 138 1
181 184 1
181 199 1
181 229 1
181 463 1
181 478 1
181 508 1
182 95 1
182 110 1
182 140 1
182 181 1
182 196 1
182 226 1
182 459 1
182 474 1
182 504 1
183 96 1
183 111 1
183 141 1
183 187 1
183 202 1
183 232 1
183 465 1
183 480 1
183 510 1
184 97 1
184 112 1
184 142 1
184 182 1
184 197 1
184 227 1
184 461 1
184 476 1
184 506 1
185 98 1
185 113 1
185 143 1
185 183 1
185 198 1
185 228 1
185 462 1
185 477 1
185 507 1
186 99 1
186 114 1
186 144 1
186 190 1
186 205 1
186 235 1
186 454 1
186 469 1
186 499 1
187 100 1
187 115 1
187 145 1
187 185 1
187 200 1
187 230 1
187 464 1
187 479 1
187 509 1
188 101 1
188 116 1
188 146 1
188 186 1
188 201 1
188 231 1
188 451 1
188 466 1
188 496 1
189 102 1
189 117 1
189 147 1
189 193 1
189 208 1
189 238 1
189 457 1
189 472 1
189 502 1
190 103 1
190 118 1
190 148 1
190 188 1
190 203 1
190 233 1
190 452 1
190 467 1
190 497 1
191 104 1
191 119 1
191 149 1
191 189 1
191 204 1
191 234 1
191 453 1
191 468 1
191 498 1
192 91 1
192 106 1
192 136 1
192 195 1
192 210 1
192 240 1
192 460 1
192 475 1
192 505 1
193 105 1
193 120 1
193 150 1
193 191 1
193 206 1
193 236 1
193 455 1
193 470 1
193 500 1
194 92 1
194 107 1
194 137 1
194 192 1
194 207 1
194 237 1
194 456 1
194 471 1
194 501 1
195 94 1
195 109 1
195 139 1
195 194 1
195 209 1
195 239 1
195 458 1
195 473 1
195 503 1
196 93 1
196 123 1
196 153 1
196 184 1
196 214 1
196 244 1
196 463 1
196 493 1
196 523 1
197 95 1
197 125 1
197 155 1
197 181 1
197 211 1
197 241 1
197 459 1
197 489 1
197 519 1
198 96 1
198 126 1
198 156 1
198 187 1
198 217 1
198 247 1
198 465 1
198 495 1
198 525 1
199 97 1
199 127 1
199 157 1
199 182 1
199 212 1
199 242 1
199 461 1
199 491 1
199 521 1
200 98 1
200 128 1
200 158 1
200 183 1
200 213 1
200 243 1
200 462 1
200 492 1
200 522 1
201 99 1
201 129 1
201 159 1
201 190 1
201 220 1
201 250 1
201 454 1
201 484 1
201 514 1
202 100 1
202 130 1
202 160 1
202 185 1
202 215 1
202 245 1
202 464 1
202 494 1
202 524 1
203 101 1
203 131 1
203 161 1
203 186 1
203 216 1
203 246 1
203 451 1
203 481 1
203 511 1
204 102 1
204 132 1
204 162 1
204 193 1
204 223 1
204 253 1
204 457 1
204 487 1
204 517 1
205 103 1
205 133 1
205 163 1
205 188 1
205 218 1
205 248 1
205 452 1
205 482 1
205 512 1
206 104 1
206 134 1
206 164 1
206 189 1
206 219 1
206 249 1
206 453 1
206 483 1
206 513 1
207 91 1
207 121 1
207 151 1
207 195 1
207 225 1
207 255 1
207 460 1
207 490 1
207 520 1
208 105 1
208 135 1
208 165 1
208 191 1
208 221 1
208 251 1
208 455 1
208 485 1
208 515 1
209 92 1
209 122 1
209 152 1
209 192 1
209 222 1
209 252 1
209 456 1
209 486 1
209 516 1
210 94 1
210 124 1
210 154 1
210 194 1
210 224 1
210 254 1
210 458 1
210 488 1
210 518 1
211 108 1
211 123 1
211 168 1
211 199 1
211 214 1
211 259 1
211 478 1
211 493 1
211 538 1
212 110 1
212 125 1
212 170 1
212 196 1
212 211 1
212 256 1
212 474 1
212 489 1
212 534 1
213 111 1
213 126 1
213 171 1
213 202 1
213 217 1
213 262 1
213 480 1
213 495 1
213 540 1
214 112 1
214 127 1
214 172 1
214 197 1
214 212 1
214 257 1
214 476 1
214 491 1
214 536 1
215 113 1
215 128 1
215 173 1
215 198 1
215 213 1
215 258 1
215 477 1
215 492 1
215 537 1
216 114 1
216 129 1
216 174 1
216 205 1
216 220 1
216 265 1
216 469 1
216 484 1
216 529 1
217 115 1
217 130 1
217 175 1
217 200 1
217 215 1
217 260 1
217 479 1
217 494 1
217 539 1
218 116 1
218 131 1
218 176 1
218 201 1
218 216 1
218 261 1
218 466 1
218 481 1
218 526 1
219 117 1
219 132 1
219 177 1
219 208 1
219 223 1
219 268 1
219 472 1
219 487 1
219 532 1
220 118 1
220 133 1
220 178 1
220 203 1
220 218 1
220 263 1
220 467 1
220 482 1
220 527 1
221 119 1
221 134 1
221 179 1
221 204 1
221 219 1
221 264 1
221 468 1
221 483 1
221 528 1
222 106 1
222 121 1
222 166 1
222 210 1
222 225 1
222 270 1
222 475 1
222 490 1
222 535 1
223 120 1
223 135 1
223 180 1
223 206 1
223 221 1
223 266 1
223 470 1
223 485 1
223 530 1
224 107 1
224 122 1
224 167 1
224 207 1
224 222 1
224 267 1
224 471 1
224 486 1
224 531 1
225 109 1
225 124 1
225 169 1
225 209 1
225 224 1
225 269 1
225 473 1
225 488 1
225 533 1
226 93 1
226 108 1
226 138 1
226 274 1
226 289 1
226 319 1
226 365 1
226 380 1
226 410 1
227 95 1
227 110 1
227 140 1
227 271 1
227 286 1
227 316 1
227 367 1
227 382 1
227 412 1
228 96 1
228 111 1
228 141 1
228 277 1
228 292 1
228 322 1
228 368 1
228 383 1
228 413 1
229 97 1
229 112 1
229 142 1
229 272 1
229 287 1
229 317 1
229 363 1
229 378 1
229 408 1
230 98 1
230 113 1
230 143 1
230 273 1
230 288 1
230 318 1
230 370 1
230 385 1
230 415 1
231 99 1
231 114 1
231 144 1
231 280 1
231 295 1
231 325 1
231 371 1
231 386 1
231 416 1
232 100 1
232 115 1
232 145 1
232 275 1
232 290 1
232 320 1
232 366 1
232 381 1
232 411 1
233 101 1
233 116 1
233 146 1
233 276 1
233 291 1
233 321 1
233 373 1
233 388 1
233 418 1
234 102 1
234 117 1
234 147 1
234 283 1
234 298 1
234 328 1
234 374 1
234 389 1
234 419 1
235 103 1
235 118 1
235 148 1
235 278 1
235 293 1
235 323 1
235 369 1
235 384 1
235 414 1
236 104 1
236 119 1
236 149 1
236 279 1
236 294 1
236 324 1
236 375 1
236 390 1
236 420 1
237 91 1
237 106 1
237 136 1
237 285 1
237 300 1
237 330 1
237 362 1
237 377 1
237 407 1
238 105 1
238 120 1
238 150 1
238 281 1
238 296 1
238 326 1
238 372 1
238 387 1
238 417 1
239 92 1
239 107 1
239 137 1
239 282 1
239 297 1
239 327 1
239 364 1
239 379 1
239 409 1
240 94 1
240 109 1
240 139 1
240 284 1
240 299 1
240 329 1
240 361 1
240 376 1
240 406 1
241 93 1
241 123 1
241 153 1
241 274 1
241 304 1
241 334 1
241 365 1
241 395 1
241 425 1
242 95 1
242 125 1
242 155 1
242 271 1
242 301 1
242 331 1
242 367 1
242 397 1
242 427 1
243 96 1
243 126 1
243 156 1
243 277 1
243 307 1
243 337 1
243 368 1
243 398 1
243 428 1
244 97 1
244 127 1
244 157 1
244 272 1
244 302 1
244 332 1
244 363 1
244 393 1
244 423 1
245 98 1
245 128 1
245 158 1
245 273 1
245 303 1
245 333 1
245 370 1
245 400 1
245 430 1
246 99 1
246 129 1
246 159 1
246 280 1
246 310 1
246 340 1
246 371 1
246 401 1
246 431 1
247 100 1
247 130 1
247 160 1
247 275 1
247 305 1
247 335 1
247 366 1
247 396 1
247 426 1
248 101 1
248 131 1
248 161 1
248 276 1
248 306 1
248 336 1
248 373 1
248 403 1
248 433 1
249 102 1
249 132 1
249 162 1
249 283 1
249 313 1
249 343 1
249 374 1
249 404 1
249 434 1
250 103 1
250 133 1
250 163 1
250 278 1
250 308 1
250 338 1
250 369 1
250 399 1
250 429 1
251 104 1
251 134 1
251 164 1
251 279 1
251 309 1
251 339 1
251 375 1
251 405 1
251 435 1
252 91 1
252 121 1
252 151 1
252 285 1
252 315 1
252 345 1
252 362 1
252 392 1
252 422 1
253 105 1
253 135 1
253 165 1
253 281 1
253 311 1
253 341 1
253 372 1
253 402 1
253 432 1
254 92 1
254 122 1
254 152 1
254 282 1
254 312 1
254 342 1
254 364 1
254 394 1
254 424 1
255 94 1
255 124 1
255 154 1
255 284 1
255 314 1
255 344 1
255 361 1
255 391 1
255 421 1
256 108 1
256 123 1
256 168 1
256 289 1
256 304 1
256 349 1
256 380 1
256 395 1
256 440 1
257 110 1
257 125 1
257 170 1
257 286 1
257 301 1
257 346 1
257 382 1
257 397 1
257 442 1
258 111 1
258 126 1
258 171 1
258 292 1
258 307 1
258 352 1
258 383 1
258 398 1
258 443 1
259 112 1
259 127 1
259 172 1
259 287 1
259 302 1
259 347 1
259 378 1
259 393 1
259 438 1
260 113 1
260 128 1
260 173 1
260 288 1
260 303 1
260 348 1
260 385 1
260 400 1
260 445 1
261 114 1
261 129 1
261 174 1
261 295 1
261 310 1
261 355 1
261 386 1
261 401 1
261 446 1
262 115 1
262 130 1
262 175 1
262 290 1
262 305 1
262 350 1
262 381 1
262 396 1
262 441 1
263 116 1
263 131 1
263 176 1
263 291 1
263 306 1
263 351 1
263 388 1
263 403 1
263 448 1
264 117 1
264 132 1
264 177 1
264 298 1
264 313 1
264 358 1
264 389 1
264 404 1
264 449 1
265 118 1
265 133 1
265 178 1
265 293 1
265 308 1
265 353 1
265 384 1
265 399 1
265 444 1
266 119 1
266 134 1
266 179 1
266 294 1
266 309 1
266 354 1
266 390 1
266 405 1
266 450 1
267 106 1
267 121 1
267 166 1
267 300 1
267 315 1
267 360 1
267 377 1
267 392 1
267 437 1
268 120 1
268 135 1
268 180 1
268 296 1
268 311 1
268 356 1
268 387 1
268 402 1
268 447 1
269 107 1
269 122 1
269 167 1
269 297 1
269 312 1
269 357 1
269 379 1
269 394 1
269 439 1
270 109 1
270 124 1
270 169 1
270 299 1
270 314 1
270 359 1
270 376 1
270 391 1
270 436 1
