%%MatrixMarket matrix coordinate integer general
306 612 2754
1 1 1
1 52 1
1 69 1
1 103 1
1 154 1
1 171 1
1 307 1
1 358 1
1 375 1
2 2 1
2 53 1
2 70 1
2 104 1
2 155 1
2 172 1
2 308 1
2 359 1
2 376 1
3 3 1
3 54 1
3 71 1
3 105 1
3 156 1
3 173 1
3 309 1
3 360 1
3 377 1
4 4 1
4 55 1
4 72 1
4 106 1
4 157 1
4 174 1
4 310 1
4 361 1
4 378 1
5 5 1
5 56 1
5 73 1
5 107 1
5 158 1
5 175 1
5 311 1
5 362 1
5 379 1
6 6 1
6 57 1
6 74 1
6 108 1
6 159 1
6 176 1
6 312 1
6 363 1
6 380 1
7 7 1
7 58 1
7 75 1
7 109 1
7 160 1
7 177 1
7 313 1
7 364 1
7 381 1
8 8 1
8 59 1
8 76 1
8 110 1
8 161 1
8 178 1
8 314 1
8 365 1
8 382 1
9 9 1
9 60 1
9 77 1
9 111 1
9 162 1
9 179 1
9 315 1
9 366 1
9 383 1
10 10 1
10 61 1
10 78 1
10 112 1
10 163 1
10 180 1
10 316 1
10 367 1
10 384 1
11 11 1
11 62 1
11 79 1
11 113 1
11 164 1
11 181 1
11 317 1
11 368 1
11 385 1
12 12 1
12 63 1
12 80 1
12 114 1
12 165 1
12 182 1
12 318 1
12 369 1
12 386 1
13 13 1
13 64 1
13 81 1
13 115 1
13 166 1
13 183 1
13 319 1
13 370 1
13 387 1
14 14 1
14 65 1
14 82 1
14 116 1
14 167 1
14 184 1
14 320 1
14 371 1
14 388 1
15 15 1
15 66 1
15 83 1
15 117 1
15 168 1
15 185 1
15 321 1
15 372 1
15 389 1
16 16 1
16 67 1
16 84 1
16 118 1
16 169 1
16 186 1
16 322 1
16 373 1
16 390 1
17 17 1
17 68 1
17 85 1
17 119 1
17 170 1
17 187 1
17 323 1
17 374 1
17 391 1
18 18 1
18 52 1
18 86 1
18 120 1
18 154 1
18 188 1
18 324 1
18 358 1
18 392 1
19 19 1
19 53 1
19 87 1
19 121 1
19 155 1
19 189 1
19 325 1
19 359 1
19 393 1
20 20 1
20 54 1
20 88 1
20 122 1
20 156 1
20 190 1
20 326 1
20 360 1
20 394 1
21 21 1
21 55 1
21 89 1
21 123 1
21 157 1
21 191 1
21 327 1
21 361 1
21 395 1
22 22 1
22 56 1
22 90 1
22 124 1
22 158 1
22 192 1
22 328 1
22 362 1
22 396 1
23 23 1
23 57 1
23 91 1
23 125 1
23 159 1
23 193 1
23 329 1
23 363 1
23 397 1
24 24 1
24 58 1
24 92 1
24 126 1
24 160 1
24 194 1
24 330 1
24 364 1
24 398 1
25 25 1
25 59 1
25 93 1
25 127 1
25 161 1
25 195 1
25 331 1
25 365 1
25 399 1
26 26 1
26 60 1
26 94 1
26 128 1
26 162 1
26 196 1
26 332 1
26 366 1
26 400 1
27 27 1
27 61 1
27 95 1
27 129 1
27 163 1
27 197 1
27 333 1
27 367 1
27 401 1
28 28 1
28 62 1
28 96 1
28 130 1
28 164 1
28 198 1
28 334 1
28 368 1
28 402 1
29 29 1
29 63 1
29 97 1
29 131 1
29 165 1
29 199 1
29 335 1
29 369 1
29 403 1
30 30 1
30 64 1
30 98 1
30 132 1
30 166 1
30 200 1
30 336 1
30 370 1
30 404 1
31 31 1
31 65 1
31 99 1
31 133 1
31 167 1
31 201 1
31 337 1
31 371 1
31 405 1
32 32 1
32 66 1
32 100 1
32 134 1
32 168 1
32 202 1
32 338 1
32 372 1
32 406 1
33 33 1
33 67 1
33 101 1
33 135 1
33 169 1
33 203 1
33 339 1
33 373 1
33 407 1
34 34 1
34 68 1
34 102 1
34 136 1
34 170 1
34 204 1
34 340 1
34 374 1
34 408 1
35 35 1
35 69 1
35 86 1
35 137 1
35 171 1
35 188 1
35 341 1
35 375 1
35 392 1
36 36 1
36 70 1
36 87 1
36 138 1
36 172 1
36 189 1
36 342 1
36 376 1
36 393 1
37 37 1
37 71 1
37 88 1
37 139 1
37 173 1
37 190 1
37 343 1
37 377 1
37 394 1
38 38 1
38 72 1
38 89 1
38 140 1
38 174 1
38 191 1
38 344 1
38 378 1
38 395 1
39 39 1
39 73 1
39 90 1
39 141 1
39 175 1
39 192 1
39 345 1
39 379 1
39 396 1
40 40 1
40 74 1
40 91 1
40 142 1
40 176 1
40 193 1
40 346 1
40 380 1
40 397 1
41 41 1
41 75 1
41 92 1
41 143 1
41 177 1
41 194 1
41 347 1
41 381 1
41 398 1
42 42 1
42 76 1
42 93 1
42 144 1
42 178 1
42 195 1
42 348 1
42 382 1
42 399 1
43 43 1
43 77 1
43 94 1
43 145 1
43 179 1
43 196 1
43 349 1
43 383 1
43 400 1
44 44 1
44 78 1
44 95 1
44 146 1
44 180 1
44 197 1
44 350 1
44 384 1
44 401 1
45 45 1
45 79 1
45 96 1
45 147 1
45 181 1
45 198 1
45 351 1
45 385 1
45 402 1
46 46 1
46 80 1
46 97 1
46 148 1
46 182 1
46 199 1
46 352 1
46 386 1
46 403 1
47 47 1
47 81 1
47 98 1
47 149 1
47 183 1
47 200 1
47 353 1
47 387 1
47 404 1
48 48 1
48 82 1
48 99 1
48 150 1
48 184 1
48 201 1
48 354 1
48 388 1
48 405 1
49 49 1
49 83 1
49 100 1
49 151 1
49 185 1
49 202 1
49 355 1
49 389 1
49 406 1
50 50 1
50 84 1
50 101 1
50 152 1
50 186 1
50 203 1
50 356 1
50 390 1
50 407 1
51 51 1
51 85 1
51 102 1
51 153 1
51 187 1
51 204 1
51 357 1
51 391 1
51 408 1
52 1 1
52 52 1
52 69 1
52 205 1
52 256 1
52 273 1
52 409 1
52 460 1
52 477 1
53 2 1
53 53 1
53 70 1
53 206 1
53 257 1
53 274 1
53 410 1
53 461 1
53 478 1
54 3 1
54 54 1
54 71 1
54 207 1
54 258 1
54 275 1
54 411 1
54 462 1
54 479 1
55 4 1
55 55 1
55 72 1
55 208 1
55 259 1
55 276 1
55 412 1
55 463 1
55 480 1
56 5 1
56 56 1
56 73 1
56 209 1
56 260 1
56 277 1
56 413 1
56 464 1
56 481 1
57 6 1
57 57 1
57 74 1
57 210 1
57 261 1
57 278 1
57 414 1
57 465 1
57 482 1
58 7 1
58 58 1
58 75 1
58 211 1
58 262 1
58 279 1
58 415 1
58 466 1
58 483 1
59 8 1
59 59 1
59 76 1
59 212 1
59 263 1
59 280 1
59 416 1
59 467 1
59 484 1
60 9 1
60 60 1
60 77 1
60 213 1
60 264 1
60 281 1
60 417 1
60 468 1
60 485 1
61 10 1
61 61 1
61 78 1
61 214 1
61 265 1
61 282 1
61 418 1
61 469 1
61 486 1
62 11 1
62 62 1
62 79 1
62 215 1
62 266 1
62 283 1
62 419 1
62 470 1
62 487 1
63 12 1
63 63 1
63 80 1
63 216 1
63 267 1
63 284 1
63 420 1
63 471 1
63 488 1
64 13 1
64 64 1
64 81 1
64 217 1
64 268 1
64 285 1
64 421 1
64 472 1
64 489 1
65 14 1
65 65 1
65 82 1
65 218 1
65 269 1
65 286 1
65 422 1
65 473 1
65 490 1
66 15 1
66 66 1
66 83 1
66 219 1
66 270 1
66 287 1
66 423 1
66 474 1
66 491 1
67 16 1
67 67 1
67 84 1
67 220 1
67 271 1
67 288 1
67 424 1
67 475 1
67 492 1
68 17 1
68 68 1
68 85 1
68 221 1
68 272 1
68 289 1
68 425 1
68 476 1
68 493 1
69 18 1
69 52 1
69 86 1
69 222 1
69 256 1
69 290 1
69 426 1
69 460 1
69 494 1
70 19 1
70 53 1
70 87 1
70 223 1
70 257 1
70 291 1
70 427 1
70 461 1
70 495 1
71 20 1
71 54 1
71 88 1
71 224 1
71 258 1
71 292 1
71 428 1
71 462 1
71 496 1
72 21 1
72 55 1
72 89 1
72 225 1
72 259 1
72 293 1
72 429 1
72 463 1
72 497 1
73 22 1
73 56 1
73 90 1
73 226 1
73 260 1
73 294 1
73 430 1
73 464 1
73 498 1
74 23 1
74 57 1
74 91 1
74 227 1
74 261 1
74 295 1
74 431 1
74 465 1
74 499 1
75 24 1
75 58 1
75 92 1
75 228 1
75 262 1
75 296 1
75 432 1
75 466 1
75 500 1
76 25 1
76 59 1
76 93 1
76 229 1
76 263 1
76 297 1
76 433 1
76 467 1
76 501 1
77 26 1
77 60 1
77 94 1
77 230 1
77 264 1
77 298 1
77 434 1
77 468 1
77 502 1
78 27 1
78 61 1
78 95 1
78 231 1
78 265 1
78 299 1
78 435 1
78 469 1
78 503 1
79 28 1
79 62 1
79 96 1
79 232 1
79 266 1
79 300 1
79 436 1
79 470 1
79 504 1
80 29 1
80 63 1
80 97 1
80 233 1
80 267 1
80 301 1
80 437 1
80 471 1
80 505 1
81 30 1
81 64 1
81 98 1
81 234 1
81 268 1
81 302 1
81 438 1
81 472 1
81 506 1
82 31 1
82 65 1
82 99 1
82 235 1
82 269 1
82 303 1
82 439 1
82 473 1
82 507 1
83 32 1
83 66 1
83 100 1
83 236 1
83 270 1
83 304 1
83 440 1
83 474 1
83 508 1
84 33 1
84 67 1
84 101 1
84 237 1
84 271 1
84 305 1
84 441 1
84 475 1
84 509 1
85 34 1
85 68 1
85 102 1
85 238 1
85 272 1
85 306 1
85 442 1
85 476 1
85 510 1
86 35 1
86 69 1
86 86 1
86 239 1
86 273 1
86 290 1
86 443 1
86 477 1
86 494 1
87 36 1
87 70 1
87 87 1
87 240 1
87 274 1
87 291 1
87 444 1
87 478 1
87 495 1
88 37 1
88 71 1
88 88 1
88 241 1
88 275 1
88 292 1
88 445 1
88 479 1
88 496 1
89 38 1
89 72 1
89 89 1
89 242 1
89 276 1
89 293 1
89 446 1
89 480 1
89 497 1
90 39 1
90 73 1
90 90 1
90 243 1
90 277 1
90 294 1
90 447 1
90 481 1
90 498 1
91 40 1
91 74 1
91 91 1
91 244 1
91 278 1
91 295 1
91 448 1
91 482 1
91 499 1
92 41 1
92 75 1
92 92 1
92 245 1
92 279 1
92 296 1
92 449 1
92 483 1
92 500 1
93 42 1
93 76 1
93 93 1
93 246 1
93 280 1
93 297 1
93 450 1
93 484 1
93 501 1
94 43 1
94 77 1
94 94 1
94 247 1
94 281 1
94 298 1
94 451 1
94 485 1
94 502 1
95 44 1
95 78 1
95 95 1
95 248 1
95 282 1
95 299 1
95 452 1
95 486 1
95 503 1
96 45 1
96 79 1
96 96 1
96 249 1
96 283 1
96 300 1
96 453 1
96 487 1
96 504 1
97 46 1
97 80 1
97 97 1
97 250 1
97 284 1
97 301 1
97 454 1
97 488 1
97 505 1
98 47 1
98 81 1
98 98 1
98 251 1
98 285 1
98 302 1
98 455 1
98 489 1
98 506 1
99 48 1
99 82 1
99 99 1
99 252 1
99 286 1
99 303 1
99 456 1
99 490 1
99 507 1
100 49 1
100 83 1
100 100 1
100 253 1
100 287 1
100 304 1
100 457 1
100 491 1
100 508 1
101 50 1
101 84 1
101 101 1
101 254 1
101 288 1
101 305 1
101 458 1
101 492 1
101 509 1
102 51 1
102 85 1
102 102 1
102 255 1
102 289 1
102 306 1
102 459 1
102 493 1
102 510 1
103 103 1
103 154 1
103 171 1
103 205 1
103 256 1
103 273 1
103 511 1
103 562 1
103 579 1
104 104 1
104 155 1
104 172 1
104 206 1
104 257 1
104 274 1
104 512 1
104 563 1
104 580 1
105 105 1
105 156 1
105 173 1
105 207 1
105 258 1
105 275 1
105 513 1
105 564 1
105 581 1
106 106 1
106 157 1
106 174 1
106 208 1
106 259 1
106 276 1
106 514 1
106 565 1
106 582 1
107 107 1
107 158 1
107 175 1
107 209 1
107 260 1
107 277 1
107 515 1
107 566 1
107 583 1
108 108 1
108 159 1
108 176 1
108 210 1
108 261 1
108 278 1
108 516 1
108 567 1
108 584 1
109 109 1
109 160 1
109 177 1
109 211 1
109 262 1
109 279 1
109 517 1
109 568 1
109 585 1
110 110 1
110 161 1
110 178 1
110 212 1
110 263 1
110 280 1
110 518 1
110 569 1
110 586 1
111 111 1
111 162 1
111 179 1
111 213 1
111 264 1
111 281 1
111 519 1
111 570 1
111 587 1
112 112 1
112 163 1
112 180 1
112 214 1
112 265 1
112 282 1
112 520 1
112 571 1
112 588 1
113 113 1
113 164 1
113 181 1
113 215 1
113 266 1
113 283 1
113 521 1
113 572 1
113 589 1
114 114 1
114 165 1
114 182 1
114 216 1
114 267 1
114 284 1
114 522 1
114 573 1
114 590 1
115 115 1
115 166 1
115 183 1
115 217 1
115 268 1
115 285 1
115 523 1
115 574 1
115 591 1
116 116 1
116 167 1
116 184 1
116 218 1
116 269 1
116 286 1
116 524 1
116 575 1
116 592 1
117 117 1
117 168 1
117 185 1
117 219 1
117 270 1
117 287 1
117 525 1
117 576 1
117 593 1
118 118 1
118 169 1
118 186 1
118 220 1
118 271 1
118 288 1
118 526 1
118 577 1
118 594 1
119 119 1
119 170 1
119 187 1
119 221 1
119 272 1
119 289 1
119 527 1
119 578 1
119 595 1
120 120 1
120 154 1
120 188 1
120 222 1
120 256 1
120 290 1
120 528 1
120 562 1
120 596 1
121 121 1
121 155 1
121 189 1
121 223 1
121 257 1
121 291 1
121 529 1
121 563 1
121 597 1
122 122 1
122 156 1
122 190 1
122 224 1
122 258 1
122 292 1
122 530 1
122 564 1
122 598 1
123 123 1
123 157 1
123 191 1
123 225 1
123 259 1
123 293 1
123 531 1
123 565 1
123 599 1
124 124 1
124 158 1
124 192 1
124 226 1
124 260 1
124 294 1
124 532 1
124 566 1
124 600 1
125 125 1
125 159 1
125 193 1
125 227 1
125 261 1
125 295 1
125 533 1
125 567 1
125 601 1
126 126 1
126 160 1
126 194 1
126 228 1
126 262 1
126 296 1
126 534 1
126 568 1
126 602 1
127 127 1
127 161 1
127 195 1
127 229 1
127 263 1
127 297 1
127 535 1
127 569 1
127 603 1
128 128 1
128 162 1
128 196 1
128 230 1
128 264 1
128 298 1
128 536 1
128 570 1
128 604 1
129 129 1
129 163 1
129 197 1
129 231 1
129 265 1
129 299 1
129 537 1
129 571 1
129 605 1
130 130 1
130 164 1
130 198 1
130 232 1
130 266 1
130 300 1
130 538 1
130 572 1
130 606 1
131 131 1
131 165 1
131 199 1
131 233 1
131 267 1
131 301 1
131 539 1
131 573 1
131 607 1
132 132 1
132 166 1
132 200 1
132 234 1
132 268 1
132 302 1
132 540 1
132 574 1
132 608 1
133 133 1
133 167 1
133 201 1
133 235 1
133 269 1
133 303 1
133 541 1
133 575 1
133 609 1
134 134 1
134 168 1
134 202 1
134 236 1
134 270 1
134 304 1
134 542 1
134 576 1
134 610 1
135 135 1
135 169 1
135 203 1
135 237 1
135 271 1
135 305 1
135 543 1
135 577 1
135 611 1
136 136 1
136 170 1
136 204 1
136 238 1
136 272 1
136 306 1
136 544 1
136 578 1
136 612 1
137 137 1
137 171 1
137 188 1
137 239 1
137 273 1
137 290 1
137 545 1
137 579 1
137 596 1
138 138 1
138 172 1
138 189 1
138 240 1
138 274 1
138 291 1
138 546 1
138 580 1
138 597 1
139 139 1
139 173 1
139 190 1
139 241 1
139 275 1
139 292 1
139 547 1
139 581 1
139 598 1
140 140 1
140 174 1
140 191 1
140 242 1
140 276 1
140 293 1
140 548 1
140 582 1
140 599 1
141 141 1
141 175 1
141 192 1
141 243 1
141 277 1
141 294 1
141 549 1
141 583 1
141 600 1
142 142 1
142 176 1
142 193 1
142 244 1
142 278 1
142 295 1
142 550 1
142 584 1
142 601 1
143 143 1
143 177 1
143 194 1
143 245 1
143 279 1
143 296 1
143 551 1
143 585 1
143 602 1
144 144 1
144 178 1
144 195 1
144 246 1
144 280 1
144 297 1
144 552 1
144 586 1
144 603 1
145 145 1
145 179 1
145 196 1
145 247 1
145 281 1
145 298 1
145 553 1
145 587 1
145 604 1
146 146 1
146 180 1
146 197 1
146 248 1
146 282 1
146 299 1
146 554 1
146 588 1
146 605 1
147 147 1
147 181 1
147 198 1
147 249 1
147 283 1
147 300 1
147 555 1
147 589 1
147 606 1
148 148 1
148 182 1
148 199 1
148 250 1
148 284 1
148 301 1
148 556 1
148 590 1
148 607 1
149 149 1
149 183 1
149 200 1
149 251 1
149 285 1
149 302 1
149 557 1
149 591 1
149 608 1
150 150 1
150 184 1
150 201 1
150 252 1
150 286 1
150 303 1
150 558 1
150 592 1
150 609 1
151 151 1
151 185 1
151 202 1
151 253 1
151 287 1
151 304 1
151 559 1
151 593 1
151 610 1
152 152 1
152 186 1
152 203 1
152 254 1
152 288 1
152 305 1
152 560 1
152 594 1
152 611 1
153 153 1
153 187 1
153 204 1
153 255 1
153 289 1
153 306 1
153 561 1
153 595 1
153 612 1
154 1 1
154 79 1
154 88 1
154 212 1
154 273 1
154 299 1
154 524 1
154 585 1
154 611 1
155 2 1
155 80 1
155 89 1
155 213 1
155 274 1
155 300 1
155 525 1
155 586 1
155 612 1
156 3 1
156 81 1
156 90 1
156 214 1
156 275 1
156 301 1
156 526 1
156 587 1
156 596 1
157 4 1
157 82 1
157 91 1
157 215 1
157 276 1
157 302 1
157 527 1
157 588 1
157 597 1
158 5 1
158 83 1
158 92 1
158 216 1
158 277 1
158 303 1
158 511 1
158 589 1
158 598 1
159 6 1
159 84 1
159 93 1
159 217 1
159 278 1
159 304 1
159 512 1
159 590 1
159 599 1
160 7 1
160 85 1
160 94 1
160 218 1
160 279 1
160 305 1
160 513 1
160 591 1
160 600 1
161 8 1
161 69 1
161 95 1
161 219 1
161 280 1
161 306 1
161 514 1
161 592 1
161 601 1
162 9 1
162 70 1
162 96 1
162 220 1
162 281 1
162 290 1
162 515 1
162 593 1
162 602 1
163 10 1
163 71 1
163 97 1
163 221 1
163 282 1
163 291 1
163 516 1
163 594 1
163 603 1
164 11 1
164 72 1
164 98 1
164 205 1
164 283 1
164 292 1
164 517 1
164 595 1
164 604 1
165 12 1
165 73 1
165 99 1
165 206 1
165 284 1
165 293 1
165 518 1
165 579 1
165 605 1
166 13 1
166 74 1
166 100 1
166 207 1
166 285 1
166 294 1
166 519 1
166 580 1
166 606 1
167 14 1
167 75 1
167 101 1
167 208 1
167 286 1
167 295 1
167 520 1
167 581 1
167 607 1
168 15 1
168 76 1
168 102 1
168 209 1
168 287 1
168 296 1
168 521 1
168 582 1
168 608 1
169 16 1
169 77 1
169 86 1
169 210 1
169 288 1
169 297 1
169 522 1
169 583 1
169 609 1
170 17 1
170 78 1
170 87 1
170 211 1
170 289 1
170 298 1
170 523 1
170 584 1
170 610 1
171 33 1
171 49 1
171 79 1
171 227 1
171 243 1
171 273 1
171 539 1
171 555 1
171 585 1
172 34 1
172 50 1
172 80 1
172 228 1
172 244 1
172 274 1
172 540 1
172 556 1
172 586 1
173 18 1
173 51 1
173 81 1
173 229 1
173 245 1
173 275 1
173 541 1
173 557 1
173 587 1
174 19 1
174 35 1
174 82 1
174 230 1
174 246 1
174 276 1
174 542 1
174 558 1
174 588 1
175 20 1
175 36 1
175 83 1
175 231 1
175 247 1
175 277 1
175 543 1
175 559 1
175 589 1
176 21 1
176 37 1
176 84 1
176 232 1
176 248 1
176 278 1
176 544 1
176 560 1
176 590 1
177 22 1
177 38 1
177 85 1
177 233 1
177 249 1
177 279 1
177 528 1
177 561 1
177 591 1
178 23 1
178 39 1
178 69 1
178 234 1
178 250 1
178 280 1
178 529 1
178 545 1
178 592 1
179 24 1
179 40 1
179 70 1
179 235 1
179 251 1
179 281 1
179 530 1
179 546 1
179 593 1
180 25 1
180 41 1
180 71 1
180 236 1
180 252 1
180 282 1
180 531 1
180 547 1
180 594 1
181 26 1
181 42 1
181 72 1
181 237 1
181 253 1
181 283 1
181 532 1
181 548 1
181 595 1
182 27 1
182 43 1
182 73 1
182 238 1
182 254 1
182 284 1
182 533 1
182 549 1
182 579 1
183 28 1
183 44 1
183 74 1
183 222 1
183 255 1
183 285 1
183 534 1
183 550 1
183 580 1
184 29 1
184 45 1
184 75 1
184 223 1
184 239 1
184 286 1
184 535 1
184 551 1
184 581 1
185 30 1
185 46 1
185 76 1
185 224 1
185 240 1
185 287 1
185 536 1
185 552 1
185 582 1
186 31 1
186 47 1
186 77 1
186 225 1
186 241 1
186 288 1
186 537 1
186 553 1
186 583 1
187 32 1
187 48 1
187 78 1
187 226 1
187 242 1
187 289 1
187 538 1
187 554 1
187 584 1
188 33 1
188 64 1
188 88 1
188 227 1
188 258 1
188 299 1
188 539 1
188 570 1
188 611 1
189 34 1
189 65 1
189 89 1
189 228 1
189 259 1
189 300 1
189 540 1
189 571 1
189 612 1
190 18 1
190 66 1
190 90 1
190 229 1
190 260 1
190 301 1
190 541 1
190 572 1
190 596 1
191 19 1
191 67 1
191 91 1
191 230 1
191 261 1
191 302 1
191 542 1
191 573 1
191 597 1
192 20 1
192 68 1
192 92 1
192 231 1
192 262 1
192 303 1
192 543 1
192 574 1
192 598 1
193 21 1
193 52 1
193 93 1
193 232 1
193 263 1
193 304 1
193 544 1
193 575 1
193 599 1
194 22 1
194 53 1
194 94 1
194 233 1
194 264 1
194 305 1
194 528 1
194 576 1
194 600 1
195 23 1
195 54 1
195 95 1
195 234 1
195 265 1
195 306 1
195 529 1
195 577 1
195 601 1
196 24 1
196 55 1
196 96 1
196 235 1
196 266 1
196 290 1
196 530 1
196 578 1
196 602 1
197 25 1
197 56 1
197 97 1
197 236 1
197 267 1
197 291 1
197 531 1
197 562 1
197 603 1
198 26 1
198 57 1
198 98 1
198 237 1
198 268 1
198 292 1
198 532 1
198 563 1
198 604 1
199 27 1
199 58 1
199 99 1
199 238 1
199 269 1
199 293 1
199 533 1
199 564 1
199 605 1
200 28 1
200 59 1
200 100 1
200 222 1
200 270 1
200 294 1
200 534 1
200 565 1
200 606 1
201 29 1
201 60 1
201 101 1
201 223 1
201 271 1
201 295 1
201 535 1
201 566 1
201 607 1
202 30 1
202 61 1
202 102 1
202 224 1
202 272 1
202 296 1
202 536 1
202 567 1
202 608 1
203 31 1
203 62 1
203 86 1
203 225 1
203 256 1
203 297 1
203 537 1
203 568 1
203 609 1
204 32 1
204 63 1
204 87 1
204 226 1
204 257 1
204 298 1
204 538 1
204 569 1
204 610 1
205 1 1
205 79 1
205 88 1
205 314 1
205 375 1
205 401 1
205 419 1
205 480 1
205 506 1
206 2 1
206 80 1
206 89 1
206 315 1
206 376 1
206 402 1
206 420 1
206 481 1
206 507 1
207 3 1
207 81 1
207 90 1
207 316 1
207 377 1
207 403 1
207 421 1
207 482 1
207 508 1
208 4 1
208 82 1
208 91 1
208 317 1
208 378 1
208 404 1
208 422 1
208 483 1
208 509 1
209 5 1
209 83 1
209 92 1
209 318 1
209 379 1
209 405 1
209 423 1
209 484 1
209 510 1
210 6 1
210 84 1
210 93 1
210 319 1
210 380 1
210 406 1
210 424 1
210 485 1
210 494 1
211 7 1
211 85 1
211 94 1
211 320 1
211 381 1
211 407 1
211 425 1
211 486 1
211 495 1
212 8 1
212 69 1
212 95 1
212 321 1
212 382 1
212 408 1
212 409 1
212 487 1
212 496 1
213 9 1
213 70 1
213 96 1
213 322 1
213 383 1
213 392 1
213 410 1
213 488 1
213 497 1
214 10 1
214 71 1
214 97 1
214 323 1
214 384 1
214 393 1
214 411 1
214 489 1
214 498 1
215 11 1
215 72 1
215 98 1
215 307 1
215 385 1
215 394 1
215 412 1
215 490 1
215 499 1
216 12 1
216 73 1
216 99 1
216 308 1
216 386 1
216 395 1
216 413 1
216 491 1
216 500 1
217 13 1
217 74 1
217 100 1
217 309 1
217 387 1
217 396 1
217 414 1
217 492 1
217 501 1
218 14 1
218 75 1
218 101 1
218 310 1
218 388 1
218 397 1
218 415 1
218 493 1
218 502 1
219 15 1
219 76 1
219 102 1
219 311 1
219 389 1
219 398 1
219 416 1
219 477 1
219 503 1
220 16 1
220 77 1
220 86 1
220 312 1
220 390 1
220 399 1
220 417 1
220 478 1
220 504 1
221 17 1
221 78 1
221 87 1
221 313 1
221 391 1
221 400 1
221 418 1
221 479 1
221 505 1
222 33 1
222 49 1
222 79 1
222 329 1
222 345 1
222 375 1
222 434 1
222 450 1
222 480 1
223 34 1
223 50 1
223 80 1
223 330 1
223 346 1
223 376 1
223 435 1
223 451 1
223 481 1
224 18 1
224 51 1
224 81 1
224 331 1
224 347 1
224 377 1
224 436 1
224 452 1
224 482 1
225 19 1
225 35 1
225 82 1
225 332 1
225 348 1
225 378 1
225 437 1
225 453 1
225 483 1
226 20 1
226 36 1
226 83 1
226 333 1
226 349 1
226 379 1
226 438 1
226 454 1
226 484 1
227 21 1
227 37 1
227 84 1
227 334 1
227 350 1
227 380 1
227 439 1
227 455 1
227 485 1
228 22 1
228 38 1
228 85 1
228 335 1
228 351 1
228 381 1
228 440 1
228 456 1
228 486 1
229 23 1
229 39 1
229 69 1
229 336 1
229 352 1
229 382 1
229 441 1
229 457 1
229 487 1
230 24 1
230 40 1
230 70 1
230 337 1
230 353 1
230 383 1
230 442 1
230 458 1
230 488 1
231 25 1
231 41 1
231 71 1
231 338 1
231 354 1
231 384 1
231 426 1
231 459 1
231 489 1
232 26 1
232 42 1
232 72 1
232 339 1
232 355 1
232 385 1
232 427 1
232 443 1
232 490 1
233 27 1
233 43 1
233 73 1
233 340 1
233 356 1
233 386 1
233 428 1
233 444 1
233 491 1
234 28 1
234 44 1
234 74 1
234 324 1
234 357 1
234 387 1
234 429 1
234 445 1
234 492 1
235 29 1
235 45 1
235 75 1
235 325 1
235 341 1
235 388 1
235 430 1
235 446 1
235 493 1
236 30 1
236 46 1
236 76 1
236 326 1
236 342 1
236 389 1
236 431 1
236 447 1
236 477 1
237 31 1
237 47 1
237 77 1
237 327 1
237 343 1
237 390 1
237 432 1
237 448 1
237 478 1
238 32 1
238 48 1
238 78 1
238 328 1
238 344 1
238 391 1
238 433 1
238 449 1
238 479 1
239 33 1
239 64 1
239 88 1
239 329 1
239 360 1
239 401 1
239 434 1
239 465 1
239 506 1
240 34 1
240 65 1
240 89 1
240 330 1
240 361 1
240 402 1
240 435 1
240 466 1
240 507 1
241 18 1
241 66 1
241 90 1
241 331 1
241 362 1
241 403 1
241 436 1
241 467 1
241 508 1
242 19 1
242 67 1
242 91 1
242 332 1
242 363 1
242 404 1
242 437 1
242 468 1
242 509 1
243 20 1
243 68 1
243 92 1
243 333 1
243 364 1
243 405 1
243 438 1
243 469 1
243 510 1
244 21 1
244 52 1
244 93 1
244 334 1
244 365 1
244 406 1
244 439 1
244 470 1
244 494 1
245 22 1
245 53 1
245 94 1
245 335 1
245 366 1
245 407 1
245 440 1
245 471 1
245 495 1
246 23 1
246 54 1
246 95 1
246 336 1
246 367 1
246 408 1
246 441 1
246 472 1
246 496 1
247 24 1
247 55 1
247 96 1
247 337 1
247 368 1
247 392 1
247 442 1
247 473 1
247 497 1
248 25 1
248 56 1
248 97 1
248 338 1
248 369 1
248 393 1
248 426 1
248 474 1
248 498 1
249 26 1
249 57 1
249 98 1
249 339 1
249 370 1
249 394 1
249 427 1
249 475 1
249 499 1
250 27 1
250 58 1
250 99 1
250 340 1
250 371 1
250 395 1
250 428 1
250 476 1
250 500 1
251 28 1
251 59 1
251 100 1
251 324 1
251 372 1
251 396 1
251 429 1
251 460 1
251 501 1
252 29 1
252 60 1
252 101 1
252 325 1
252 373 1
252 397 1
252 430 1
252 461 1
252 502 1
253 30 1
253 61 1
253 102 1
253 326 1
253 374 1
253 398 1
253 431 1
253 462 1
253 503 1
254 31 1
254 62 1
254 86 1
254 327 1
254 358 1
254 399 1
254 432 1
254 463 1
254 504 1
255 32 1
255 63 1
255 87 1
255 328 1
255 359 1
255 400 1
255 433 1
255 464 1
255 505 1
256 103 1
256 181 1
256 190 1
256 212 1
256 273 1
256 299 1
256 419 1
256 480 1
256 506 1
257 104 1
257 182 1
257 191 1
257 213 1
257 274 1
257 300 1
257 420 1
257 481 1
257 507 1
258 105 1
258 183 1
258 192 1
258 214 1
258 275 1
258 301 1
258 421 1
258 482 1
258 508 1
259 106 1
259 184 1
259 193 1
259 215 1
259 276 1
259 302 1
259 422 1
259 483 1
259 509 1
260 107 1
260 185 1
260 194 1
260 216 1
260 277 1
260 303 1
260 423 1
260 484 1
260 510 1
261 108 1
261 186 1
261 195 1
261 217 1
261 278 1
261 304 1
261 424 1
261 485 1
261 494 1
262 109 1
262 187 1
262 196 1
262 218 1
262 279 1
262 305 1
262 425 1
262 486 1
262 495 1
263 110 1
263 171 1
263 197 1
263 219 1
263 280 1
263 306 1
263 409 1
263 487 1
263 496 1
264 111 1
264 172 1
264 198 1
264 220 1
264 281 1
264 290 1
264 410 1
264 488 1
264 497 1
265 112 1
265 173 1
265 199 1
265 221 1
265 282 1
265 291 1
265 411 1
265 489 1
265 498 1
266 113 1
266 174 1
266 200 1
266 205 1
266 283 1
266 292 1
266 412 1
266 490 1
266 499 1
267 114 1
267 175 1
267 201 1
267 206 1
267 284 1
267 293 1
267 413 1
267 491 1
267 500 1
268 115 1
268 176 1
268 202 1
268 207 1
268 285 1
268 294 1
268 414 1
268 492 1
268 501 1
269 116 1
269 177 1
269 203 1
269 208 1
269 286 1
269 295 1
269 415 1
269 493 1
269 502 1
270 117 1
270 178 1
270 204 1
270 209 1
270 287 1
270 296 1
270 416 1
270 477 1
270 503 1
271 118 1
271 179 1
271 188 1
271 210 1
271 288 1
271 297 1
271 417 1
271 478 1
271 504 1
272 119 1
272 180 1
272 189 1
272 211 1
272 289 1
272 298 1
272 418 1
272 479 1
272 505 1
273 135 1
273 151 1
273 181 1
273 227 1
273 243 1
273 273 1
273 434 1
273 450 1
273 480 1
274 136 1
274 152 1
274 182 1
274 228 1
274 244 1
274 274 1
274 435 1
274 451 1
274 481 1
275 120 1
275 153 1
275 183 1
275 229 1
275 245 1
275 275 1
275 436 1
275 452 1
275 482 1
276 121 1
276 137 1
276 184 1
276 230 1
276 246 1
276 276 1
276 437 1
276 453 1
276 483 1
277 122 1
277 138 1
277 185 1
277 231 1
277 247 1
277 277 1
277 438 1
277 454 1
277 484 1
278 123 1
278 139 1
278 186 1
278 232 1
278 248 1
278 278 1
278 439 1
278 455 1
278 485 1
279 124 1
279 140 1
279 187 1
279 233 1
279 249 1
279 279 1
279 440 1
279 456 1
279 486 1
280 125 1
280 141 1
280 171 1
280 234 1
280 250 1
280 280 1
280 441 1
280 457 1
280 487 1
281 126 1
281 142 1
281 172 1
281 235 1
281 251 1
281 281 1
281 442 1
281 458 1
281 488 1
282 127 1
282 143 1
282 173 1
282 236 1
282 252 1
282 282 1
282 426 1
282 459 1
282 489 1
283 128 1
283 144 1
283 174 1
283 237 1
283 253 1
283 283 1
283 427 1
283 443 1
283 490 1
284 129 1
284 145 1
284 175 1
284 238 1
284 254 1
284 284 1
284 428 1
284 444 1
284 491 1
285 130 1
285 146 1
285 176 1
285 222 1
285 255 1
285 285 1
285 429 1
285 445 1
285 492 1
286 131 1
286 147 1
286 177 1
286 223 1
286 239 1
286 286 1
286 430 1
286 446 1
286 493 1
287 132 1
287 148 1
287 178 1
287 224 1
287 240 1
287 287 1
287 431 1
287 447 1
287 477 1
288 133 1
288 149 1
288 179 1
288 225 1
288 241 1
288 288 1
288 432 1
288 448 1
288 478 1
289 134 1
289 150 1
289 180 1
289 226 1
289 242 1
289 289 1
289 433 1
289 449 1
289 479 1
290 135 1
290 166 1
290 190 1
290 227 1
290 258 1
290 299 1
290 434 1
290 465 1
290 506 1
291 136 1
291 167 1
291 191 1
291 228 1
291 259 1
291 300 1
291 435 1
291 466 1
291 507 1
292 120 1
292 168 1
292 192 1
292 229 1
292 260 1
292 301 1
292 436 1
292 467 1
292 508 1
293 121 1
293 169 1
293 193 1
293 230 1
293 261 1
293 302 1
293 437 1
293 468 1
293 509 1
294 122 1
294 170 1
294 194 1
294 231 1
294 262 1
294 303 1
294 438 1
294 469 1
294 510 1
295 123 1
295 154 1
295 195 1
295 232 1
295 263 1
295 304 1
295 439 1
295 470 1
295 494 1
296 124 1
296 155 1
296 196 1
296 233 1
296 264 1
296 305 1
296 440 1
296 471 1
296 495 1
297 125 1
297 156 1
297 197 1
297 234 1
297 265 1
297 306 1
297 441 1
297 472 1
297 496 1
298 126 1
298 157 1
298 198 1
298 235 1
298 266 1
298 290 1
298 442 1
298 473 1
298 497 1
299 127 1
299 158 1
299 199 1
299 236 1
299 267 1
299 291 1
299 426 1
299 474 1
299 498 1
300 128 1
300 159 1
300 200 1
300 237 1
300 268 1
300 292 1
300 427 1
300 475 1
300 499 1
301 129 1
301 160 1
301 201 1
301 238 1
301 269 1
301 293 1
301 428 1
301 476 1
301 500 1
302 130 1
302 161 1
302 202 1
302 222 1
302 270 1
302 294 1
302 429 1
302 460 1
302 501 1
303 131 1
303 162 1
303 203 1
303 223 1
303 271 1
303 295 1
303 430 1
303 461 1
303 502 1
304 132 1
304 163 1
304 204 1
304 224 1
304 272 1
304 296 1
304 431 1
304 462 1
304 503 1
305 133 1
305 164 1
305 188 1
305 225 1
305 256 1
305 297 1
305 432 1
305 463 1
305 504 1
306 134 1
306 165 1
306 189 1
306 226 1
306 257 1
306 298 1
306 433 1
306 464 1
306 505 1
