%%MatrixMarket matrix coordinate integer general
288 576 2592
1 1 1
1 32 1
1 43 1
1 289 1
1 320 1
1 331 1
1 385 1
1 416 1
1 427 1
2 2 1
2 17 1
2 46 1
2 290 1
2 305 1
2 334 1
2 386 1
2 401 1
2 430 1
3 3 1
3 18 1
3 47 1
3 291 1
3 306 1
3 335 1
3 387 1
3 402 1
3 431 1
4 4 1
4 22 1
4 33 1
4 292 1
4 310 1
4 321 1
4 388 1
4 406 1
4 417 1
5 5 1
5 28 1
5 36 1
5 293 1
5 316 1
5 324 1
5 389 1
5 412 1
5 420 1
6 6 1
6 19 1
6 48 1
6 294 1
6 307 1
6 336 1
6 390 1
6 403 1
6 432 1
7 7 1
7 20 1
7 34 1
7 295 1
7 308 1
7 322 1
7 391 1
7 404 1
7 418 1
8 8 1
8 21 1
8 39 1
8 296 1
8 309 1
8 327 1
8 392 1
8 405 1
8 423 1
9 9 1
9 23 1
9 35 1
9 297 1
9 311 1
9 323 1
9 393 1
9 407 1
9 419 1
10 10 1
10 24 1
10 41 1
10 298 1
10 312 1
10 329 1
10 394 1
10 408 1
10 425 1
11 11 1
11 29 1
11 37 1
11 299 1
11 317 1
11 325 1
11 395 1
11 413 1
11 421 1
12 12 1
12 25 1
12 38 1
12 300 1
12 313 1
12 326 1
12 396 1
12 409 1
12 422 1
13 13 1
13 26 1
13 44 1
13 301 1
13 314 1
13 332 1
13 397 1
13 410 1
13 428 1
14 14 1
14 27 1
14 40 1
14 302 1
14 315 1
14 328 1
14 398 1
14 411 1
14 424 1
15 15 1
15 30 1
15 42 1
15 303 1
15 318 1
15 330 1
15 399 1
15 414 1
15 426 1
16 16 1
16 31 1
16 45 1
16 304 1
16 319 1
16 333 1
16 400 1
16 415 1
16 429 1
17 1 1
17 68 1
17 86 1
17 289 1
17 356 1
17 374 1
17 385 1
17 452 1
17 470 1
18 2 1
18 71 1
18 84 1
18 290 1
18 359 1
18 372 1
18 386 1
18 455 1
18 468 1
19 3 1
19 73 1
19 87 1
19 291 1
19 361 1
19 375 1
19 387 1
19 457 1
19 471 1
20 4 1
20 69 1
20 92 1
20 292 1
20 357 1
20 380 1
20 388 1
20 453 1
20 476 1
21 5 1
21 75 1
21 93 1
21 293 1
21 363 1
21 381 1
21 389 1
21 459 1
21 477 1
22 6 1
22 76 1
22 89 1
22 294 1
22 364 1
22 377 1
22 390 1
22 460 1
22 473 1
23 7 1
23 72 1
23 85 1
23 295 1
23 360 1
23 373 1
23 391 1
23 456 1
23 469 1
24 8 1
24 78 1
24 91 1
24 296 1
24 366 1
24 379 1
24 392 1
24 462 1
24 475 1
25 9 1
25 74 1
25 88 1
25 297 1
25 362 1
25 376 1
25 393 1
25 458 1
25 472 1
26 10 1
26 79 1
26 94 1
26 298 1
26 367 1
26 382 1
26 394 1
26 463 1
26 478 1
27 11 1
27 65 1
27 96 1
27 299 1
27 353 1
27 384 1
27 395 1
27 449 1
27 480 1
28 12 1
28 77 1
28 90 1
28 300 1
28 365 1
28 378 1
28 396 1
28 461 1
28 474 1
29 13 1
29 80 1
29 95 1
29 301 1
29 368 1
29 383 1
29 397 1
29 464 1
29 479 1
30 14 1
30 66 1
30 81 1
30 302 1
30 354 1
30 369 1
30 398 1
30 450 1
30 465 1
31 15 1
31 67 1
31 82 1
31 303 1
31 355 1
31 370 1
31 399 1
31 451 1
31 466 1
32 16 1
32 70 1
32 83 1
32 304 1
32 358 1
32 371 1
32 400 1
32 454 1
32 467 1
33 32 1
33 57 1
33 86 1
33 320 1
33 345 1
33 374 1
33 416 1
33 441 1
33 470 1
34 17 1
34 60 1
34 84 1
34 305 1
34 348 1
34 372 1
34 401 1
34 444 1
34 468 1
35 18 1
35 53 1
35 87 1
35 306 1
35 341 1
35 375 1
35 402 1
35 437 1
35 471 1
36 22 1
36 58 1
36 92 1
36 310 1
36 346 1
36 380 1
36 406 1
36 442 1
36 476 1
37 28 1
37 63 1
37 93 1
37 316 1
37 351 1
37 381 1
37 412 1
37 447 1
37 477 1
38 19 1
38 56 1
38 89 1
38 307 1
38 344 1
38 377 1
38 403 1
38 440 1
38 473 1
39 20 1
39 61 1
39 85 1
39 308 1
39 349 1
39 373 1
39 404 1
39 445 1
39 469 1
40 21 1
40 64 1
40 91 1
40 309 1
40 352 1
40 379 1
40 405 1
40 448 1
40 475 1
41 23 1
41 59 1
41 88 1
41 311 1
41 347 1
41 376 1
41 407 1
41 443 1
41 472 1
42 24 1
42 49 1
42 94 1
42 312 1
42 337 1
42 382 1
42 408 1
42 433 1
42 478 1
43 29 1
43 51 1
43 96 1
43 317 1
43 339 1
43 384 1
43 413 1
43 435 1
43 480 1
44 25 1
44 62 1
44 90 1
44 313 1
44 350 1
44 378 1
44 409 1
44 446 1
44 474 1
45 26 1
45 50 1
45 95 1
45 314 1
45 338 1
45 383 1
45 410 1
45 434 1
45 479 1
46 27 1
46 54 1
46 81 1
46 315 1
46 342 1
46 369 1
46 411 1
46 438 1
46 465 1
47 30 1
47 52 1
47 82 1
47 318 1
47 340 1
47 370 1
47 414 1
47 436 1
47 466 1
48 31 1
48 55 1
48 83 1
48 319 1
48 343 1
48 371 1
48 415 1
48 439 1
48 467 1
49 97 1
49 128 1
49 139 1
49 289 1
49 320 1
49 331 1
49 481 1
49 512 1
49 523 1
50 98 1
50 113 1
50 142 1
50 290 1
50 305 1
50 334 1
50 482 1
50 497 1
50 526 1
51 99 1
51 114 1
51 143 1
51 291 1
51 306 1
51 335 1
51 483 1
51 498 1
51 527 1
52 100 1
52 118 1
52 129 1
52 292 1
52 310 1
52 321 1
52 484 1
52 502 1
52 513 1
53 101 1
53 124 1
53 132 1
53 293 1
53 316 1
53 324 1
53 485 1
53 508 1
53 516 1
54 102 1
54 115 1
54 144 1
54 294 1
54 307 1
54 336 1
54 486 1
54 499 1
54 528 1
55 103 1
55 116 1
55 130 1
55 295 1
55 308 1
55 322 1
55 487 1
55 500 1
55 514 1
56 104 1
56 117 1
56 135 1
56 296 1
56 309 1
56 327 1
56 488 1
56 501 1
56 519 1
57 105 1
57 119 1
57 131 1
57 297 1
57 311 1
57 323 1
57 489 1
57 503 1
57 515 1
58 106 1
58 120 1
58 137 1
58 298 1
58 312 1
58 329 1
58 490 1
58 504 1
58 521 1
59 107 1
59 125 1
59 133 1
59 299 1
59 317 1
59 325 1
59 491 1
59 509 1
59 517 1
60 108 1
60 121 1
60 134 1
60 300 1
60 313 1
60 326 1
60 492 1
60 505 1
60 518 1
61 109 1
61 122 1
61 140 1
61 301 1
61 314 1
61 332 1
61 493 1
61 506 1
61 524 1
62 110 1
62 123 1
62 136 1
62 302 1
62 315 1
62 328 1
62 494 1
62 507 1
62 520 1
63 111 1
63 126 1
63 138 1
63 303 1
63 318 1
63 330 1
63 495 1
63 510 1
63 522 1
64 112 1
64 127 1
64 141 1
64 304 1
64 319 1
64 333 1
64 496 1
64 511 1
64 525 1
65 97 1
65 164 1
65 182 1
65 289 1
65 356 1
65 374 1
65 481 1
65 548 1
65 566 1
66 98 1
66 167 1
66 180 1
66 290 1
66 359 1
66 372 1
66 482 1
66 551 1
66 564 1
67 99 1
67 169 1
67 183 1
67 291 1
67 361 1
67 375 1
67 483 1
67 553 1
67 567 1
68 100 1
68 165 1
68 188 1
68 292 1
68 357 1
68 380 1
68 484 1
68 549 1
68 572 1
69 101 1
69 171 1
69 189 1
69 293 1
69 363 1
69 381 1
69 485 1
69 555 1
69 573 1
70 102 1
70 172 1
70 185 1
70 294 1
70 364 1
70 377 1
70 486 1
70 556 1
70 569 1
71 103 1
71 168 1
71 181 1
71 295 1
71 360 1
71 373 1
71 487 1
71 552 1
71 565 1
72 104 1
72 174 1
72 187 1
72 296 1
72 366 1
72 379 1
72 488 1
72 558 1
72 571 1
73 105 1
73 170 1
73 184 1
73 297 1
73 362 1
73 376 1
73 489 1
73 554 1
73 568 1
74 106 1
74 175 1
74 190 1
74 298 1
74 367 1
74 382 1
74 490 1
74 559 1
74 574 1
75 107 1
75 161 1
75 192 1
75 299 1
75 353 1
75 384 1
75 491 1
75 545 1
75 576 1
76 108 1
76 173 1
76 186 1
76 300 1
76 365 1
76 378 1
76 492 1
76 557 1
76 570 1
77 109 1
77 176 1
77 191 1
77 301 1
77 368 1
77 383 1
77 493 1
77 560 1
77 575 1
78 110 1
78 162 1
78 177 1
78 302 1
78 354 1
78 369 1
78 494 1
78 546 1
78 561 1
79 111 1
79 163 1
79 178 1
79 303 1
79 355 1
79 370 1
79 495 1
79 547 1
79 562 1
80 112 1
80 166 1
80 179 1
80 304 1
80 358 1
80 371 1
80 496 1
80 550 1
80 563 1
81 128 1
81 153 1
81 182 1
81 320 1
81 345 1
81 374 1
81 512 1
81 537 1
81 566 1
82 113 1
82 156 1
82 180 1
82 305 1
82 348 1
82 372 1
82 497 1
82 540 1
82 564 1
83 114 1
83 149 1
83 183 1
83 306 1
83 341 1
83 375 1
83 498 1
83 533 1
83 567 1
84 118 1
84 154 1
84 188 1
84 310 1
84 346 1
84 380 1
84 502 1
84 538 1
84 572 1
85 124 1
85 159 1
85 189 1
85 316 1
85 351 1
85 381 1
85 508 1
85 543 1
85 573 1
86 115 1
86 152 1
86 185 1
86 307 1
86 344 1
86 377 1
86 499 1
86 536 1
86 569 1
87 116 1
87 157 1
87 181 1
87 308 1
87 349 1
87 373 1
87 500 1
87 541 1
87 565 1
88 117 1
88 160 1
88 187 1
88 309 1
88 352 1
88 379 1
88 501 1
88 544 1
88 571 1
89 119 1
89 155 1
89 184 1
89 311 1
89 347 1
89 376 1
89 503 1
89 539 1
89 568 1
90 120 1
90 145 1
90 190 1
90 312 1
90 337 1
90 382 1
90 504 1
90 529 1
90 574 1
91 125 1
91 147 1
91 192 1
91 317 1
91 339 1
91 384 1
91 509 1
91 531 1
91 576 1
92 121 1
92 158 1
92 186 1
92 313 1
92 350 1
92 378 1
92 505 1
92 542 1
92 570 1
93 122 1
93 146 1
93 191 1
93 314 1
93 338 1
93 383 1
93 506 1
93 530 1
93 575 1
94 123 1
94 150 1
94 177 1
94 315 1
94 342 1
94 369 1
94 507 1
94 534 1
94 561 1
95 126 1
95 148 1
95 178 1
95 318 1
95 340 1
95 370 1
95 510 1
95 532 1
95 562 1
96 127 1
96 151 1
96 179 1
96 319 1
96 343 1
96 371 1
96 511 1
96 535 1
96 563 1
97 193 1
97 224 1
97 235 1
97 385 1
97 416 1
97 427 1
97 481 1
97 512 1
97 523 1
98 194 1
98 209 1
98 238 1
98 386 1
98 401 1
98 430 1
98 482 1
98 497 1
98 526 1
99 195 1
99 210 1
99 239 1
99 387 1
99 402 1
99 431 1
99 483 1
99 498 1
99 527 1
100 196 1
100 214 1
100 225 1
100 388 1
100 406 1
100 417 1
100 484 1
100 502 1
100 513 1
101 197 1
101 220 1
101 228 1
101 389 1
101 412 1
101 420 1
101 485 1
101 508 1
101 516 1
102 198 1
102 211 1
102 240 1
102 390 1
102 403 1
102 432 1
102 486 1
102 499 1
102 528 1
103 199 1
103 212 1
103 226 1
103 391 1
103 404 1
103 418 1
103 487 1
103 500 1
103 514 1
104 200 1
104 213 1
104 231 1
104 392 1
104 405 1
104 423 1
104 488 1
104 501 1
104 519 1
105 201 1
105 215 1
105 227 1
105 393 1
105 407 1
105 419 1
105 489 1
105 503 1
105 515 1
106 202 1
106 216 1
106 233 1
106 394 1
106 408 1
106 425 1
106 490 1
106 504 1
106 521 1
107 203 1
107 221 1
107 229 1
107 395 1
107 413 1
107 421 1
107 491 1
107 509 1
107 517 1
108 204 1
108 217 1
108 230 1
108 396 1
108 409 1
108 422 1
108 492 1
108 505 1
108 518 1
109 205 1
109 218 1
109 236 1
109 397 1
109 410 1
109 428 1
109 493 1
109 506 1
109 524 1
110 206 1
110 219 1
110 232 1
110 398 1
110 411 1
110 424 1
110 494 1
110 507 1
110 520 1
111 207 1
111 222 1
111 234 1
111 399 1
111 414 1
111 426 1
111 495 1
111 510 1
111 522 1
112 208 1
112 223 1
112 237 1
112 400 1
112 415 1
112 429 1
112 496 1
112 511 1
112 525 1
113 193 1
113 260 1
113 278 1
113 385 1
113 452 1
113 470 1
113 481 1
113 548 1
113 566 1
114 194 1
114 263 1
114 276 1
114 386 1
114 455 1
114 468 1
114 482 1
114 551 1
114 564 1
115 195 1
115 265 1
115 279 1
115 387 1
115 457 1
115 471 1
115 483 1
115 553 1
115 567 1
116 196 1
116 261 1
116 284 1
116 388 1
116 453 1
116 476 1
116 484 1
116 549 1
116 572 1
117 197 1
117 267 1
117 285 1
117 389 1
117 459 1
117 477 1
117 485 1
117 555 1
117 573 1
118 198 1
118 268 1
118 281 1
118 390 1
118 460 1
118 473 1
118 486 1
118 556 1
118 569 1
119 199 1
119 264 1
119 277 1
119 391 1
119 456 1
119 469 1
119 487 1
119 552 1
119 565 1
120 200 1
120 270 1
120 283 1
120 392 1
120 462 1
120 475 1
120 488 1
120 558 1
120 571 1
121 201 1
121 266 1
121 280 1
121 393 1
121 458 1
121 472 1
121 489 1
121 554 1
121 568 1
122 202 1
122 271 1
122 286 1
122 394 1
122 463 1
122 478 1
122 490 1
122 559 1
122 574 1
123 203 1
123 257 1
123 288 1
123 395 1
123 449 1
123 480 1
123 491 1
123 545 1
123 576 1
124 204 1
124 269 1
124 282 1
124 396 1
124 461 1
124 474 1
124 492 1
124 557 1
124 570 1
125 205 1
125 272 1
125 287 1
125 397 1
125 464 1
125 479 1
125 493 1
125 560 1
125 575 1
126 206 1
126 258 1
126 273 1
126 398 1
126 450 1
126 465 1
126 494 1
126 546 1
126 561 1
127 207 1
127 259 1
127 274 1
127 399 1
127 451 1
127 466 1
127 495 1
127 547 1
127 562 1
128 208 1
128 262 1
128 275 1
128 400 1
128 454 1
128 467 1
128 496 1
128 550 1
128 563 1
129 224 1
129 249 1
129 278 1
129 416 1
129 441 1
129 470 1
129 512 1
129 537 1
129 566 1
130 209 1
130 252 1
130 276 1
130 401 1
130 444 1
130 468 1
130 497 1
130 540 1
130 564 1
131 210 1
131 245 1
131 279 1
131 402 1
131 437 1
131 471 1
131 498 1
131 533 1
131 567 1
132 214 1
132 250 1
132 284 1
132 406 1
132 442 1
132 476 1
132 502 1
132 538 1
132 572 1
133 220 1
133 255 1
133 285 1
133 412 1
133 447 1
133 477 1
133 508 1
133 543 1
133 573 1
134 211 1
134 248 1
134 281 1
134 403 1
134 440 1
134 473 1
134 499 1
134 536 1
134 569 1
135 212 1
135 253 1
135 277 1
135 404 1
135 445 1
135 469 1
135 500 1
135 541 1
135 565 1
136 213 1
136 256 1
136 283 1
136 405 1
136 448 1
136 475 1
136 501 1
136 544 1
136 571 1
137 215 1
137 251 1
137 280 1
137 407 1
137 443 1
137 472 1
137 503 1
137 539 1
137 568 1
138 216 1
138 241 1
138 286 1
138 408 1
138 433 1
138 478 1
138 504 1
138 529 1
138 574 1
139 221 1
139 243 1
139 288 1
139 413 1
139 435 1
139 480 1
139 509 1
139 531 1
139 576 1
140 217 1
140 254 1
140 282 1
140 409 1
140 446 1
140 474 1
140 505 1
140 542 1
140 570 1
141 218 1
141 242 1
141 287 1
141 410 1
141 434 1
141 479 1
141 506 1
141 530 1
141 575 1
142 219 1
142 246 1
142 273 1
142 411 1
142 438 1
142 465 1
142 507 1
142 534 1
142 561 1
143 222 1
143 244 1
143 274 1
143 414 1
143 436 1
143 466 1
143 510 1
143 532 1
143 562 1
144 223 1
144 247 1
144 275 1
144 415 1
144 439 1
144 467 1
144 511 1
144 535 1
144 563 1
145 1 1
145 17 1
145 49 1
145 202 1
145 218 1
145 250 1
145 398 1
145 414 1
145 446 1
146 2 1
146 18 1
146 50 1
146 205 1
146 221 1
146 253 1
146 399 1
146 415 1
146 447 1
147 3 1
147 19 1
147 51 1
147 203 1
147 219 1
147 251 1
147 400 1
147 416 1
147 448 1
148 4 1
148 20 1
148 52 1
148 207 1
148 223 1
148 255 1
148 386 1
148 402 1
148 434 1
149 5 1
149 21 1
149 53 1
149 195 1
149 211 1
149 243 1
149 391 1
149 407 1
149 439 1
150 6 1
150 22 1
150 54 1
150 206 1
150 222 1
150 254 1
150 385 1
150 401 1
150 433 1
151 7 1
151 23 1
151 55 1
151 208 1
151 224 1
151 256 1
151 387 1
151 403 1
151 435 1
152 8 1
152 24 1
152 56 1
152 198 1
152 214 1
152 246 1
152 393 1
152 409 1
152 441 1
153 9 1
153 25 1
153 57 1
153 193 1
153 209 1
153 241 1
153 390 1
153 406 1
153 438 1
154 10 1
154 26 1
154 58 1
154 196 1
154 212 1
154 244 1
154 396 1
154 412 1
154 444 1
155 11 1
155 27 1
155 59 1
155 201 1
155 217 1
155 249 1
155 392 1
155 408 1
155 440 1
156 12 1
156 28 1
156 60 1
156 194 1
156 210 1
156 242 1
156 388 1
156 404 1
156 436 1
157 13 1
157 29 1
157 61 1
157 199 1
157 215 1
157 247 1
157 389 1
157 405 1
157 437 1
158 14 1
158 30 1
158 62 1
158 204 1
158 220 1
158 252 1
158 394 1
158 410 1
158 442 1
159 15 1
159 31 1
159 63 1
159 197 1
159 213 1
159 245 1
159 397 1
159 413 1
159 445 1
160 16 1
160 32 1
160 64 1
160 200 1
160 216 1
160 248 1
160 395 1
160 411 1
160 443 1
161 1 1
161 33 1
161 65 1
161 202 1
161 234 1
161 266 1
161 398 1
161 430 1
161 462 1
162 2 1
162 34 1
162 66 1
162 205 1
162 237 1
162 269 1
162 399 1
162 431 1
162 463 1
163 3 1
163 35 1
163 67 1
163 203 1
163 235 1
163 267 1
163 400 1
163 432 1
163 464 1
164 4 1
164 36 1
164 68 1
164 207 1
164 239 1
164 271 1
164 386 1
164 418 1
164 450 1
165 5 1
165 37 1
165 69 1
165 195 1
165 227 1
165 259 1
165 391 1
165 423 1
165 455 1
166 6 1
166 38 1
166 70 1
166 206 1
166 238 1
166 270 1
166 385 1
166 417 1
166 449 1
167 7 1
167 39 1
167 71 1
167 208 1
167 240 1
167 272 1
167 387 1
167 419 1
167 451 1
168 8 1
168 40 1
168 72 1
168 198 1
168 230 1
168 262 1
168 393 1
168 425 1
168 457 1
169 9 1
169 41 1
169 73 1
169 193 1
169 225 1
169 257 1
169 390 1
169 422 1
169 454 1
170 10 1
170 42 1
170 74 1
170 196 1
170 228 1
170 260 1
170 396 1
170 428 1
170 460 1
171 11 1
171 43 1
171 75 1
171 201 1
171 233 1
171 265 1
171 392 1
171 424 1
171 456 1
172 12 1
172 44 1
172 76 1
172 194 1
172 226 1
172 258 1
172 388 1
172 420 1
172 452 1
173 13 1
173 45 1
173 77 1
173 199 1
173 231 1
173 263 1
173 389 1
173 421 1
173 453 1
174 14 1
174 46 1
174 78 1
174 204 1
174 236 1
174 268 1
174 394 1
174 426 1
174 458 1
175 15 1
175 47 1
175 79 1
175 197 1
175 229 1
175 261 1
175 397 1
175 429 1
175 461 1
176 16 1
176 48 1
176 80 1
176 200 1
176 232 1
176 264 1
176 395 1
176 427 1
176 459 1
177 17 1
177 33 1
177 81 1
177 218 1
177 234 1
177 282 1
177 414 1
177 430 1
177 478 1
178 18 1
178 34 1
178 82 1
178 221 1
178 237 1
178 285 1
178 415 1
178 431 1
178 479 1
179 19 1
179 35 1
179 83 1
179 219 1
179 235 1
179 283 1
179 416 1
179 432 1
179 480 1
180 20 1
180 36 1
180 84 1
180 223 1
180 239 1
180 287 1
180 402 1
180 418 1
180 466 1
181 21 1
181 37 1
181 85 1
181 211 1
181 227 1
181 275 1
181 407 1
181 423 1
181 471 1
182 22 1
182 38 1
182 86 1
182 222 1
182 238 1
182 286 1
182 401 1
182 417 1
182 465 1
183 23 1
183 39 1
183 87 1
183 224 1
183 240 1
183 288 1
183 403 1
183 419 1
183 467 1
184 24 1
184 40 1
184 88 1
184 214 1
184 230 1
184 278 1
184 409 1
184 425 1
184 473 1
185 25 1
185 41 1
185 89 1
185 209 1
185 225 1
185 273 1
185 406 1
185 422 1
185 470 1
186 26 1
186 42 1
186 90 1
186 212 1
186 228 1
186 276 1
186 412 1
186 428 1
186 476 1
187 27 1
187 43 1
187 91 1
187 217 1
187 233 1
187 281 1
187 408 1
187 424 1
187 472 1
188 28 1
188 44 1
188 92 1
188 210 1
188 226 1
188 274 1
188 404 1
188 420 1
188 468 1
189 29 1
189 45 1
189 93 1
189 215 1
189 231 1
189 279 1
189 405 1
189 421 1
189 469 1
190 30 1
190 46 1
190 94 1
190 220 1
190 236 1
190 284 1
190 410 1
190 426 1
190 474 1
191 31 1
191 47 1
191 95 1
191 213 1
191 229 1
191 277 1
191 413 1
191 429 1
191 477 1
192 32 1
192 48 1
192 96 1
192 216 1
192 232 1
192 280 1
192 411 1
192 427 1
192 475 1
193 103 1
193 119 1
193 151 1
193 202 1
193 218 1
193 250 1
193 301 1
193 317 1
193 349 1
194 105 1
194 121 1
194 153 1
194 205 1
194 221 1
194 253 1
194 299 1
194 315 1
194 347 1
195 108 1
195 124 1
195 156 1
195 203 1
195 219 1
195 251 1
195 302 1
195 318 1
195 350 1
196 104 1
196 120 1
196 152 1
196 207 1
196 223 1
196 255 1
196 304 1
196 320 1
196 352 1
197 110 1
197 126 1
197 158 1
197 195 1
197 211 1
197 243 1
197 294 1
197 310 1
197 342 1
198 101 1
198 117 1
198 149 1
198 206 1
198 222 1
198 254 1
198 303 1
198 319 1
198 351 1
199 106 1
199 122 1
199 154 1
199 208 1
199 224 1
199 256 1
199 289 1
199 305 1
199 337 1
200 111 1
200 127 1
200 159 1
200 198 1
200 214 1
200 246 1
200 292 1
200 308 1
200 340 1
201 109 1
201 125 1
201 157 1
201 193 1
201 209 1
201 241 1
201 290 1
201 306 1
201 338 1
202 112 1
202 128 1
202 160 1
202 196 1
202 212 1
202 244 1
202 295 1
202 311 1
202 343 1
203 98 1
203 114 1
203 146 1
203 201 1
203 217 1
203 249 1
203 300 1
203 316 1
203 348 1
204 107 1
204 123 1
204 155 1
204 194 1
204 210 1
204 242 1
204 291 1
204 307 1
204 339 1
205 97 1
205 113 1
205 145 1
205 199 1
205 215 1
205 247 1
205 297 1
205 313 1
205 345 1
206 99 1
206 115 1
206 147 1
206 204 1
206 220 1
206 252 1
206 293 1
206 309 1
206 341 1
207 102 1
207 118 1
207 150 1
207 197 1
207 213 1
207 245 1
207 296 1
207 312 1
207 344 1
208 100 1
208 116 1
208 148 1
208 200 1
208 216 1
208 248 1
208 298 1
208 314 1
208 346 1
209 103 1
209 135 1
209 167 1
209 202 1
209 234 1
209 266 1
209 301 1
209 333 1
209 365 1
210 105 1
210 137 1
210 169 1
210 205 1
210 237 1
210 269 1
210 299 1
210 331 1
210 363 1
211 108 1
211 140 1
211 172 1
211 203 1
211 235 1
211 267 1
211 302 1
211 334 1
211 366 1
212 104 1
212 136 1
212 168 1
212 207 1
212 239 1
212 271 1
212 304 1
212 336 1
212 368 1
213 110 1
213 142 1
213 174 1
213 195 1
213 227 1
213 259 1
213 294 1
213 326 1
213 358 1
214 101 1
214 133 1
214 165 1
214 206 1
214 238 1
214 270 1
214 303 1
214 335 1
214 367 1
215 106 1
215 138 1
215 170 1
215 208 1
215 240 1
215 272 1
215 289 1
215 321 1
215 353 1
216 111 1
216 143 1
216 175 1
216 198 1
216 230 1
216 262 1
216 292 1
216 324 1
216 356 1
217 109 1
217 141 1
217 173 1
217 193 1
217 225 1
217 257 1
217 290 1
217 322 1
217 354 1
218 112 1
218 144 1
218 176 1
218 196 1
218 228 1
218 260 1
218 295 1
218 327 1
218 359 1
219 98 1
219 130 1
219 162 1
219 201 1
219 233 1
219 265 1
219 300 1
219 332 1
219 364 1
220 107 1
220 139 1
220 171 1
220 194 1
220 226 1
220 258 1
220 291 1
220 323 1
220 355 1
221 97 1
221 129 1
221 161 1
221 199 1
221 231 1
221 263 1
221 297 1
221 329 1
221 361 1
222 99 1
222 131 1
222 163 1
222 204 1
222 236 1
222 268 1
222 293 1
222 325 1
222 357 1
223 102 1
223 134 1
223 166 1
223 197 1
223 229 1
223 261 1
223 296 1
223 328 1
223 360 1
224 100 1
224 132 1
224 164 1
224 200 1
224 232 1
224 264 1
224 298 1
224 330 1
224 362 1
225 119 1
225 135 1
225 183 1
225 218 1
225 234 1
225 282 1
225 317 1
225 333 1
225 381 1
226 121 1
226 137 1
226 185 1
226 221 1
226 237 1
226 285 1
226 315 1
226 331 1
226 379 1
227 124 1
227 140 1
227 188 1
227 219 1
227 235 1
227 283 1
227 318 1
227 334 1
227 382 1
228 120 1
228 136 1
228 184 1
228 223 1
228 239 1
228 287 1
228 320 1
228 336 1
228 384 1
229 126 1
229 142 1
229 190 1
229 211 1
229 227 1
229 275 1
229 310 1
229 326 1
229 374 1
230 117 1
230 133 1
230 181 1
230 222 1
230 238 1
230 286 1
230 319 1
230 335 1
230 383 1
231 122 1
231 138 1
231 186 1
231 224 1
231 240 1
231 288 1
231 305 1
231 321 1
231 369 1
232 127 1
232 143 1
232 191 1
232 214 1
232 230 1
232 278 1
232 308 1
232 324 1
232 372 1
233 125 1
233 141 1
233 189 1
233 209 1
233 225 1
233 273 1
233 306 1
233 322 1
233 370 1
234 128 1
234 144 1
234 192 1
234 212 1
234 228 1
234 276 1
234 311 1
234 327 1
234 375 1
235 114 1
235 130 1
235 178 1
235 217 1
235 233 1
235 281 1
235 316 1
235 332 1
235 380 1
236 123 1
236 139 1
236 187 1
236 210 1
236 226 1
236 274 1
236 307 1
236 323 1
236 371 1
237 113 1
237 129 1
237 177 1
237 215 1
237 231 1
237 279 1
237 313 1
237 329 1
237 377 1
238 115 1
238 131 1
238 179 1
238 220 1
238 236 1
238 284 1
238 309 1
238 325 1
238 373 1
239 118 1
239 134 1
239 182 1
239 213 1
239 229 1
239 277 1
239 312 1
239 328 1
239 376 1
240 116 1
240 132 1
240 180 1
240 216 1
240 232 1
240 280 1
240 314 1
240 330 1
240 378 1
241 301 1
241 317 1
241 349 1
241 398 1
241 414 1
241 446 1
241 496 1
241 512 1
241 544 1
242 299 1
242 315 1
242 347 1
242 399 1
242 415 1
242 447 1
242 481 1
242 497 1
242 529 1
243 302 1
243 318 1
243 350 1
243 400 1
243 416 1
243 448 1
243 482 1
243 498 1
243 530 1
244 304 1
244 320 1
244 352 1
244 386 1
244 402 1
244 434 1
244 486 1
244 502 1
244 534 1
245 294 1
245 310 1
245 342 1
245 391 1
245 407 1
245 439 1
245 492 1
245 508 1
245 540 1
246 303 1
246 319 1
246 351 1
246 385 1
246 401 1
246 433 1
246 483 1
246 499 1
246 531 1
247 289 1
247 305 1
247 337 1
247 387 1
247 403 1
247 435 1
247 484 1
247 500 1
247 532 1
248 292 1
248 308 1
248 340 1
248 393 1
248 409 1
248 441 1
248 485 1
248 501 1
248 533 1
249 290 1
249 306 1
249 338 1
249 390 1
249 406 1
249 438 1
249 487 1
249 503 1
249 535 1
250 295 1
250 311 1
250 343 1
250 396 1
250 412 1
250 444 1
250 488 1
250 504 1
250 536 1
251 300 1
251 316 1
251 348 1
251 392 1
251 408 1
251 440 1
251 493 1
251 509 1
251 541 1
252 291 1
252 307 1
252 339 1
252 388 1
252 404 1
252 436 1
252 489 1
252 505 1
252 537 1
253 297 1
253 313 1
253 345 1
253 389 1
253 405 1
253 437 1
253 490 1
253 506 1
253 538 1
254 293 1
254 309 1
254 341 1
254 394 1
254 410 1
254 442 1
254 491 1
254 507 1
254 539 1
255 296 1
255 312 1
255 344 1
255 397 1
255 413 1
255 445 1
255 494 1
255 510 1
255 542 1
256 298 1
256 314 1
256 346 1
256 395 1
256 411 1
256 443 1
256 495 1
256 511 1
256 543 1
257 301 1
257 333 1
257 365 1
257 398 1
257 430 1
257 462 1
257 496 1
257 528 1
257 560 1
258 299 1
258 331 1
258 363 1
258 399 1
258 431 1
258 463 1
258 481 1
258 513 1
258 545 1
259 302 1
259 334 1
259 366 1
259 400 1
259 432 1
259 464 1
259 482 1
259 514 1
259 546 1
260 304 1
260 336 1
260 368 1
260 386 1
260 418 1
260 450 1
260 486 1
260 518 1
260 550 1
261 294 1
261 326 1
261 358 1
261 391 1
261 423 1
261 455 1
261 492 1
261 524 1
261 556 1
262 303 1
262 335 1
262 367 1
262 385 1
262 417 1
262 449 1
262 483 1
262 515 1
262 547 1
263 289 1
263 321 1
263 353 1
263 387 1
263 419 1
263 451 1
263 484 1
263 516 1
263 548 1
264 292 1
264 324 1
264 356 1
264 393 1
264 425 1
264 457 1
264 485 1
264 517 1
264 549 1
265 290 1
265 322 1
265 354 1
265 390 1
265 422 1
265 454 1
265 487 1
265 519 1
265 551 1
266 295 1
266 327 1
266 359 1
266 396 1
266 428 1
266 460 1
266 488 1
266 520 1
266 552 1
267 300 1
267 332 1
267 364 1
267 392 1
267 424 1
267 456 1
267 493 1
267 525 1
267 557 1
268 291 1
268 323 1
268 355 1
268 388 1
268 420 1
268 452 1
268 489 1
268 521 1
268 553 1
269 297 1
269 329 1
269 361 1
269 389 1
269 421 1
269 453 1
269 490 1
269 522 1
269 554 1
270 293 1
270 325 1
270 357 1
270 394 1
270 426 1
270 458 1
270 491 1
270 523 1
270 555 1
271 296 1
271 328 1
271 360 1
271 397 1
271 429 1
271 461 1
271 494 1
271 526 1
271 558 1
272 298 1
272 330 1
272 362 1
272 395 1
272 427 1
272 459 1
272 495 1
272 527 1
272 559 1
273 317 1
273 333 1
273 381 1
273 414 1
273 430 1
273 478 1
273 512 1
273 528 1
273 576 1
274 315 1
274 331 1
274 379 1
274 415 1
274 431 1
274 479 1
274 497 1
274 513 1
274 561 1
275 318 1
275 334 1
275 382 1
275 416 1
275 432 1
275 480 1
275 498 1
275 514 1
275 562 1
276 320 1
276 336 1
276 384 1
276 402 1
276 418 1
276 466 1
276 502 1
276 518 1
276 566 1
277 310 1
277 326 1
277 374 1
277 407 1
277 423 1
277 471 1
277 508 1
277 524 1
277 572 1
278 319 1
278 335 1
278 383 1
278 401 1
278 417 1
278 465 1
278 499 1
278 515 1
278 563 1
279 305 1
279 321 1
279 369 1
279 403 1
279 419 1
279 467 1
279 500 1
279 516 1
279 564 1
280 308 1
280 324 1
280 372 1
280 409 1
280 425 1
280 473 1
280 501 1
280 517 1
280 565 1
281 306 1
281 322 1
281 370 1
281 406 1
281 422 1
281 470 1
281 503 1
281 519 1
281 567 1
282 311 1
282 327 1
282 375 1
282 412 1
282 428 1
282 476 1
282 504 1
282 520 1
282 568 1
283 316 1
283 332 1
283 380 1
283 408 1
283 424 1
283 472 1
283 509 1
283 525 1
283 573 1
284 307 1
284 323 1
284 371 1
284 404 1
284 420 1
284 468 1
284 505 1
284 521 1
284 569 1
285 313 1
285 329 1
285 377 1
285 405 1
285 421 1
285 469 1
285 506 1
285 522 1
285 570 1
286 309 1
286 325 1
286 373 1
286 410 1
286 426 1
286 474 1
286 507 1
286 523 1
286 571 1
287 312 1
287 328 1
287 376 1
287 413 1
287 429 1
287 477 1
287 510 1
287 526 1
287 574 1
288 314 1
288 330 1
288 378 1
288 411 1
288 427 1
288 475 1
288 511 1
288 527 1
288 575 1
