%%MatrixMarket matrix coordinate integer general
256 512 4096
1 1 1
1 33 1
1 41 1
1 64 1
1 257 1
1 289 1
1 297 1
1 320 1
1 321 1
1 353 1
1 361 1
1 384 1
1 385 1
1 417 1
1 425 1
1 448 1
2 2 1
2 34 1
2 42 1
2 63 1
2 258 1
2 290 1
2 298 1
2 319 1
2 322 1
2 354 1
2 362 1
2 383 1
2 386 1
2 418 1
2 426 1
2 447 1
3 3 1
3 35 1
3 43 1
3 58 1
3 259 1
3 291 1
3 299 1
3 314 1
3 323 1
3 355 1
3 363 1
3 378 1
3 387 1
3 419 1
3 427 1
3 442 1
4 4 1
4 36 1
4 44 1
4 61 1
4 260 1
4 292 1
4 300 1
4 317 1
4 324 1
4 356 1
4 364 1
4 381 1
4 388 1
4 420 1
4 428 1
4 445 1
5 5 1
5 37 1
5 45 1
5 57 1
5 261 1
5 293 1
5 301 1
5 313 1
5 325 1
5 357 1
5 365 1
5 377 1
5 389 1
5 421 1
5 429 1
5 441 1
6 6 1
6 38 1
6 46 1
6 59 1
6 262 1
6 294 1
6 302 1
6 315 1
6 326 1
6 358 1
6 366 1
6 379 1
6 390 1
6 422 1
6 430 1
6 443 1
7 7 1
7 39 1
7 47 1
7 62 1
7 263 1
7 295 1
7 303 1
7 318 1
7 327 1
7 359 1
7 367 1
7 382 1
7 391 1
7 423 1
7 431 1
7 446 1
8 8 1
8 40 1
8 48 1
8 60 1
8 264 1
8 296 1
8 304 1
8 316 1
8 328 1
8 360 1
8 368 1
8 380 1
8 392 1
8 424 1
8 432 1
8 444 1
9 9 1
9 33 1
9 49 1
9 64 1
9 265 1
9 289 1
9 305 1
9 320 1
9 329 1
9 353 1
9 369 1
9 384 1
9 393 1
9 417 1
9 433 1
9 448 1
10 10 1
10 34 1
10 50 1
10 63 1
10 266 1
10 290 1
10 306 1
10 319 1
10 330 1
10 354 1
10 370 1
10 383 1
10 394 1
10 418 1
10 434 1
10 447 1
11 11 1
11 35 1
11 51 1
11 58 1
11 267 1
11 291 1
11 307 1
11 314 1
11 331 1
11 355 1
11 371 1
11 378 1
11 395 1
11 419 1
11 435 1
11 442 1
12 12 1
12 36 1
12 52 1
12 61 1
12 268 1
12 292 1
12 308 1
12 317 1
12 332 1
12 356 1
12 372 1
12 381 1
12 396 1
12 420 1
12 436 1
12 445 1
13 13 1
13 37 1
13 53 1
13 57 1
13 269 1
13 293 1
13 309 1
13 313 1
13 333 1
13 357 1
13 373 1
13 377 1
13 397 1
13 421 1
13 437 1
13 441 1
14 14 1
14 38 1
14 54 1
14 59 1
14 270 1
14 294 1
14 310 1
14 315 1
14 334 1
14 358 1
14 374 1
14 379 1
14 398 1
14 422 1
14 438 1
14 443 1
15 15 1
15 39 1
15 55 1
15 62 1
15 271 1
15 295 1
15 311 1
15 318 1
15 335 1
15 359 1
15 375 1
15 382 1
15 399 1
15 423 1
15 439 1
15 446 1
16 16 1
16 40 1
16 56 1
16 60 1
16 272 1
16 296 1
16 312 1
16 316 1
16 336 1
16 360 1
16 376 1
16 380 1
16 400 1
16 424 1
16 440 1
16 444 1
17 17 1
17 41 1
17 49 1
17 64 1
17 273 1
17 297 1
17 305 1
17 320 1
17 337 1
17 361 1
17 369 1
17 384 1
17 401 1
17 425 1
17 433 1
17 448 1
18 18 1
18 42 1
18 50 1
18 63 1
18 274 1
18 298 1
18 306 1
18 319 1
18 338 1
18 362 1
18 370 1
18 383 1
18 402 1
18 426 1
18 434 1
18 447 1
19 19 1
19 43 1
19 51 1
19 58 1
19 275 1
19 299 1
19 307 1
19 314 1
19 339 1
19 363 1
19 371 1
19 378 1
19 403 1
19 427 1
19 435 1
19 442 1
20 20 1
20 44 1
20 52 1
20 61 1
20 276 1
20 300 1
20 308 1
20 317 1
20 340 1
20 364 1
20 372 1
20 381 1
20 404 1
20 428 1
20 436 1
20 445 1
21 21 1
21 45 1
21 53 1
21 57 1
21 277 1
21 301 1
21 309 1
21 313 1
21 341 1
21 365 1
21 373 1
21 377 1
21 405 1
21 429 1
21 437 1
21 441 1
22 22 1
22 46 1
22 54 1
22 59 1
22 278 1
22 302 1
22 310 1
22 315 1
22 342 1
22 366 1
22 374 1
22 379 1
22 406 1
22 430 1
22 438 1
22 443 1
23 23 1
23 47 1
23 55 1
23 62 1
23 279 1
23 303 1
23 311 1
23 318 1
23 343 1
23 367 1
23 375 1
23 382 1
23 407 1
23 431 1
23 439 1
23 446 1
24 24 1
24 48 1
24 56 1
24 60 1
24 280 1
24 304 1
24 312 1
24 316 1
24 344 1
24 368 1
24 376 1
24 380 1
24 408 1
24 432 1
24 440 1
24 444 1
25 25 1
25 33 1
25 41 1
25 49 1
25 281 1
25 289 1
25 297 1
25 305 1
25 345 1
25 353 1
25 361 1
25 369 1
25 409 1
25 417 1
25 425 1
25 433 1
26 26 1
26 34 1
26 42 1
26 50 1
26 282 1
26 290 1
26 298 1
26 306 1
26 346 1
26 354 1
26 362 1
26 370 1
26 410 1
26 418 1
26 426 1
26 434 1
27 27 1
27 35 1
27 43 1
27 51 1
27 283 1
27 291 1
27 299 1
27 307 1
27 347 1
27 355 1
27 363 1
27 371 1
27 411 1
27 419 1
27 427 1
27 435 1
28 28 1
28 36 1
28 44 1
28 52 1
28 284 1
28 292 1
28 300 1
28 308 1
28 348 1
28 356 1
28 364 1
28 372 1
28 412 1
28 420 1
28 428 1
28 436 1
29 29 1
29 37 1
29 45 1
29 53 1
29 285 1
29 293 1
29 301 1
29 309 1
29 349 1
29 357 1
29 365 1
29 373 1
29 413 1
29 421 1
29 429 1
29 437 1
30 30 1
30 38 1
30 46 1
30 54 1
30 286 1
30 294 1
30 302 1
30 310 1
30 350 1
30 358 1
30 366 1
30 374 1
30 414 1
30 422 1
30 430 1
30 438 1
31 31 1
31 39 1
31 47 1
31 55 1
31 287 1
31 295 1
31 303 1
31 311 1
31 351 1
31 359 1
31 367 1
31 375 1
31 415 1
31 423 1
31 431 1
31 439 1
32 32 1
32 40 1
32 48 1
32 56 1
32 288 1
32 296 1
32 304 1
32 312 1
32 352 1
32 360 1
32 368 1
32 376 1
32 416 1
32 424 1
32 432 1
32 440 1
33 65 1
33 97 1
33 105 1
33 128 1
33 257 1
33 289 1
33 297 1
33 320 1
33 321 1
33 353 1
33 361 1
33 384 1
33 449 1
33 481 1
33 489 1
33 512 1
34 66 1
34 98 1
34 106 1
34 127 1
34 258 1
34 290 1
34 298 1
34 319 1
34 322 1
34 354 1
34 362 1
34 383 1
34 450 1
34 482 1
34 490 1
34 511 1
35 67 1
35 99 1
35 107 1
35 122 1
35 259 1
35 291 1
35 299 1
35 314 1
35 323 1
35 355 1
35 363 1
35 378 1
35 451 1
35 483 1
35 491 1
35 506 1
36 68 1
36 100 1
36 108 1
36 125 1
36 260 1
36 292 1
36 300 1
36 317 1
36 324 1
36 356 1
36 364 1
36 381 1
36 452 1
36 484 1
36 492 1
36 509 1
37 69 1
37 101 1
37 109 1
37 121 1
37 261 1
37 293 1
37 301 1
37 313 1
37 325 1
37 357 1
37 365 1
37 377 1
37 453 1
37 485 1
37 493 1
37 505 1
38 70 1
38 102 1
38 110 1
38 123 1
38 262 1
38 294 1
38 302 1
38 315 1
38 326 1
38 358 1
38 366 1
38 379 1
38 454 1
38 486 1
38 494 1
38 507 1
39 71 1
39 103 1
39 111 1
39 126 1
39 263 1
39 295 1
39 303 1
39 318 1
39 327 1
39 359 1
39 367 1
39 382 1
39 455 1
39 487 1
39 495 1
39 510 1
40 72 1
40 104 1
40 112 1
40 124 1
40 264 1
40 296 1
40 304 1
40 316 1
40 328 1
40 360 1
40 368 1
40 380 1
40 456 1
40 488 1
40 496 1
40 508 1
41 73 1
41 97 1
41 113 1
41 128 1
41 265 1
41 289 1
41 305 1
41 320 1
41 329 1
41 353 1
41 369 1
41 384 1
41 457 1
41 481 1
41 497 1
41 512 1
42 74 1
42 98 1
42 114 1
42 127 1
42 266 1
42 290 1
42 306 1
42 319 1
42 330 1
42 354 1
42 370 1
42 383 1
42 458 1
42 482 1
42 498 1
42 511 1
43 75 1
43 99 1
43 115 1
43 122 1
43 267 1
43 291 1
43 307 1
43 314 1
43 331 1
43 355 1
43 371 1
43 378 1
43 459 1
43 483 1
43 499 1
43 506 1
44 76 1
44 100 1
44 116 1
44 125 1
44 268 1
44 292 1
44 308 1
44 317 1
44 332 1
44 356 1
44 372 1
44 381 1
44 460 1
44 484 1
44 500 1
44 509 1
45 77 1
45 101 1
45 117 1
45 121 1
45 269 1
45 293 1
45 309 1
45 313 1
45 333 1
45 357 1
45 373 1
45 377 1
45 461 1
45 485 1
45 501 1
45 505 1
46 78 1
46 102 1
46 118 1
46 123 1
46 270 1
46 294 1
46 310 1
46 315 1
46 334 1
46 358 1
46 374 1
46 379 1
46 462 1
46 486 1
46 502 1
46 507 1
47 79 1
47 103 1
47 119 1
47 126 1
47 271 1
47 295 1
47 311 1
47 318 1
47 335 1
47 359 1
47 375 1
47 382 1
47 463 1
47 487 1
47 503 1
47 510 1
48 80 1
48 104 1
48 120 1
48 124 1
48 272 1
48 296 1
48 312 1
48 316 1
48 336 1
48 360 1
48 376 1
48 380 1
48 464 1
48 488 1
48 504 1
48 508 1
49 81 1
49 105 1
49 113 1
49 128 1
49 273 1
49 297 1
49 305 1
49 320 1
49 337 1
49 361 1
49 369 1
49 384 1
49 465 1
49 489 1
49 497 1
49 512 1
50 82 1
50 106 1
50 114 1
50 127 1
50 274 1
50 298 1
50 306 1
50 319 1
50 338 1
50 362 1
50 370 1
50 383 1
50 466 1
50 490 1
50 498 1
50 511 1
51 83 1
51 107 1
51 115 1
51 122 1
51 275 1
51 299 1
51 307 1
51 314 1
51 339 1
51 363 1
51 371 1
51 378 1
51 467 1
51 491 1
51 499 1
51 506 1
52 84 1
52 108 1
52 116 1
52 125 1
52 276 1
52 300 1
52 308 1
52 317 1
52 340 1
52 364 1
52 372 1
52 381 1
52 468 1
52 492 1
52 500 1
52 509 1
53 85 1
53 109 1
53 117 1
53 121 1
53 277 1
53 301 1
53 309 1
53 313 1
53 341 1
53 365 1
53 373 1
53 377 1
53 469 1
53 493 1
53 501 1
53 505 1
54 86 1
54 110 1
54 118 1
54 123 1
54 278 1
54 302 1
54 310 1
54 315 1
54 342 1
54 366 1
54 374 1
54 379 1
54 470 1
54 494 1
54 502 1
54 507 1
55 87 1
55 111 1
55 119 1
55 126 1
55 279 1
55 303 1
55 311 1
55 318 1
55 343 1
55 367 1
55 375 1
55 382 1
55 471 1
55 495 1
55 503 1
55 510 1
56 88 1
56 112 1
56 120 1
56 124 1
56 280 1
56 304 1
56 312 1
56 316 1
56 344 1
56 368 1
56 376 1
56 380 1
56 472 1
56 496 1
56 504 1
56 508 1
57 89 1
57 97 1
57 105 1
57 113 1
57 281 1
57 289 1
57 297 1
57 305 1
57 345 1
57 353 1
57 361 1
57 369 1
57 473 1
57 481 1
57 489 1
57 497 1
58 90 1
58 98 1
58 106 1
58 114 1
58 282 1
58 290 1
58 298 1
58 306 1
58 346 1
58 354 1
58 362 1
58 370 1
58 474 1
58 482 1
58 490 1
58 498 1
59 91 1
59 99 1
59 107 1
59 115 1
59 283 1
59 291 1
59 299 1
59 307 1
59 347 1
59 355 1
59 363 1
59 371 1
59 475 1
59 483 1
59 491 1
59 499 1
60 92 1
60 100 1
60 108 1
60 116 1
60 284 1
60 292 1
60 300 1
60 308 1
60 348 1
60 356 1
60 364 1
60 372 1
60 476 1
60 484 1
60 492 1
60 500 1
61 93 1
61 101 1
61 109 1
61 117 1
61 285 1
61 293 1
61 301 1
61 309 1
61 349 1
61 357 1
61 365 1
61 373 1
61 477 1
61 485 1
61 493 1
61 501 1
62 94 1
62 102 1
62 110 1
62 118 1
62 286 1
62 294 1
62 302 1
62 310 1
62 350 1
62 358 1
62 366 1
62 374 1
62 478 1
62 486 1
62 494 1
62 502 1
63 95 1
63 103 1
63 111 1
63 119 1
63 287 1
63 295 1
63 303 1
63 311 1
63 351 1
63 359 1
63 367 1
63 375 1
63 479 1
63 487 1
63 495 1
63 503 1
64 96 1
64 104 1
64 112 1
64 120 1
64 288 1
64 296 1
64 304 1
64 312 1
64 352 1
64 360 1
64 368 1
64 376 1
64 480 1
64 488 1
64 496 1
64 504 1
65 129 1
65 161 1
65 169 1
65 192 1
65 257 1
65 289 1
65 297 1
65 320 1
65 385 1
65 417 1
65 425 1
65 448 1
65 449 1
65 481 1
65 489 1
65 512 1
66 130 1
66 162 1
66 170 1
66 191 1
66 258 1
66 290 1
66 298 1
66 319 1
66 386 1
66 418 1
66 426 1
66 447 1
66 450 1
66 482 1
66 490 1
66 511 1
67 131 1
67 163 1
67 171 1
67 186 1
67 259 1
67 291 1
67 299 1
67 314 1
67 387 1
67 419 1
67 427 1
67 442 1
67 451 1
67 483 1
67 491 1
67 506 1
68 132 1
68 164 1
68 172 1
68 189 1
68 260 1
68 292 1
68 300 1
68 317 1
68 388 1
68 420 1
68 428 1
68 445 1
68 452 1
68 484 1
68 492 1
68 509 1
69 133 1
69 165 1
69 173 1
69 185 1
69 261 1
69 293 1
69 301 1
69 313 1
69 389 1
69 421 1
69 429 1
69 441 1
69 453 1
69 485 1
69 493 1
69 505 1
70 134 1
70 166 1
70 174 1
70 187 1
70 262 1
70 294 1
70 302 1
70 315 1
70 390 1
70 422 1
70 430 1
70 443 1
70 454 1
70 486 1
70 494 1
70 507 1
71 135 1
71 167 1
71 175 1
71 190 1
71 263 1
71 295 1
71 303 1
71 318 1
71 391 1
71 423 1
71 431 1
71 446 1
71 455 1
71 487 1
71 495 1
71 510 1
72 136 1
72 168 1
72 176 1
72 188 1
72 264 1
72 296 1
72 304 1
72 316 1
72 392 1
72 424 1
72 432 1
72 444 1
72 456 1
72 488 1
72 496 1
72 508 1
73 137 1
73 161 1
73 177 1
73 192 1
73 265 1
73 289 1
73 305 1
73 320 1
73 393 1
73 417 1
73 433 1
73 448 1
73 457 1
73 481 1
73 497 1
73 512 1
74 138 1
74 162 1
74 178 1
74 191 1
74 266 1
74 290 1
74 306 1
74 319 1
74 394 1
74 418 1
74 434 1
74 447 1
74 458 1
74 482 1
74 498 1
74 511 1
75 139 1
75 163 1
75 179 1
75 186 1
75 267 1
75 291 1
75 307 1
75 314 1
75 395 1
75 419 1
75 435 1
75 442 1
75 459 1
75 483 1
75 499 1
75 506 1
76 140 1
76 164 1
76 180 1
76 189 1
76 268 1
76 292 1
76 308 1
76 317 1
76 396 1
76 420 1
76 436 1
76 445 1
76 460 1
76 484 1
76 500 1
76 509 1
77 141 1
77 165 1
77 181 1
77 185 1
77 269 1
77 293 1
77 309 1
77 313 1
77 397 1
77 421 1
77 437 1
77 441 1
77 461 1
77 485 1
77 501 1
77 505 1
78 142 1
78 166 1
78 182 1
78 187 1
78 270 1
78 294 1
78 310 1
78 315 1
78 398 1
78 422 1
78 438 1
78 443 1
78 462 1
78 486 1
78 502 1
78 507 1
79 143 1
79 167 1
79 183 1
79 190 1
79 271 1
79 295 1
79 311 1
79 318 1
79 399 1
79 423 1
79 439 1
79 446 1
79 463 1
79 487 1
79 503 1
79 510 1
80 144 1
80 168 1
80 184 1
80 188 1
80 272 1
80 296 1
80 312 1
80 316 1
80 400 1
80 424 1
80 440 1
80 444 1
80 464 1
80 488 1
80 504 1
80 508 1
81 145 1
81 169 1
81 177 1
81 192 1
81 273 1
81 297 1
81 305 1
81 320 1
81 401 1
81 425 1
81 433 1
81 448 1
81 465 1
81 489 1
81 497 1
81 512 1
82 146 1
82 170 1
82 178 1
82 191 1
82 274 1
82 298 1
82 306 1
82 319 1
82 402 1
82 426 1
82 434 1
82 447 1
82 466 1
82 490 1
82 498 1
82 511 1
83 147 1
83 171 1
83 179 1
83 186 1
83 275 1
83 299 1
83 307 1
83 314 1
83 403 1
83 427 1
83 435 1
83 442 1
83 467 1
83 491 1
83 499 1
83 506 1
84 148 1
84 172 1
84 180 1
84 189 1
84 276 1
84 300 1
84 308 1
84 317 1
84 404 1
84 428 1
84 436 1
84 445 1
84 468 1
84 492 1
84 500 1
84 509 1
85 149 1
85 173 1
85 181 1
85 185 1
85 277 1
85 301 1
85 309 1
85 313 1
85 405 1
85 429 1
85 437 1
85 441 1
85 469 1
85 493 1
85 501 1
85 505 1
86 150 1
86 174 1
86 182 1
86 187 1
86 278 1
86 302 1
86 310 1
86 315 1
86 406 1
86 430 1
86 438 1
86 443 1
86 470 1
86 494 1
86 502 1
86 507 1
87 151 1
87 175 1
87 183 1
87 190 1
87 279 1
87 303 1
87 311 1
87 318 1
87 407 1
87 431 1
87 439 1
87 446 1
87 471 1
87 495 1
87 503 1
87 510 1
88 152 1
88 176 1
88 184 1
88 188 1
88 280 1
88 304 1
88 312 1
88 316 1
88 408 1
88 432 1
88 440 1
88 444 1
88 472 1
88 496 1
88 504 1
88 508 1
89 153 1
89 161 1
89 169 1
89 177 1
89 281 1
89 289 1
89 297 1
89 305 1
89 409 1
89 417 1
89 425 1
89 433 1
89 473 1
89 481 1
89 489 1
89 497 1
90 154 1
90 162 1
90 170 1
90 178 1
90 282 1
90 290 1
90 298 1
90 306 1
90 410 1
90 418 1
90 426 1
90 434 1
90 474 1
90 482 1
90 490 1
90 498 1
91 155 1
91 163 1
91 171 1
91 179 1
91 283 1
91 291 1
91 299 1
91 307 1
91 411 1
91 419 1
91 427 1
91 435 1
91 475 1
91 483 1
91 491 1
91 499 1
92 156 1
92 164 1
92 172 1
92 180 1
92 284 1
92 292 1
92 300 1
92 308 1
92 412 1
92 420 1
92 428 1
92 436 1
92 476 1
92 484 1
92 492 1
92 500 1
93 157 1
93 165 1
93 173 1
93 181 1
93 285 1
93 293 1
93 301 1
93 309 1
93 413 1
93 421 1
93 429 1
93 437 1
93 477 1
93 485 1
93 493 1
93 501 1
94 158 1
94 166 1
94 174 1
94 182 1
94 286 1
94 294 1
94 302 1
94 310 1
94 414 1
94 422 1
94 430 1
94 438 1
94 478 1
94 486 1
94 494 1
94 502 1
95 159 1
95 167 1
95 175 1
95 183 1
95 287 1
95 295 1
95 303 1
95 311 1
95 415 1
95 423 1
95 431 1
95 439 1
95 479 1
95 487 1
95 495 1
95 503 1
96 160 1
96 168 1
96 176 1
96 184 1
96 288 1
96 296 1
96 304 1
96 312 1
96 416 1
96 424 1
96 432 1
96 440 1
96 480 1
96 488 1
96 496 1
96 504 1
97 193 1
97 225 1
97 233 1
97 256 1
97 321 1
97 353 1
97 361 1
97 384 1
97 385 1
97 417 1
97 425 1
97 448 1
97 449 1
97 481 1
97 489 1
97 512 1
98 194 1
98 226 1
98 234 1
98 255 1
98 322 1
98 354 1
98 362 1
98 383 1
98 386 1
98 418 1
98 426 1
98 447 1
98 450 1
98 482 1
98 490 1
98 511 1
99 195 1
99 227 1
99 235 1
99 250 1
99 323 1
99 355 1
99 363 1
99 378 1
99 387 1
99 419 1
99 427 1
99 442 1
99 451 1
99 483 1
99 491 1
99 506 1
100 196 1
100 228 1
100 236 1
100 253 1
100 324 1
100 356 1
100 364 1
100 381 1
100 388 1
100 420 1
100 428 1
100 445 1
100 452 1
100 484 1
100 492 1
100 509 1
101 197 1
101 229 1
101 237 1
101 249 1
101 325 1
101 357 1
101 365 1
101 377 1
101 389 1
101 421 1
101 429 1
101 441 1
101 453 1
101 485 1
101 493 1
101 505 1
102 198 1
102 230 1
102 238 1
102 251 1
102 326 1
102 358 1
102 366 1
102 379 1
102 390 1
102 422 1
102 430 1
102 443 1
102 454 1
102 486 1
102 494 1
102 507 1
103 199 1
103 231 1
103 239 1
103 254 1
103 327 1
103 359 1
103 367 1
103 382 1
103 391 1
103 423 1
103 431 1
103 446 1
103 455 1
103 487 1
103 495 1
103 510 1
104 200 1
104 232 1
104 240 1
104 252 1
104 328 1
104 360 1
104 368 1
104 380 1
104 392 1
104 424 1
104 432 1
104 444 1
104 456 1
104 488 1
104 496 1
104 508 1
105 201 1
105 225 1
105 241 1
105 256 1
105 329 1
105 353 1
105 369 1
105 384 1
105 393 1
105 417 1
105 433 1
105 448 1
105 457 1
105 481 1
105 497 1
105 512 1
106 202 1
106 226 1
106 242 1
106 255 1
106 330 1
106 354 1
106 370 1
106 383 1
106 394 1
106 418 1
106 434 1
106 447 1
106 458 1
106 482 1
106 498 1
106 511 1
107 203 1
107 227 1
107 243 1
107 250 1
107 331 1
107 355 1
107 371 1
107 378 1
107 395 1
107 419 1
107 435 1
107 442 1
107 459 1
107 483 1
107 499 1
107 506 1
108 204 1
108 228 1
108 244 1
108 253 1
108 332 1
108 356 1
108 372 1
108 381 1
108 396 1
108 420 1
108 436 1
108 445 1
108 460 1
108 484 1
108 500 1
108 509 1
109 205 1
109 229 1
109 245 1
109 249 1
109 333 1
109 357 1
109 373 1
109 377 1
109 397 1
109 421 1
109 437 1
109 441 1
109 461 1
109 485 1
109 501 1
109 505 1
110 206 1
110 230 1
110 246 1
110 251 1
110 334 1
110 358 1
110 374 1
110 379 1
110 398 1
110 422 1
110 438 1
110 443 1
110 462 1
110 486 1
110 502 1
110 507 1
111 207 1
111 231 1
111 247 1
111 254 1
111 335 1
111 359 1
111 375 1
111 382 1
111 399 1
111 423 1
111 439 1
111 446 1
111 463 1
111 487 1
111 503 1
111 510 1
112 208 1
112 232 1
112 248 1
112 252 1
112 336 1
112 360 1
112 376 1
112 380 1
112 400 1
112 424 1
112 440 1
112 444 1
112 464 1
112 488 1
112 504 1
112 508 1
113 209 1
113 233 1
113 241 1
113 256 1
113 337 1
113 361 1
113 369 1
113 384 1
113 401 1
113 425 1
113 433 1
113 448 1
113 465 1
113 489 1
113 497 1
113 512 1
114 210 1
114 234 1
114 242 1
114 255 1
114 338 1
114 362 1
114 370 1
114 383 1
114 402 1
114 426 1
114 434 1
114 447 1
114 466 1
114 490 1
114 498 1
114 511 1
115 211 1
115 235 1
115 243 1
115 250 1
115 339 1
115 363 1
115 371 1
115 378 1
115 403 1
115 427 1
115 435 1
115 442 1
115 467 1
115 491 1
115 499 1
115 506 1
116 212 1
116 236 1
116 244 1
116 253 1
116 340 1
116 364 1
116 372 1
116 381 1
116 404 1
116 428 1
116 436 1
116 445 1
116 468 1
116 492 1
116 500 1
116 509 1
117 213 1
117 237 1
117 245 1
117 249 1
117 341 1
117 365 1
117 373 1
117 377 1
117 405 1
117 429 1
117 437 1
117 441 1
117 469 1
117 493 1
117 501 1
117 505 1
118 214 1
118 238 1
118 246 1
118 251 1
118 342 1
118 366 1
118 374 1
118 379 1
118 406 1
118 430 1
118 438 1
118 443 1
118 470 1
118 494 1
118 502 1
118 507 1
119 215 1
119 239 1
119 247 1
119 254 1
119 343 1
119 367 1
119 375 1
119 382 1
119 407 1
119 431 1
119 439 1
119 446 1
119 471 1
119 495 1
119 503 1
119 510 1
120 216 1
120 240 1
120 248 1
120 252 1
120 344 1
120 368 1
120 376 1
120 380 1
120 408 1
120 432 1
120 440 1
120 444 1
120 472 1
120 496 1
120 504 1
120 508 1
121 217 1
121 225 1
121 233 1
121 241 1
121 345 1
121 353 1
121 361 1
121 369 1
121 409 1
121 417 1
121 425 1
121 433 1
121 473 1
121 481 1
121 489 1
121 497 1
122 218 1
122 226 1
122 234 1
122 242 1
122 346 1
122 354 1
122 362 1
122 370 1
122 410 1
122 418 1
122 426 1
122 434 1
122 474 1
122 482 1
122 490 1
122 498 1
123 219 1
123 227 1
123 235 1
123 243 1
123 347 1
123 355 1
123 363 1
123 371 1
123 411 1
123 419 1
123 427 1
123 435 1
123 475 1
123 483 1
123 491 1
123 499 1
124 220 1
124 228 1
124 236 1
124 244 1
124 348 1
124 356 1
124 364 1
124 372 1
124 412 1
124 420 1
124 428 1
124 436 1
124 476 1
124 484 1
124 492 1
124 500 1
125 221 1
125 229 1
125 237 1
125 245 1
125 349 1
125 357 1
125 365 1
125 373 1
125 413 1
125 421 1
125 429 1
125 437 1
125 477 1
125 485 1
125 493 1
125 501 1
126 222 1
126 230 1
126 238 1
126 246 1
126 350 1
126 358 1
126 366 1
126 374 1
126 414 1
126 422 1
126 430 1
126 438 1
126 478 1
126 486 1
126 494 1
126 502 1
127 223 1
127 231 1
127 239 1
127 247 1
127 351 1
127 359 1
127 367 1
127 375 1
127 415 1
127 423 1
127 431 1
127 439 1
127 479 1
127 487 1
127 495 1
127 503 1
128 224 1
128 232 1
128 240 1
128 248 1
128 352 1
128 360 1
128 368 1
128 376 1
128 416 1
128 424 1
128 432 1
128 440 1
128 480 1
128 488 1
128 496 1
128 504 1
129 1 1
129 33 1
129 41 1
129 49 1
129 194 1
129 226 1
129 234 1
129 242 1
129 325 1
129 357 1
129 365 1
129 373 1
129 391 1
129 423 1
129 431 1
129 439 1
130 2 1
130 34 1
130 42 1
130 50 1
130 193 1
130 225 1
130 233 1
130 241 1
130 327 1
130 359 1
130 367 1
130 375 1
130 389 1
130 421 1
130 429 1
130 437 1
131 3 1
131 35 1
131 43 1
131 51 1
131 197 1
131 229 1
131 237 1
131 245 1
131 322 1
131 354 1
131 362 1
131 370 1
131 388 1
131 420 1
131 428 1
131 436 1
132 4 1
132 36 1
132 44 1
132 52 1
132 198 1
132 230 1
132 238 1
132 246 1
132 328 1
132 360 1
132 368 1
132 376 1
132 387 1
132 419 1
132 427 1
132 435 1
133 5 1
133 37 1
133 45 1
133 53 1
133 195 1
133 227 1
133 235 1
133 243 1
133 324 1
133 356 1
133 364 1
133 372 1
133 386 1
133 418 1
133 426 1
133 434 1
134 6 1
134 38 1
134 46 1
134 54 1
134 196 1
134 228 1
134 236 1
134 244 1
134 323 1
134 355 1
134 363 1
134 371 1
134 392 1
134 424 1
134 432 1
134 440 1
135 7 1
135 39 1
135 47 1
135 55 1
135 200 1
135 232 1
135 240 1
135 248 1
135 326 1
135 358 1
135 366 1
135 374 1
135 385 1
135 417 1
135 425 1
135 433 1
136 8 1
136 40 1
136 48 1
136 56 1
136 199 1
136 231 1
136 239 1
136 247 1
136 321 1
136 353 1
136 361 1
136 369 1
136 390 1
136 422 1
136 430 1
136 438 1
137 9 1
137 33 1
137 41 1
137 57 1
137 202 1
137 226 1
137 234 1
137 250 1
137 333 1
137 357 1
137 365 1
137 381 1
137 399 1
137 423 1
137 431 1
137 447 1
138 10 1
138 34 1
138 42 1
138 58 1
138 201 1
138 225 1
138 233 1
138 249 1
138 335 1
138 359 1
138 367 1
138 383 1
138 397 1
138 421 1
138 429 1
138 445 1
139 11 1
139 35 1
139 43 1
139 59 1
139 205 1
139 229 1
139 237 1
139 253 1
139 330 1
139 354 1
139 362 1
139 378 1
139 396 1
139 420 1
139 428 1
139 444 1
140 12 1
140 36 1
140 44 1
140 60 1
140 206 1
140 230 1
140 238 1
140 254 1
140 336 1
140 360 1
140 368 1
140 384 1
140 395 1
140 419 1
140 427 1
140 443 1
141 13 1
141 37 1
141 45 1
141 61 1
141 203 1
141 227 1
141 235 1
141 251 1
141 332 1
141 356 1
141 364 1
141 380 1
141 394 1
141 418 1
141 426 1
141 442 1
142 14 1
142 38 1
142 46 1
142 62 1
142 204 1
142 228 1
142 236 1
142 252 1
142 331 1
142 355 1
142 363 1
142 379 1
142 400 1
142 424 1
142 432 1
142 448 1
143 15 1
143 39 1
143 47 1
143 63 1
143 208 1
143 232 1
143 240 1
143 256 1
143 334 1
143 358 1
143 366 1
143 382 1
143 393 1
143 417 1
143 425 1
143 441 1
144 16 1
144 40 1
144 48 1
144 64 1
144 207 1
144 231 1
144 239 1
144 255 1
144 329 1
144 353 1
144 361 1
144 377 1
144 398 1
144 422 1
144 430 1
144 446 1
145 17 1
145 33 1
145 49 1
145 57 1
145 210 1
145 226 1
145 242 1
145 250 1
145 341 1
145 357 1
145 373 1
145 381 1
145 407 1
145 423 1
145 439 1
145 447 1
146 18 1
146 34 1
146 50 1
146 58 1
146 209 1
146 225 1
146 241 1
146 249 1
146 343 1
146 359 1
146 375 1
146 383 1
146 405 1
146 421 1
146 437 1
146 445 1
147 19 1
147 35 1
147 51 1
147 59 1
147 213 1
147 229 1
147 245 1
147 253 1
147 338 1
147 354 1
147 370 1
147 378 1
147 404 1
147 420 1
147 436 1
147 444 1
148 20 1
148 36 1
148 52 1
148 60 1
148 214 1
148 230 1
148 246 1
148 254 1
148 344 1
148 360 1
148 376 1
148 384 1
148 403 1
148 419 1
148 435 1
148 443 1
149 21 1
149 37 1
149 53 1
149 61 1
149 211 1
149 227 1
149 243 1
149 251 1
149 340 1
149 356 1
149 372 1
149 380 1
149 402 1
149 418 1
149 434 1
149 442 1
150 22 1
150 38 1
150 54 1
150 62 1
150 212 1
150 228 1
150 244 1
150 252 1
150 339 1
150 355 1
150 371 1
150 379 1
150 408 1
150 424 1
150 440 1
150 448 1
151 23 1
151 39 1
151 55 1
151 63 1
151 216 1
151 232 1
151 248 1
151 256 1
151 342 1
151 358 1
151 374 1
151 382 1
151 401 1
151 417 1
151 433 1
151 441 1
152 24 1
152 40 1
152 56 1
152 64 1
152 215 1
152 231 1
152 247 1
152 255 1
152 337 1
152 353 1
152 369 1
152 377 1
152 406 1
152 422 1
152 438 1
152 446 1
153 25 1
153 41 1
153 49 1
153 57 1
153 218 1
153 234 1
153 242 1
153 250 1
153 349 1
153 365 1
153 373 1
153 381 1
153 415 1
153 431 1
153 439 1
153 447 1
154 26 1
154 42 1
154 50 1
154 58 1
154 217 1
154 233 1
154 241 1
154 249 1
154 351 1
154 367 1
154 375 1
154 383 1
154 413 1
154 429 1
154 437 1
154 445 1
155 27 1
155 43 1
155 51 1
155 59 1
155 221 1
155 237 1
155 245 1
155 253 1
155 346 1
155 362 1
155 370 1
155 378 1
155 412 1
155 428 1
155 436 1
155 444 1
156 28 1
156 44 1
156 52 1
156 60 1
156 222 1
156 238 1
156 246 1
156 254 1
156 352 1
156 368 1
156 376 1
156 384 1
156 411 1
156 427 1
156 435 1
156 443 1
157 29 1
157 45 1
157 53 1
157 61 1
157 219 1
157 235 1
157 243 1
157 251 1
157 348 1
157 364 1
157 372 1
157 380 1
157 410 1
157 426 1
157 434 1
157 442 1
158 30 1
158 46 1
158 54 1
158 62 1
158 220 1
158 236 1
158 244 1
158 252 1
158 347 1
158 363 1
158 371 1
158 379 1
158 416 1
158 432 1
158 440 1
158 448 1
159 31 1
159 47 1
159 55 1
159 63 1
159 224 1
159 240 1
159 248 1
159 256 1
159 350 1
159 366 1
159 374 1
159 382 1
159 409 1
159 425 1
159 433 1
159 441 1
160 32 1
160 48 1
160 56 1
160 64 1
160 223 1
160 239 1
160 247 1
160 255 1
160 345 1
160 361 1
160 369 1
160 377 1
160 414 1
160 430 1
160 438 1
160 446 1
161 65 1
161 97 1
161 105 1
161 113 1
161 194 1
161 226 1
161 234 1
161 242 1
161 325 1
161 357 1
161 365 1
161 373 1
161 456 1
161 488 1
161 496 1
161 504 1
162 66 1
162 98 1
162 106 1
162 114 1
162 193 1
162 225 1
162 233 1
162 241 1
162 327 1
162 359 1
162 367 1
162 375 1
162 451 1
162 483 1
162 491 1
162 499 1
163 67 1
163 99 1
163 107 1
163 115 1
163 197 1
163 229 1
163 237 1
163 245 1
163 322 1
163 354 1
163 362 1
163 370 1
163 454 1
163 486 1
163 494 1
163 502 1
164 68 1
164 100 1
164 108 1
164 116 1
164 198 1
164 230 1
164 238 1
164 246 1
164 328 1
164 360 1
164 368 1
164 376 1
164 453 1
164 485 1
164 493 1
164 501 1
165 69 1
165 101 1
165 109 1
165 117 1
165 195 1
165 227 1
165 235 1
165 243 1
165 324 1
165 356 1
165 364 1
165 372 1
165 449 1
165 481 1
165 489 1
165 497 1
166 70 1
166 102 1
166 110 1
166 118 1
166 196 1
166 228 1
166 236 1
166 244 1
166 323 1
166 355 1
166 363 1
166 371 1
166 455 1
166 487 1
166 495 1
166 503 1
167 71 1
167 103 1
167 111 1
167 119 1
167 200 1
167 232 1
167 240 1
167 248 1
167 326 1
167 358 1
167 366 1
167 374 1
167 450 1
167 482 1
167 490 1
167 498 1
168 72 1
168 104 1
168 112 1
168 120 1
168 199 1
168 231 1
168 239 1
168 247 1
168 321 1
168 353 1
168 361 1
168 369 1
168 452 1
168 484 1
168 492 1
168 500 1
169 73 1
169 97 1
169 105 1
169 121 1
169 202 1
169 226 1
169 234 1
169 250 1
169 333 1
169 357 1
169 365 1
169 381 1
169 464 1
169 488 1
169 496 1
169 512 1
170 74 1
170 98 1
170 106 1
170 122 1
170 201 1
170 225 1
170 233 1
170 249 1
170 335 1
170 359 1
170 367 1
170 383 1
170 459 1
170 483 1
170 491 1
170 507 1
171 75 1
171 99 1
171 107 1
171 123 1
171 205 1
171 229 1
171 237 1
171 253 1
171 330 1
171 354 1
171 362 1
171 378 1
171 462 1
171 486 1
171 494 1
171 510 1
172 76 1
172 100 1
172 108 1
172 124 1
172 206 1
172 230 1
172 238 1
172 254 1
172 336 1
172 360 1
172 368 1
172 384 1
172 461 1
172 485 1
172 493 1
172 509 1
173 77 1
173 101 1
173 109 1
173 125 1
173 203 1
173 227 1
173 235 1
173 251 1
173 332 1
173 356 1
173 364 1
173 380 1
173 457 1
173 481 1
173 489 1
173 505 1
174 78 1
174 102 1
174 110 1
174 126 1
174 204 1
174 228 1
174 236 1
174 252 1
174 331 1
174 355 1
174 363 1
174 379 1
174 463 1
174 487 1
174 495 1
174 511 1
175 79 1
175 103 1
175 111 1
175 127 1
175 208 1
175 232 1
175 240 1
175 256 1
175 334 1
175 358 1
175 366 1
175 382 1
175 458 1
175 482 1
175 490 1
175 506 1
176 80 1
176 104 1
176 112 1
176 128 1
176 207 1
176 231 1
176 239 1
176 255 1
176 329 1
176 353 1
176 361 1
176 377 1
176 460 1
176 484 1
176 492 1
176 508 1
177 81 1
177 97 1
177 113 1
177 121 1
177 210 1
177 226 1
177 242 1
177 250 1
177 341 1
177 357 1
177 373 1
177 381 1
177 472 1
177 488 1
177 504 1
177 512 1
178 82 1
178 98 1
178 114 1
178 122 1
178 209 1
178 225 1
178 241 1
178 249 1
178 343 1
178 359 1
178 375 1
178 383 1
178 467 1
178 483 1
178 499 1
178 507 1
179 83 1
179 99 1
179 115 1
179 123 1
179 213 1
179 229 1
179 245 1
179 253 1
179 338 1
179 354 1
179 370 1
179 378 1
179 470 1
179 486 1
179 502 1
179 510 1
180 84 1
180 100 1
180 116 1
180 124 1
180 214 1
180 230 1
180 246 1
180 254 1
180 344 1
180 360 1
180 376 1
180 384 1
180 469 1
180 485 1
180 501 1
180 509 1
181 85 1
181 101 1
181 117 1
181 125 1
181 211 1
181 227 1
181 243 1
181 251 1
181 340 1
181 356 1
181 372 1
181 380 1
181 465 1
181 481 1
181 497 1
181 505 1
182 86 1
182 102 1
182 118 1
182 126 1
182 212 1
182 228 1
182 244 1
182 252 1
182 339 1
182 355 1
182 371 1
182 379 1
182 471 1
182 487 1
182 503 1
182 511 1
183 87 1
183 103 1
183 119 1
183 127 1
183 216 1
183 232 1
183 248 1
183 256 1
183 342 1
183 358 1
183 374 1
183 382 1
183 466 1
183 482 1
183 498 1
183 506 1
184 88 1
184 104 1
184 120 1
184 128 1
184 215 1
184 231 1
184 247 1
184 255 1
184 337 1
184 353 1
184 369 1
184 377 1
184 468 1
184 484 1
184 500 1
184 508 1
185 89 1
185 105 1
185 113 1
185 121 1
185 218 1
185 234 1
185 242 1
185 250 1
185 349 1
185 365 1
185 373 1
185 381 1
185 480 1
185 496 1
185 504 1
185 512 1
186 90 1
186 106 1
186 114 1
186 122 1
186 217 1
186 233 1
186 241 1
186 249 1
186 351 1
186 367 1
186 375 1
186 383 1
186 475 1
186 491 1
186 499 1
186 507 1
187 91 1
187 107 1
187 115 1
187 123 1
187 221 1
187 237 1
187 245 1
187 253 1
187 346 1
187 362 1
187 370 1
187 378 1
187 478 1
187 494 1
187 502 1
187 510 1
188 92 1
188 108 1
188 116 1
188 124 1
188 222 1
188 238 1
188 246 1
188 254 1
188 352 1
188 368 1
188 376 1
188 384 1
188 477 1
188 493 1
188 501 1
188 509 1
189 93 1
189 109 1
189 117 1
189 125 1
189 219 1
189 235 1
189 243 1
189 251 1
189 348 1
189 364 1
189 372 1
189 380 1
189 473 1
189 489 1
189 497 1
189 505 1
190 94 1
190 110 1
190 118 1
190 126 1
190 220 1
190 236 1
190 244 1
190 252 1
190 347 1
190 363 1
190 371 1
190 379 1
190 479 1
190 495 1
190 503 1
190 511 1
191 95 1
191 111 1
191 119 1
191 127 1
191 224 1
191 240 1
191 248 1
191 256 1
191 350 1
191 366 1
191 374 1
191 382 1
191 474 1
191 490 1
191 498 1
191 506 1
192 96 1
192 112 1
192 120 1
192 128 1
192 223 1
192 239 1
192 247 1
192 255 1
192 345 1
192 361 1
192 369 1
192 377 1
192 476 1
192 492 1
192 500 1
192 508 1
193 130 1
193 162 1
193 170 1
193 178 1
193 194 1
193 226 1
193 234 1
193 242 1
193 391 1
193 423 1
193 431 1
193 439 1
193 456 1
193 488 1
193 496 1
193 504 1
194 129 1
194 161 1
194 169 1
194 177 1
194 193 1
194 225 1
194 233 1
194 241 1
194 389 1
194 421 1
194 429 1
194 437 1
194 451 1
194 483 1
194 491 1
194 499 1
195 133 1
195 165 1
195 173 1
195 181 1
195 197 1
195 229 1
195 237 1
195 245 1
195 388 1
195 420 1
195 428 1
195 436 1
195 454 1
195 486 1
195 494 1
195 502 1
196 134 1
196 166 1
196 174 1
196 182 1
196 198 1
196 230 1
196 238 1
196 246 1
196 387 1
196 419 1
196 427 1
196 435 1
196 453 1
196 485 1
196 493 1
196 501 1
197 131 1
197 163 1
197 171 1
197 179 1
197 195 1
197 227 1
197 235 1
197 243 1
197 386 1
197 418 1
197 426 1
197 434 1
197 449 1
197 481 1
197 489 1
197 497 1
198 132 1
198 164 1
198 172 1
198 180 1
198 196 1
198 228 1
198 236 1
198 244 1
198 392 1
198 424 1
198 432 1
198 440 1
198 455 1
198 487 1
198 495 1
198 503 1
199 136 1
199 168 1
199 176 1
199 184 1
199 200 1
199 232 1
199 240 1
199 248 1
199 385 1
199 417 1
199 425 1
199 433 1
199 450 1
199 482 1
199 490 1
199 498 1
200 135 1
200 167 1
200 175 1
200 183 1
200 199 1
200 231 1
200 239 1
200 247 1
200 390 1
200 422 1
200 430 1
200 438 1
200 452 1
200 484 1
200 492 1
200 500 1
201 138 1
201 162 1
201 170 1
201 186 1
201 202 1
201 226 1
201 234 1
201 250 1
201 399 1
201 423 1
201 431 1
201 447 1
201 464 1
201 488 1
201 496 1
201 512 1
202 137 1
202 161 1
202 169 1
202 185 1
202 201 1
202 225 1
202 233 1
202 249 1
202 397 1
202 421 1
202 429 1
202 445 1
202 459 1
202 483 1
202 491 1
202 507 1
203 141 1
203 165 1
203 173 1
203 189 1
203 205 1
203 229 1
203 237 1
203 253 1
203 396 1
203 420 1
203 428 1
203 444 1
203 462 1
203 486 1
203 494 1
203 510 1
204 142 1
204 166 1
204 174 1
204 190 1
204 206 1
204 230 1
204 238 1
204 254 1
204 395 1
204 419 1
204 427 1
204 443 1
204 461 1
204 485 1
204 493 1
204 509 1
205 139 1
205 163 1
205 171 1
205 187 1
205 203 1
205 227 1
205 235 1
205 251 1
205 394 1
205 418 1
205 426 1
205 442 1
205 457 1
205 481 1
205 489 1
205 505 1
206 140 1
206 164 1
206 172 1
206 188 1
206 204 1
206 228 1
206 236 1
206 252 1
206 400 1
206 424 1
206 432 1
206 448 1
206 463 1
206 487 1
206 495 1
206 511 1
207 144 1
207 168 1
207 176 1
207 192 1
207 208 1
207 232 1
207 240 1
207 256 1
207 393 1
207 417 1
207 425 1
207 441 1
207 458 1
207 482 1
207 490 1
207 506 1
208 143 1
208 167 1
208 175 1
208 191 1
208 207 1
208 231 1
208 239 1
208 255 1
208 398 1
208 422 1
208 430 1
208 446 1
208 460 1
208 484 1
208 492 1
208 508 1
209 146 1
209 162 1
209 178 1
209 186 1
209 210 1
209 226 1
209 242 1
209 250 1
209 407 1
209 423 1
209 439 1
209 447 1
209 472 1
209 488 1
209 504 1
209 512 1
210 145 1
210 161 1
210 177 1
210 185 1
210 209 1
210 225 1
210 241 1
210 249 1
210 405 1
210 421 1
210 437 1
210 445 1
210 467 1
210 483 1
210 499 1
210 507 1
211 149 1
211 165 1
211 181 1
211 189 1
211 213 1
211 229 1
211 245 1
211 253 1
211 404 1
211 420 1
211 436 1
211 444 1
211 470 1
211 486 1
211 502 1
211 510 1
212 150 1
212 166 1
212 182 1
212 190 1
212 214 1
212 230 1
212 246 1
212 254 1
212 403 1
212 419 1
212 435 1
212 443 1
212 469 1
212 485 1
212 501 1
212 509 1
213 147 1
213 163 1
213 179 1
213 187 1
213 211 1
213 227 1
213 243 1
213 251 1
213 402 1
213 418 1
213 434 1
213 442 1
213 465 1
213 481 1
213 497 1
213 505 1
214 148 1
214 164 1
214 180 1
214 188 1
214 212 1
214 228 1
214 244 1
214 252 1
214 408 1
214 424 1
214 440 1
214 448 1
214 471 1
214 487 1
214 503 1
214 511 1
215 152 1
215 168 1
215 184 1
215 192 1
215 216 1
215 232 1
215 248 1
215 256 1
215 401 1
215 417 1
215 433 1
215 441 1
215 466 1
215 482 1
215 498 1
215 506 1
216 151 1
216 167 1
216 183 1
216 191 1
216 215 1
216 231 1
216 247 1
216 255 1
216 406 1
216 422 1
216 438 1
216 446 1
216 468 1
216 484 1
216 500 1
216 508 1
217 154 1
217 170 1
217 178 1
217 186 1
217 218 1
217 234 1
217 242 1
217 250 1
217 415 1
217 431 1
217 439 1
217 447 1
217 480 1
217 496 1
217 504 1
217 512 1
218 153 1
218 169 1
218 177 1
218 185 1
218 217 1
218 233 1
218 241 1
218 249 1
218 413 1
218 429 1
218 437 1
218 445 1
218 475 1
218 491 1
218 499 1
218 507 1
219 157 1
219 173 1
219 181 1
219 189 1
219 221 1
219 237 1
219 245 1
219 253 1
219 412 1
219 428 1
219 436 1
219 444 1
219 478 1
219 494 1
219 502 1
219 510 1
220 158 1
220 174 1
220 182 1
220 190 1
220 222 1
220 238 1
220 246 1
220 254 1
220 411 1
220 427 1
220 435 1
220 443 1
220 477 1
220 493 1
220 501 1
220 509 1
221 155 1
221 171 1
221 179 1
221 187 1
221 219 1
221 235 1
221 243 1
221 251 1
221 410 1
221 426 1
221 434 1
221 442 1
221 473 1
221 489 1
221 497 1
221 505 1
222 156 1
222 172 1
222 180 1
222 188 1
222 220 1
222 236 1
222 244 1
222 252 1
222 416 1
222 432 1
222 440 1
222 448 1
222 479 1
222 495 1
222 503 1
222 511 1
223 160 1
223 176 1
223 184 1
223 192 1
223 224 1
223 240 1
223 248 1
223 256 1
223 409 1
223 425 1
223 433 1
223 441 1
223 474 1
223 490 1
223 498 1
223 506 1
224 159 1
224 175 1
224 183 1
224 191 1
224 223 1
224 239 1
224 247 1
224 255 1
224 414 1
224 430 1
224 438 1
224 446 1
224 476 1
224 492 1
224 500 1
224 508 1
225 259 1
225 291 1
225 299 1
225 307 1
225 325 1
225 357 1
225 365 1
225 373 1
225 391 1
225 423 1
225 431 1
225 439 1
225 456 1
225 488 1
225 496 1
225 504 1
226 264 1
226 296 1
226 304 1
226 312 1
226 327 1
226 359 1
226 367 1
226 375 1
226 389 1
226 421 1
226 429 1
226 437 1
226 451 1
226 483 1
226 491 1
226 499 1
227 257 1
227 289 1
227 297 1
227 305 1
227 322 1
227 354 1
227 362 1
227 370 1
227 388 1
227 420 1
227 428 1
227 436 1
227 454 1
227 486 1
227 494 1
227 502 1
228 263 1
228 295 1
228 303 1
228 311 1
228 328 1
228 360 1
228 368 1
228 376 1
228 387 1
228 419 1
228 427 1
228 435 1
228 453 1
228 485 1
228 493 1
228 501 1
229 262 1
229 294 1
229 302 1
229 310 1
229 324 1
229 356 1
229 364 1
229 372 1
229 386 1
229 418 1
229 426 1
229 434 1
229 449 1
229 481 1
229 489 1
229 497 1
230 261 1
230 293 1
230 301 1
230 309 1
230 323 1
230 355 1
230 363 1
230 371 1
230 392 1
230 424 1
230 432 1
230 440 1
230 455 1
230 487 1
230 495 1
230 503 1
231 260 1
231 292 1
231 300 1
231 308 1
231 326 1
231 358 1
231 366 1
231 374 1
231 385 1
231 417 1
231 425 1
231 433 1
231 450 1
231 482 1
231 490 1
231 498 1
232 258 1
232 290 1
232 298 1
232 306 1
232 321 1
232 353 1
232 361 1
232 369 1
232 390 1
232 422 1
232 430 1
232 438 1
232 452 1
232 484 1
232 492 1
232 500 1
233 267 1
233 291 1
233 299 1
233 315 1
233 333 1
233 357 1
233 365 1
233 381 1
233 399 1
233 423 1
233 431 1
233 447 1
233 464 1
233 488 1
233 496 1
233 512 1
234 272 1
234 296 1
234 304 1
234 320 1
234 335 1
234 359 1
234 367 1
234 383 1
234 397 1
234 421 1
234 429 1
234 445 1
234 459 1
234 483 1
234 491 1
234 507 1
235 265 1
235 289 1
235 297 1
235 313 1
235 330 1
235 354 1
235 362 1
235 378 1
235 396 1
235 420 1
235 428 1
235 444 1
235 462 1
235 486 1
235 494 1
235 510 1
236 271 1
236 295 1
236 303 1
236 319 1
236 336 1
236 360 1
236 368 1
236 384 1
236 395 1
236 419 1
236 427 1
236 443 1
236 461 1
236 485 1
236 493 1
236 509 1
237 270 1
237 294 1
237 302 1
237 318 1
237 332 1
237 356 1
237 364 1
237 380 1
237 394 1
237 418 1
237 426 1
237 442 1
237 457 1
237 481 1
237 489 1
237 505 1
238 269 1
238 293 1
238 301 1
238 317 1
238 331 1
238 355 1
238 363 1
238 379 1
238 400 1
238 424 1
238 432 1
238 448 1
238 463 1
238 487 1
238 495 1
238 511 1
239 268 1
239 292 1
239 300 1
239 316 1
239 334 1
239 358 1
239 366 1
239 382 1
239 393 1
239 417 1
239 425 1
239 441 1
239 458 1
239 482 1
239 490 1
239 506 1
240 266 1
240 290 1
240 298 1
240 314 1
240 329 1
240 353 1
240 361 1
240 377 1
240 398 1
240 422 1
240 430 1
240 446 1
240 460 1
240 484 1
240 492 1
240 508 1
241 275 1
241 291 1
241 307 1
241 315 1
241 341 1
241 357 1
241 373 1
241 381 1
241 407 1
241 423 1
241 439 1
241 447 1
241 472 1
241 488 1
241 504 1
241 512 1
242 280 1
242 296 1
242 312 1
242 320 1
242 343 1
242 359 1
242 375 1
242 383 1
242 405 1
242 421 1
242 437 1
242 445 1
242 467 1
242 483 1
242 499 1
242 507 1
243 273 1
243 289 1
243 305 1
243 313 1
243 338 1
243 354 1
243 370 1
243 378 1
243 404 1
243 420 1
243 436 1
243 444 1
243 470 1
243 486 1
243 502 1
243 510 1
244 279 1
244 295 1
244 311 1
244 319 1
244 344 1
244 360 1
244 376 1
244 384 1
244 403 1
244 419 1
244 435 1
244 443 1
244 469 1
244 485 1
244 501 1
244 509 1
245 278 1
245 294 1
245 310 1
245 318 1
245 340 1
245 356 1
245 372 1
245 380 1
245 402 1
245 418 1
245 434 1
245 442 1
245 465 1
245 481 1
245 497 1
245 505 1
246 277 1
246 293 1
246 309 1
246 317 1
246 339 1
246 355 1
246 371 1
246 379 1
246 408 1
246 424 1
246 440 1
246 448 1
246 471 1
246 487 1
246 503 1
246 511 1
247 276 1
247 292 1
247 308 1
247 316 1
247 342 1
247 358 1
247 374 1
247 382 1
247 401 1
247 417 1
247 433 1
247 441 1
247 466 1
247 482 1
247 498 1
247 506 1
248 274 1
248 290 1
248 306 1
248 314 1
248 337 1
248 353 1
248 369 1
248 377 1
248 406 1
248 422 1
248 438 1
248 446 1
248 468 1
248 484 1
248 500 1
248 508 1
249 283 1
249 299 1
249 307 1
249 315 1
249 349 1
249 365 1
249 373 1
249 381 1
249 415 1
249 431 1
249 439 1
249 447 1
249 480 1
249 496 1
249 504 1
249 512 1
250 288 1
250 304 1
250 312 1
250 320 1
250 351 1
250 367 1
250 375 1
250 383 1
250 413 1
250 429 1
250 437 1
250 445 1
250 475 1
250 491 1
250 499 1
250 507 1
251 281 1
251 297 1
251 305 1
251 313 1
251 346 1
251 362 1
251 370 1
251 378 1
251 412 1
251 428 1
251 436 1
251 444 1
251 478 1
251 494 1
251 502 1
251 510 1
252 287 1
252 303 1
252 311 1
252 319 1
252 352 1
252 368 1
252 376 1
252 384 1
252 411 1
252 427 1
252 435 1
252 443 1
252 477 1
252 493 1
252 501 1
252 509 1
253 286 1
253 302 1
253 310 1
253 318 1
253 348 1
253 364 1
253 372 1
253 380 1
253 410 1
253 426 1
253 434 1
253 442 1
253 473 1
253 489 1
253 497 1
253 505 1
254 285 1
254 301 1
254 309 1
254 317 1
254 347 1
254 363 1
254 371 1
254 379 1
254 416 1
254 432 1
254 440 1
254 448 1
254 479 1
254 495 1
254 503 1
254 511 1
255 284 1
255 300 1
255 308 1
255 316 1
255 350 1
255 366 1
255 374 1
255 382 1
255 409 1
255 425 1
255 433 1
255 441 1
255 474 1
255 490 1
255 498 1
255 506 1
256 282 1
256 298 1
256 306 1
256 314 1
256 345 1
256 361 1
256 369 1
256 377 1
256 414 1
256 430 1
256 438 1
256 446 1
256 476 1
256 492 1
256 500 1
256 508 1
