%%MatrixMarket matrix coordinate integer general
198 396 1782
1 1 1
1 19 1
1 39 1
1 199 1
1 217 1
1 237 1
1 265 1
1 283 1
1 303 1
2 2 1
2 20 1
2 40 1
2 200 1
2 218 1
2 238 1
2 266 1
2 284 1
2 304 1
3 3 1
3 21 1
3 41 1
3 201 1
3 219 1
3 239 1
3 267 1
3 285 1
3 305 1
4 4 1
4 22 1
4 42 1
4 202 1
4 220 1
4 240 1
4 268 1
4 286 1
4 306 1
5 5 1
5 12 1
5 43 1
5 203 1
5 210 1
5 241 1
5 269 1
5 276 1
5 307 1
6 6 1
6 13 1
6 44 1
6 204 1
6 211 1
6 242 1
6 270 1
6 277 1
6 308 1
7 7 1
7 14 1
7 34 1
7 205 1
7 212 1
7 232 1
7 271 1
7 278 1
7 298 1
8 8 1
8 15 1
8 35 1
8 206 1
8 213 1
8 233 1
8 272 1
8 279 1
8 299 1
9 9 1
9 16 1
9 36 1
9 207 1
9 214 1
9 234 1
9 273 1
9 280 1
9 300 1
10 10 1
10 17 1
10 37 1
10 208 1
10 215 1
10 235 1
10 274 1
10 281 1
10 301 1
11 11 1
11 18 1
11 38 1
11 209 1
11 216 1
11 236 1
11 275 1
11 282 1
11 302 1
12 1 1
12 29 1
12 47 1
12 199 1
12 227 1
12 245 1
12 265 1
12 293 1
12 311 1
13 2 1
13 30 1
13 48 1
13 200 1
13 228 1
13 246 1
13 266 1
13 294 1
13 312 1
14 3 1
14 31 1
14 49 1
14 201 1
14 229 1
14 247 1
14 267 1
14 295 1
14 313 1
15 4 1
15 32 1
15 50 1
15 202 1
15 230 1
15 248 1
15 268 1
15 296 1
15 314 1
16 5 1
16 33 1
16 51 1
16 203 1
16 231 1
16 249 1
16 269 1
16 297 1
16 315 1
17 6 1
17 23 1
17 52 1
17 204 1
17 221 1
17 250 1
17 270 1
17 287 1
17 316 1
18 7 1
18 24 1
18 53 1
18 205 1
18 222 1
18 251 1
18 271 1
18 288 1
18 317 1
19 8 1
19 25 1
19 54 1
19 206 1
19 223 1
19 252 1
19 272 1
19 289 1
19 318 1
20 9 1
20 26 1
20 55 1
20 207 1
20 224 1
20 253 1
20 273 1
20 290 1
20 319 1
21 10 1
21 27 1
21 45 1
21 208 1
21 225 1
21 243 1
21 274 1
21 291 1
21 309 1
22 11 1
22 28 1
22 46 1
22 209 1
22 226 1
22 244 1
22 275 1
22 292 1
22 310 1
23 19 1
23 29 1
23 57 1
23 217 1
23 227 1
23 255 1
23 283 1
23 293 1
23 321 1
24 20 1
24 30 1
24 58 1
24 218 1
24 228 1
24 256 1
24 284 1
24 294 1
24 322 1
25 21 1
25 31 1
25 59 1
25 219 1
25 229 1
25 257 1
25 285 1
25 295 1
25 323 1
26 22 1
26 32 1
26 60 1
26 220 1
26 230 1
26 258 1
26 286 1
26 296 1
26 324 1
27 12 1
27 33 1
27 61 1
27 210 1
27 231 1
27 259 1
27 276 1
27 297 1
27 325 1
28 13 1
28 23 1
28 62 1
28 211 1
28 221 1
28 260 1
28 277 1
28 287 1
28 326 1
29 14 1
29 24 1
29 63 1
29 212 1
29 222 1
29 261 1
29 278 1
29 288 1
29 327 1
30 15 1
30 25 1
30 64 1
30 213 1
30 223 1
30 262 1
30 279 1
30 289 1
30 328 1
31 16 1
31 26 1
31 65 1
31 214 1
31 224 1
31 263 1
31 280 1
31 290 1
31 329 1
32 17 1
32 27 1
32 66 1
32 215 1
32 225 1
32 264 1
32 281 1
32 291 1
32 330 1
33 18 1
33 28 1
33 56 1
33 216 1
33 226 1
33 254 1
33 282 1
33 292 1
33 320 1
34 67 1
34 85 1
34 105 1
34 199 1
34 217 1
34 237 1
34 331 1
34 349 1
34 369 1
35 68 1
35 86 1
35 106 1
35 200 1
35 218 1
35 238 1
35 332 1
35 350 1
35 370 1
36 69 1
36 87 1
36 107 1
36 201 1
36 219 1
36 239 1
36 333 1
36 351 1
36 371 1
37 70 1
37 88 1
37 108 1
37 202 1
37 220 1
37 240 1
37 334 1
37 352 1
37 372 1
38 71 1
38 78 1
38 109 1
38 203 1
38 210 1
38 241 1
38 335 1
38 342 1
38 373 1
39 72 1
39 79 1
39 110 1
39 204 1
39 211 1
39 242 1
39 336 1
39 343 1
39 374 1
40 73 1
40 80 1
40 100 1
40 205 1
40 212 1
40 232 1
40 337 1
40 344 1
40 364 1
41 74 1
41 81 1
41 101 1
41 206 1
41 213 1
41 233 1
41 338 1
41 345 1
41 365 1
42 75 1
42 82 1
42 102 1
42 207 1
42 214 1
42 234 1
42 339 1
42 346 1
42 366 1
43 76 1
43 83 1
43 103 1
43 208 1
43 215 1
43 235 1
43 340 1
43 347 1
43 367 1
44 77 1
44 84 1
44 104 1
44 209 1
44 216 1
44 236 1
44 341 1
44 348 1
44 368 1
45 67 1
45 95 1
45 113 1
45 199 1
45 227 1
45 245 1
45 331 1
45 359 1
45 377 1
46 68 1
46 96 1
46 114 1
46 200 1
46 228 1
46 246 1
46 332 1
46 360 1
46 378 1
47 69 1
47 97 1
47 115 1
47 201 1
47 229 1
47 247 1
47 333 1
47 361 1
47 379 1
48 70 1
48 98 1
48 116 1
48 202 1
48 230 1
48 248 1
48 334 1
48 362 1
48 380 1
49 71 1
49 99 1
49 117 1
49 203 1
49 231 1
49 249 1
49 335 1
49 363 1
49 381 1
50 72 1
50 89 1
50 118 1
50 204 1
50 221 1
50 250 1
50 336 1
50 353 1
50 382 1
51 73 1
51 90 1
51 119 1
51 205 1
51 222 1
51 251 1
51 337 1
51 354 1
51 383 1
52 74 1
52 91 1
52 120 1
52 206 1
52 223 1
52 252 1
52 338 1
52 355 1
52 384 1
53 75 1
53 92 1
53 121 1
53 207 1
53 224 1
53 253 1
53 339 1
53 356 1
53 385 1
54 76 1
54 93 1
54 111 1
54 208 1
54 225 1
54 243 1
54 340 1
54 357 1
54 375 1
55 77 1
55 94 1
55 112 1
55 209 1
55 226 1
55 244 1
55 341 1
55 358 1
55 376 1
56 85 1
56 95 1
56 123 1
56 217 1
56 227 1
56 255 1
56 349 1
56 359 1
56 387 1
57 86 1
57 96 1
57 124 1
57 218 1
57 228 1
57 256 1
57 350 1
57 360 1
57 388 1
58 87 1
58 97 1
58 125 1
58 219 1
58 229 1
58 257 1
58 351 1
58 361 1
58 389 1
59 88 1
59 98 1
59 126 1
59 220 1
59 230 1
59 258 1
59 352 1
59 362 1
59 390 1
60 78 1
60 99 1
60 127 1
60 210 1
60 231 1
60 259 1
60 342 1
60 363 1
60 391 1
61 79 1
61 89 1
61 128 1
61 211 1
61 221 1
61 260 1
61 343 1
61 353 1
61 392 1
62 80 1
62 90 1
62 129 1
62 212 1
62 222 1
62 261 1
62 344 1
62 354 1
62 393 1
63 81 1
63 91 1
63 130 1
63 213 1
63 223 1
63 262 1
63 345 1
63 355 1
63 394 1
64 82 1
64 92 1
64 131 1
64 214 1
64 224 1
64 263 1
64 346 1
64 356 1
64 395 1
65 83 1
65 93 1
65 132 1
65 215 1
65 225 1
65 264 1
65 347 1
65 357 1
65 396 1
66 84 1
66 94 1
66 122 1
66 216 1
66 226 1
66 254 1
66 348 1
66 358 1
66 386 1
67 133 1
67 151 1
67 171 1
67 265 1
67 283 1
67 303 1
67 331 1
67 349 1
67 369 1
68 134 1
68 152 1
68 172 1
68 266 1
68 284 1
68 304 1
68 332 1
68 350 1
68 370 1
69 135 1
69 153 1
69 173 1
69 267 1
69 285 1
69 305 1
69 333 1
69 351 1
69 371 1
70 136 1
70 154 1
70 174 1
70 268 1
70 286 1
70 306 1
70 334 1
70 352 1
70 372 1
71 137 1
71 144 1
71 175 1
71 269 1
71 276 1
71 307 1
71 335 1
71 342 1
71 373 1
72 138 1
72 145 1
72 176 1
72 270 1
72 277 1
72 308 1
72 336 1
72 343 1
72 374 1
73 139 1
73 146 1
73 166 1
73 271 1
73 278 1
73 298 1
73 337 1
73 344 1
73 364 1
74 140 1
74 147 1
74 167 1
74 272 1
74 279 1
74 299 1
74 338 1
74 345 1
74 365 1
75 141 1
75 148 1
75 168 1
75 273 1
75 280 1
75 300 1
75 339 1
75 346 1
75 366 1
76 142 1
76 149 1
76 169 1
76 274 1
76 281 1
76 301 1
76 340 1
76 347 1
76 367 1
77 143 1
77 150 1
77 170 1
77 275 1
77 282 1
77 302 1
77 341 1
77 348 1
77 368 1
78 133 1
78 161 1
78 179 1
78 265 1
78 293 1
78 311 1
78 331 1
78 359 1
78 377 1
79 134 1
79 162 1
79 180 1
79 266 1
79 294 1
79 312 1
79 332 1
79 360 1
79 378 1
80 135 1
80 163 1
80 181 1
80 267 1
80 295 1
80 313 1
80 333 1
80 361 1
80 379 1
81 136 1
81 164 1
81 182 1
81 268 1
81 296 1
81 314 1
81 334 1
81 362 1
81 380 1
82 137 1
82 165 1
82 183 1
82 269 1
82 297 1
82 315 1
82 335 1
82 363 1
82 381 1
83 138 1
83 155 1
83 184 1
83 270 1
83 287 1
83 316 1
83 336 1
83 353 1
83 382 1
84 139 1
84 156 1
84 185 1
84 271 1
84 288 1
84 317 1
84 337 1
84 354 1
84 383 1
85 140 1
85 157 1
85 186 1
85 272 1
85 289 1
85 318 1
85 338 1
85 355 1
85 384 1
86 141 1
86 158 1
86 187 1
86 273 1
86 290 1
86 319 1
86 339 1
86 356 1
86 385 1
87 142 1
87 159 1
87 177 1
87 274 1
87 291 1
87 309 1
87 340 1
87 357 1
87 375 1
88 143 1
88 160 1
88 178 1
88 275 1
88 292 1
88 310 1
88 341 1
88 358 1
88 376 1
89 151 1
89 161 1
89 189 1
89 283 1
89 293 1
89 321 1
89 349 1
89 359 1
89 387 1
90 152 1
90 162 1
90 190 1
90 284 1
90 294 1
90 322 1
90 350 1
90 360 1
90 388 1
91 153 1
91 163 1
91 191 1
91 285 1
91 295 1
91 323 1
91 351 1
91 361 1
91 389 1
92 154 1
92 164 1
92 192 1
92 286 1
92 296 1
92 324 1
92 352 1
92 362 1
92 390 1
93 144 1
93 165 1
93 193 1
93 276 1
93 297 1
93 325 1
93 342 1
93 363 1
93 391 1
94 145 1
94 155 1
94 194 1
94 277 1
94 287 1
94 326 1
94 343 1
94 353 1
94 392 1
95 146 1
95 156 1
95 195 1
95 278 1
95 288 1
95 327 1
95 344 1
95 354 1
95 393 1
96 147 1
96 157 1
96 196 1
96 279 1
96 289 1
96 328 1
96 345 1
96 355 1
96 394 1
97 148 1
97 158 1
97 197 1
97 280 1
97 290 1
97 329 1
97 346 1
97 356 1
97 395 1
98 149 1
98 159 1
98 198 1
98 281 1
98 291 1
98 330 1
98 347 1
98 357 1
98 396 1
99 150 1
99 160 1
99 188 1
99 282 1
99 292 1
99 320 1
99 348 1
99 358 1
99 386 1
100 1 1
100 12 1
100 34 1
100 266 1
100 277 1
100 299 1
100 340 1
100 351 1
100 373 1
101 2 1
101 13 1
101 35 1
101 267 1
101 278 1
101 300 1
101 341 1
101 352 1
101 374 1
102 3 1
102 14 1
102 36 1
102 268 1
102 279 1
102 301 1
102 331 1
102 342 1
102 364 1
103 4 1
103 15 1
103 37 1
103 269 1
103 280 1
103 302 1
103 332 1
103 343 1
103 365 1
104 5 1
104 16 1
104 38 1
104 270 1
104 281 1
104 303 1
104 333 1
104 344 1
104 366 1
105 6 1
105 17 1
105 39 1
105 271 1
105 282 1
105 304 1
105 334 1
105 345 1
105 367 1
106 7 1
106 18 1
106 40 1
106 272 1
106 283 1
106 305 1
106 335 1
106 346 1
106 368 1
107 8 1
107 19 1
107 41 1
107 273 1
107 284 1
107 306 1
107 336 1
107 347 1
107 369 1
108 9 1
108 20 1
108 42 1
108 274 1
108 285 1
108 307 1
108 337 1
108 348 1
108 370 1
109 10 1
109 21 1
109 43 1
109 275 1
109 286 1
109 308 1
109 338 1
109 349 1
109 371 1
110 11 1
110 22 1
110 44 1
110 265 1
110 276 1
110 298 1
110 339 1
110 350 1
110 372 1
111 1 1
111 23 1
111 45 1
111 266 1
111 288 1
111 310 1
111 340 1
111 362 1
111 384 1
112 2 1
112 24 1
112 46 1
112 267 1
112 289 1
112 311 1
112 341 1
112 363 1
112 385 1
113 3 1
113 25 1
113 47 1
113 268 1
113 290 1
113 312 1
113 331 1
113 353 1
113 375 1
114 4 1
114 26 1
114 48 1
114 269 1
114 291 1
114 313 1
114 332 1
114 354 1
114 376 1
115 5 1
115 27 1
115 49 1
115 270 1
115 292 1
115 314 1
115 333 1
115 355 1
115 377 1
116 6 1
116 28 1
116 50 1
116 271 1
116 293 1
116 315 1
116 334 1
116 356 1
116 378 1
117 7 1
117 29 1
117 51 1
117 272 1
117 294 1
117 316 1
117 335 1
117 357 1
117 379 1
118 8 1
118 30 1
118 52 1
118 273 1
118 295 1
118 317 1
118 336 1
118 358 1
118 380 1
119 9 1
119 31 1
119 53 1
119 274 1
119 296 1
119 318 1
119 337 1
119 359 1
119 381 1
120 10 1
120 32 1
120 54 1
120 275 1
120 297 1
120 319 1
120 338 1
120 360 1
120 382 1
121 11 1
121 33 1
121 55 1
121 265 1
121 287 1
121 309 1
121 339 1
121 361 1
121 383 1
122 12 1
122 23 1
122 56 1
122 277 1
122 288 1
122 321 1
122 351 1
122 362 1
122 395 1
123 13 1
123 24 1
123 57 1
123 278 1
123 289 1
123 322 1
123 352 1
123 363 1
123 396 1
124 14 1
124 25 1
124 58 1
124 279 1
124 290 1
124 323 1
124 342 1
124 353 1
124 386 1
125 15 1
125 26 1
125 59 1
125 280 1
125 291 1
125 324 1
125 343 1
125 354 1
125 387 1
126 16 1
126 27 1
126 60 1
126 281 1
126 292 1
126 325 1
126 344 1
126 355 1
126 388 1
127 17 1
127 28 1
127 61 1
127 282 1
127 293 1
127 326 1
127 345 1
127 356 1
127 389 1
128 18 1
128 29 1
128 62 1
128 283 1
128 294 1
128 327 1
128 346 1
128 357 1
128 390 1
129 19 1
129 30 1
129 63 1
129 284 1
129 295 1
129 328 1
129 347 1
129 358 1
129 391 1
130 20 1
130 31 1
130 64 1
130 285 1
130 296 1
130 329 1
130 348 1
130 359 1
130 392 1
131 21 1
131 32 1
131 65 1
131 286 1
131 297 1
131 330 1
131 349 1
131 360 1
131 393 1
132 22 1
132 33 1
132 66 1
132 276 1
132 287 1
132 320 1
132 350 1
132 361 1
132 394 1
133 67 1
133 78 1
133 100 1
133 133 1
133 144 1
133 166 1
133 340 1
133 351 1
133 373 1
134 68 1
134 79 1
134 101 1
134 134 1
134 145 1
134 167 1
134 341 1
134 352 1
134 374 1
135 69 1
135 80 1
135 102 1
135 135 1
135 146 1
135 168 1
135 331 1
135 342 1
135 364 1
136 70 1
136 81 1
136 103 1
136 136 1
136 147 1
136 169 1
136 332 1
136 343 1
136 365 1
137 71 1
137 82 1
137 104 1
137 137 1
137 148 1
137 170 1
137 333 1
137 344 1
137 366 1
138 72 1
138 83 1
138 105 1
138 138 1
138 149 1
138 171 1
138 334 1
138 345 1
138 367 1
139 73 1
139 84 1
139 106 1
139 139 1
139 150 1
139 172 1
139 335 1
139 346 1
139 368 1
140 74 1
140 85 1
140 107 1
140 140 1
140 151 1
140 173 1
140 336 1
140 347 1
140 369 1
141 75 1
141 86 1
141 108 1
141 141 1
141 152 1
141 174 1
141 337 1
141 348 1
141 370 1
142 76 1
142 87 1
142 109 1
142 142 1
142 153 1
142 175 1
142 338 1
142 349 1
142 371 1
143 77 1
143 88 1
143 110 1
143 143 1
143 154 1
143 176 1
143 339 1
143 350 1
143 372 1
144 67 1
144 89 1
144 111 1
144 133 1
144 155 1
144 177 1
144 340 1
144 362 1
144 384 1
145 68 1
145 90 1
145 112 1
145 134 1
145 156 1
145 178 1
145 341 1
145 363 1
145 385 1
146 69 1
146 91 1
146 113 1
146 135 1
146 157 1
146 179 1
146 331 1
146 353 1
146 375 1
147 70 1
147 92 1
147 114 1
147 136 1
147 158 1
147 180 1
147 332 1
147 354 1
147 376 1
148 71 1
148 93 1
148 115 1
148 137 1
148 159 1
148 181 1
148 333 1
148 355 1
148 377 1
149 72 1
149 94 1
149 116 1
149 138 1
149 160 1
149 182 1
149 334 1
149 356 1
149 378 1
150 73 1
150 95 1
150 117 1
150 139 1
150 161 1
150 183 1
150 335 1
150 357 1
150 379 1
151 74 1
151 96 1
151 118 1
151 140 1
151 162 1
151 184 1
151 336 1
151 358 1
151 380 1
152 75 1
152 97 1
152 119 1
152 141 1
152 163 1
152 185 1
152 337 1
152 359 1
152 381 1
153 76 1
153 98 1
153 120 1
153 142 1
153 164 1
153 186 1
153 338 1
153 360 1
153 382 1
154 77 1
154 99 1
154 121 1
154 143 1
154 165 1
154 187 1
154 339 1
154 361 1
154 383 1
155 78 1
155 89 1
155 122 1
155 144 1
155 155 1
155 188 1
155 351 1
155 362 1
155 395 1
156 79 1
156 90 1
156 123 1
156 145 1
156 156 1
156 189 1
156 352 1
156 363 1
156 396 1
157 80 1
157 91 1
157 124 1
157 146 1
157 157 1
157 190 1
157 342 1
157 353 1
157 386 1
158 81 1
158 92 1
158 125 1
158 147 1
158 158 1
158 191 1
158 343 1
158 354 1
158 387 1
159 82 1
159 93 1
159 126 1
159 148 1
159 159 1
159 192 1
159 344 1
159 355 1
159 388 1
160 83 1
160 94 1
160 127 1
160 149 1
160 160 1
160 193 1
160 345 1
160 356 1
160 389 1
161 84 1
161 95 1
161 128 1
161 150 1
161 161 1
161 194 1
161 346 1
161 357 1
161 390 1
162 85 1
162 96 1
162 129 1
162 151 1
162 162 1
162 195 1
162 347 1
162 358 1
162 391 1
163 86 1
163 97 1
163 130 1
163 152 1
163 163 1
163 196 1
163 348 1
163 359 1
163 392 1
164 87 1
164 98 1
164 131 1
164 153 1
164 164 1
164 197 1
164 349 1
164 360 1
164 393 1
165 88 1
165 99 1
165 132 1
165 154 1
165 165 1
165 198 1
165 350 1
165 361 1
165 394 1
166 133 1
166 144 1
166 166 1
166 200 1
166 211 1
166 233 1
166 266 1
166 277 1
166 299 1
167 134 1
167 145 1
167 167 1
167 201 1
167 212 1
167 234 1
167 267 1
167 278 1
167 300 1
168 135 1
168 146 1
168 168 1
168 202 1
168 213 1
168 235 1
168 268 1
168 279 1
168 301 1
169 136 1
169 147 1
169 169 1
169 203 1
169 214 1
169 236 1
169 269 1
169 280 1
169 302 1
170 137 1
170 148 1
170 170 1
170 204 1
170 215 1
170 237 1
170 270 1
170 281 1
170 303 1
171 138 1
171 149 1
171 171 1
171 205 1
171 216 1
171 238 1
171 271 1
171 282 1
171 304 1
172 139 1
172 150 1
172 172 1
172 206 1
172 217 1
172 239 1
172 272 1
172 283 1
172 305 1
173 140 1
173 151 1
173 173 1
173 207 1
173 218 1
173 240 1
173 273 1
173 284 1
173 306 1
174 141 1
174 152 1
174 174 1
174 208 1
174 219 1
174 241 1
174 274 1
174 285 1
174 307 1
175 142 1
175 153 1
175 175 1
175 209 1
175 220 1
175 242 1
175 275 1
175 286 1
175 308 1
176 143 1
176 154 1
176 176 1
176 199 1
176 210 1
176 232 1
176 265 1
176 276 1
176 298 1
177 133 1
177 155 1
177 177 1
177 200 1
177 222 1
177 244 1
177 266 1
177 288 1
177 310 1
178 134 1
178 156 1
178 178 1
178 201 1
178 223 1
178 245 1
178 267 1
178 289 1
178 311 1
179 135 1
179 157 1
179 179 1
179 202 1
179 224 1
179 246 1
179 268 1
179 290 1
179 312 1
180 136 1
180 158 1
180 180 1
180 203 1
180 225 1
180 247 1
180 269 1
180 291 1
180 313 1
181 137 1
181 159 1
181 181 1
181 204 1
181 226 1
181 248 1
181 270 1
181 292 1
181 314 1
182 138 1
182 160 1
182 182 1
182 205 1
182 227 1
182 249 1
182 271 1
182 293 1
182 315 1
183 139 1
183 161 1
183 183 1
183 206 1
183 228 1
183 250 1
183 272 1
183 294 1
183 316 1
184 140 1
184 162 1
184 184 1
184 207 1
184 229 1
184 251 1
184 273 1
184 295 1
184 317 1
185 141 1
185 163 1
185 185 1
185 208 1
185 230 1
185 252 1
185 274 1
185 296 1
185 318 1
186 142 1
186 164 1
186 186 1
186 209 1
186 231 1
186 253 1
186 275 1
186 297 1
186 319 1
187 143 1
187 165 1
187 187 1
187 199 1
187 221 1
187 243 1
187 265 1
187 287 1
187 309 1
188 144 1
188 155 1
188 188 1
188 211 1
188 222 1
188 255 1
188 277 1
188 288 1
188 321 1
189 145 1
189 156 1
189 189 1
189 212 1
189 223 1
189 256 1
189 278 1
189 289 1
189 322 1
190 146 1
190 157 1
190 190 1
190 213 1
190 224 1
190 257 1
190 279 1
190 290 1
190 323 1
191 147 1
191 158 1
191 191 1
191 214 1
191 225 1
191 258 1
191 280 1
191 291 1
191 324 1
192 148 1
192 159 1
192 192 1
192 215 1
192 226 1
192 259 1
192 281 1
192 292 1
192 325 1
193 149 1
193 160 1
193 193 1
193 216 1
193 227 1
193 260 1
193 282 1
193 293 1
193 326 1
194 150 1
194 161 1
194 194 1
194 217 1
194 228 1
194 261 1
194 283 1
194 294 1
194 327 1
195 151 1
195 162 1
195 195 1
195 218 1
195 229 1
195 262 1
195 284 1
195 295 1
195 328 1
196 152 1
196 163 1
196 196 1
196 219 1
196 230 1
196 263 1
196 285 1
196 296 1
196 329 1
197 153 1
197 164 1
197 197 1
197 220 1
197 231 1
197 264 1
197 286 1
197 297 1
197 330 1
198 154 1
198 165 1
198 198 1
198 210 1
198 221 1
198 254 1
198 276 1
198 287 1
198 320 1
