%%MatrixMarket matrix coordinate integer general
256 512 4096
1 1 1
1 42 1
1 53 1
1 61 1
1 257 1
1 298 1
1 309 1
1 317 1
1 321 1
1 362 1
1 373 1
1 381 1
1 385 1
1 426 1
1 437 1
1 445 1
2 2 1
2 44 1
2 55 1
2 63 1
2 258 1
2 300 1
2 311 1
2 319 1
2 322 1
2 364 1
2 375 1
2 383 1
2 386 1
2 428 1
2 439 1
2 447 1
3 3 1
3 48 1
3 50 1
3 58 1
3 259 1
3 304 1
3 306 1
3 314 1
3 323 1
3 368 1
3 370 1
3 378 1
3 387 1
3 432 1
3 434 1
3 442 1
4 4 1
4 46 1
4 56 1
4 64 1
4 260 1
4 302 1
4 312 1
4 320 1
4 324 1
4 366 1
4 376 1
4 384 1
4 388 1
4 430 1
4 440 1
4 448 1
5 5 1
5 43 1
5 52 1
5 60 1
5 261 1
5 299 1
5 308 1
5 316 1
5 325 1
5 363 1
5 372 1
5 380 1
5 389 1
5 427 1
5 436 1
5 444 1
6 6 1
6 41 1
6 51 1
6 59 1
6 262 1
6 297 1
6 307 1
6 315 1
6 326 1
6 361 1
6 371 1
6 379 1
6 390 1
6 425 1
6 435 1
6 443 1
7 7 1
7 45 1
7 54 1
7 62 1
7 263 1
7 301 1
7 310 1
7 318 1
7 327 1
7 365 1
7 374 1
7 382 1
7 391 1
7 429 1
7 438 1
7 446 1
8 8 1
8 47 1
8 49 1
8 57 1
8 264 1
8 303 1
8 305 1
8 313 1
8 328 1
8 367 1
8 369 1
8 377 1
8 392 1
8 431 1
8 433 1
8 441 1
9 14 1
9 40 1
9 42 1
9 61 1
9 270 1
9 296 1
9 298 1
9 317 1
9 334 1
9 360 1
9 362 1
9 381 1
9 398 1
9 424 1
9 426 1
9 445 1
10 9 1
10 35 1
10 44 1
10 63 1
10 265 1
10 291 1
10 300 1
10 319 1
10 329 1
10 355 1
10 364 1
10 383 1
10 393 1
10 419 1
10 428 1
10 447 1
11 13 1
11 38 1
11 48 1
11 58 1
11 269 1
11 294 1
11 304 1
11 314 1
11 333 1
11 358 1
11 368 1
11 378 1
11 397 1
11 422 1
11 432 1
11 442 1
12 10 1
12 37 1
12 46 1
12 64 1
12 266 1
12 293 1
12 302 1
12 320 1
12 330 1
12 357 1
12 366 1
12 384 1
12 394 1
12 421 1
12 430 1
12 448 1
13 15 1
13 33 1
13 43 1
13 60 1
13 271 1
13 289 1
13 299 1
13 316 1
13 335 1
13 353 1
13 363 1
13 380 1
13 399 1
13 417 1
13 427 1
13 444 1
14 12 1
14 39 1
14 41 1
14 59 1
14 268 1
14 295 1
14 297 1
14 315 1
14 332 1
14 359 1
14 361 1
14 379 1
14 396 1
14 423 1
14 425 1
14 443 1
15 16 1
15 34 1
15 45 1
15 62 1
15 272 1
15 290 1
15 301 1
15 318 1
15 336 1
15 354 1
15 365 1
15 382 1
15 400 1
15 418 1
15 429 1
15 446 1
16 11 1
16 36 1
16 47 1
16 57 1
16 267 1
16 292 1
16 303 1
16 313 1
16 331 1
16 356 1
16 367 1
16 377 1
16 395 1
16 420 1
16 431 1
16 441 1
17 23 1
17 40 1
17 53 1
17 61 1
17 279 1
17 296 1
17 309 1
17 317 1
17 343 1
17 360 1
17 373 1
17 381 1
17 407 1
17 424 1
17 437 1
17 445 1
18 24 1
18 35 1
18 55 1
18 63 1
18 280 1
18 291 1
18 311 1
18 319 1
18 344 1
18 355 1
18 375 1
18 383 1
18 408 1
18 419 1
18 439 1
18 447 1
19 17 1
19 38 1
19 50 1
19 58 1
19 273 1
19 294 1
19 306 1
19 314 1
19 337 1
19 358 1
19 370 1
19 378 1
19 401 1
19 422 1
19 434 1
19 442 1
20 19 1
20 37 1
20 56 1
20 64 1
20 275 1
20 293 1
20 312 1
20 320 1
20 339 1
20 357 1
20 376 1
20 384 1
20 403 1
20 421 1
20 440 1
20 448 1
21 18 1
21 33 1
21 52 1
21 60 1
21 274 1
21 289 1
21 308 1
21 316 1
21 338 1
21 353 1
21 372 1
21 380 1
21 402 1
21 417 1
21 436 1
21 444 1
22 21 1
22 39 1
22 51 1
22 59 1
22 277 1
22 295 1
22 307 1
22 315 1
22 341 1
22 359 1
22 371 1
22 379 1
22 405 1
22 423 1
22 435 1
22 443 1
23 20 1
23 34 1
23 54 1
23 62 1
23 276 1
23 290 1
23 310 1
23 318 1
23 340 1
23 354 1
23 374 1
23 382 1
23 404 1
23 418 1
23 438 1
23 446 1
24 22 1
24 36 1
24 49 1
24 57 1
24 278 1
24 292 1
24 305 1
24 313 1
24 342 1
24 356 1
24 369 1
24 377 1
24 406 1
24 420 1
24 433 1
24 441 1
25 28 1
25 40 1
25 42 1
25 53 1
25 284 1
25 296 1
25 298 1
25 309 1
25 348 1
25 360 1
25 362 1
25 373 1
25 412 1
25 424 1
25 426 1
25 437 1
26 30 1
26 35 1
26 44 1
26 55 1
26 286 1
26 291 1
26 300 1
26 311 1
26 350 1
26 355 1
26 364 1
26 375 1
26 414 1
26 419 1
26 428 1
26 439 1
27 31 1
27 38 1
27 48 1
27 50 1
27 287 1
27 294 1
27 304 1
27 306 1
27 351 1
27 358 1
27 368 1
27 370 1
27 415 1
27 422 1
27 432 1
27 434 1
28 25 1
28 37 1
28 46 1
28 56 1
28 281 1
28 293 1
28 302 1
28 312 1
28 345 1
28 357 1
28 366 1
28 376 1
28 409 1
28 421 1
28 430 1
28 440 1
29 32 1
29 33 1
29 43 1
29 52 1
29 288 1
29 289 1
29 299 1
29 308 1
29 352 1
29 353 1
29 363 1
29 372 1
29 416 1
29 417 1
29 427 1
29 436 1
30 26 1
30 39 1
30 41 1
30 51 1
30 282 1
30 295 1
30 297 1
30 307 1
30 346 1
30 359 1
30 361 1
30 371 1
30 410 1
30 423 1
30 425 1
30 435 1
31 27 1
31 34 1
31 45 1
31 54 1
31 283 1
31 290 1
31 301 1
31 310 1
31 347 1
31 354 1
31 365 1
31 374 1
31 411 1
31 418 1
31 429 1
31 438 1
32 29 1
32 36 1
32 47 1
32 49 1
32 285 1
32 292 1
32 303 1
32 305 1
32 349 1
32 356 1
32 367 1
32 369 1
32 413 1
32 420 1
32 431 1
32 433 1
33 65 1
33 106 1
33 117 1
33 125 1
33 257 1
33 298 1
33 309 1
33 317 1
33 321 1
33 362 1
33 373 1
33 381 1
33 449 1
33 490 1
33 501 1
33 509 1
34 66 1
34 108 1
34 119 1
34 127 1
34 258 1
34 300 1
34 311 1
34 319 1
34 322 1
34 364 1
34 375 1
34 383 1
34 450 1
34 492 1
34 503 1
34 511 1
35 67 1
35 112 1
35 114 1
35 122 1
35 259 1
35 304 1
35 306 1
35 314 1
35 323 1
35 368 1
35 370 1
35 378 1
35 451 1
35 496 1
35 498 1
35 506 1
36 68 1
36 110 1
36 120 1
36 128 1
36 260 1
36 302 1
36 312 1
36 320 1
36 324 1
36 366 1
36 376 1
36 384 1
36 452 1
36 494 1
36 504 1
36 512 1
37 69 1
37 107 1
37 116 1
37 124 1
37 261 1
37 299 1
37 308 1
37 316 1
37 325 1
37 363 1
37 372 1
37 380 1
37 453 1
37 491 1
37 500 1
37 508 1
38 70 1
38 105 1
38 115 1
38 123 1
38 262 1
38 297 1
38 307 1
38 315 1
38 326 1
38 361 1
38 371 1
38 379 1
38 454 1
38 489 1
38 499 1
38 507 1
39 71 1
39 109 1
39 118 1
39 126 1
39 263 1
39 301 1
39 310 1
39 318 1
39 327 1
39 365 1
39 374 1
39 382 1
39 455 1
39 493 1
39 502 1
39 510 1
40 72 1
40 111 1
40 113 1
40 121 1
40 264 1
40 303 1
40 305 1
40 313 1
40 328 1
40 367 1
40 369 1
40 377 1
40 456 1
40 495 1
40 497 1
40 505 1
41 78 1
41 104 1
41 106 1
41 125 1
41 270 1
41 296 1
41 298 1
41 317 1
41 334 1
41 360 1
41 362 1
41 381 1
41 462 1
41 488 1
41 490 1
41 509 1
42 73 1
42 99 1
42 108 1
42 127 1
42 265 1
42 291 1
42 300 1
42 319 1
42 329 1
42 355 1
42 364 1
42 383 1
42 457 1
42 483 1
42 492 1
42 511 1
43 77 1
43 102 1
43 112 1
43 122 1
43 269 1
43 294 1
43 304 1
43 314 1
43 333 1
43 358 1
43 368 1
43 378 1
43 461 1
43 486 1
43 496 1
43 506 1
44 74 1
44 101 1
44 110 1
44 128 1
44 266 1
44 293 1
44 302 1
44 320 1
44 330 1
44 357 1
44 366 1
44 384 1
44 458 1
44 485 1
44 494 1
44 512 1
45 79 1
45 97 1
45 107 1
45 124 1
45 271 1
45 289 1
45 299 1
45 316 1
45 335 1
45 353 1
45 363 1
45 380 1
45 463 1
45 481 1
45 491 1
45 508 1
46 76 1
46 103 1
46 105 1
46 123 1
46 268 1
46 295 1
46 297 1
46 315 1
46 332 1
46 359 1
46 361 1
46 379 1
46 460 1
46 487 1
46 489 1
46 507 1
47 80 1
47 98 1
47 109 1
47 126 1
47 272 1
47 290 1
47 301 1
47 318 1
47 336 1
47 354 1
47 365 1
47 382 1
47 464 1
47 482 1
47 493 1
47 510 1
48 75 1
48 100 1
48 111 1
48 121 1
48 267 1
48 292 1
48 303 1
48 313 1
48 331 1
48 356 1
48 367 1
48 377 1
48 459 1
48 484 1
48 495 1
48 505 1
49 87 1
49 104 1
49 117 1
49 125 1
49 279 1
49 296 1
49 309 1
49 317 1
49 343 1
49 360 1
49 373 1
49 381 1
49 471 1
49 488 1
49 501 1
49 509 1
50 88 1
50 99 1
50 119 1
50 127 1
50 280 1
50 291 1
50 311 1
50 319 1
50 344 1
50 355 1
50 375 1
50 383 1
50 472 1
50 483 1
50 503 1
50 511 1
51 81 1
51 102 1
51 114 1
51 122 1
51 273 1
51 294 1
51 306 1
51 314 1
51 337 1
51 358 1
51 370 1
51 378 1
51 465 1
51 486 1
51 498 1
51 506 1
52 83 1
52 101 1
52 120 1
52 128 1
52 275 1
52 293 1
52 312 1
52 320 1
52 339 1
52 357 1
52 376 1
52 384 1
52 467 1
52 485 1
52 504 1
52 512 1
53 82 1
53 97 1
53 116 1
53 124 1
53 274 1
53 289 1
53 308 1
53 316 1
53 338 1
53 353 1
53 372 1
53 380 1
53 466 1
53 481 1
53 500 1
53 508 1
54 85 1
54 103 1
54 115 1
54 123 1
54 277 1
54 295 1
54 307 1
54 315 1
54 341 1
54 359 1
54 371 1
54 379 1
54 469 1
54 487 1
54 499 1
54 507 1
55 84 1
55 98 1
55 118 1
55 126 1
55 276 1
55 290 1
55 310 1
55 318 1
55 340 1
55 354 1
55 374 1
55 382 1
55 468 1
55 482 1
55 502 1
55 510 1
56 86 1
56 100 1
56 113 1
56 121 1
56 278 1
56 292 1
56 305 1
56 313 1
56 342 1
56 356 1
56 369 1
56 377 1
56 470 1
56 484 1
56 497 1
56 505 1
57 92 1
57 104 1
57 106 1
57 117 1
57 284 1
57 296 1
57 298 1
57 309 1
57 348 1
57 360 1
57 362 1
57 373 1
57 476 1
57 488 1
57 490 1
57 501 1
58 94 1
58 99 1
58 108 1
58 119 1
58 286 1
58 291 1
58 300 1
58 311 1
58 350 1
58 355 1
58 364 1
58 375 1
58 478 1
58 483 1
58 492 1
58 503 1
59 95 1
59 102 1
59 112 1
59 114 1
59 287 1
59 294 1
59 304 1
59 306 1
59 351 1
59 358 1
59 368 1
59 370 1
59 479 1
59 486 1
59 496 1
59 498 1
60 89 1
60 101 1
60 110 1
60 120 1
60 281 1
60 293 1
60 302 1
60 312 1
60 345 1
60 357 1
60 366 1
60 376 1
60 473 1
60 485 1
60 494 1
60 504 1
61 96 1
61 97 1
61 107 1
61 116 1
61 288 1
61 289 1
61 299 1
61 308 1
61 352 1
61 353 1
61 363 1
61 372 1
61 480 1
61 481 1
61 491 1
61 500 1
62 90 1
62 103 1
62 105 1
62 115 1
62 282 1
62 295 1
62 297 1
62 307 1
62 346 1
62 359 1
62 361 1
62 371 1
62 474 1
62 487 1
62 489 1
62 499 1
63 91 1
63 98 1
63 109 1
63 118 1
63 283 1
63 290 1
63 301 1
63 310 1
63 347 1
63 354 1
63 365 1
63 374 1
63 475 1
63 482 1
63 493 1
63 502 1
64 93 1
64 100 1
64 111 1
64 113 1
64 285 1
64 292 1
64 303 1
64 305 1
64 349 1
64 356 1
64 367 1
64 369 1
64 477 1
64 484 1
64 495 1
64 497 1
65 129 1
65 170 1
65 181 1
65 189 1
65 257 1
65 298 1
65 309 1
65 317 1
65 385 1
65 426 1
65 437 1
65 445 1
65 449 1
65 490 1
65 501 1
65 509 1
66 130 1
66 172 1
66 183 1
66 191 1
66 258 1
66 300 1
66 311 1
66 319 1
66 386 1
66 428 1
66 439 1
66 447 1
66 450 1
66 492 1
66 503 1
66 511 1
67 131 1
67 176 1
67 178 1
67 186 1
67 259 1
67 304 1
67 306 1
67 314 1
67 387 1
67 432 1
67 434 1
67 442 1
67 451 1
67 496 1
67 498 1
67 506 1
68 132 1
68 174 1
68 184 1
68 192 1
68 260 1
68 302 1
68 312 1
68 320 1
68 388 1
68 430 1
68 440 1
68 448 1
68 452 1
68 494 1
68 504 1
68 512 1
69 133 1
69 171 1
69 180 1
69 188 1
69 261 1
69 299 1
69 308 1
69 316 1
69 389 1
69 427 1
69 436 1
69 444 1
69 453 1
69 491 1
69 500 1
69 508 1
70 134 1
70 169 1
70 179 1
70 187 1
70 262 1
70 297 1
70 307 1
70 315 1
70 390 1
70 425 1
70 435 1
70 443 1
70 454 1
70 489 1
70 499 1
70 507 1
71 135 1
71 173 1
71 182 1
71 190 1
71 263 1
71 301 1
71 310 1
71 318 1
71 391 1
71 429 1
71 438 1
71 446 1
71 455 1
71 493 1
71 502 1
71 510 1
72 136 1
72 175 1
72 177 1
72 185 1
72 264 1
72 303 1
72 305 1
72 313 1
72 392 1
72 431 1
72 433 1
72 441 1
72 456 1
72 495 1
72 497 1
72 505 1
73 142 1
73 168 1
73 170 1
73 189 1
73 270 1
73 296 1
73 298 1
73 317 1
73 398 1
73 424 1
73 426 1
73 445 1
73 462 1
73 488 1
73 490 1
73 509 1
74 137 1
74 163 1
74 172 1
74 191 1
74 265 1
74 291 1
74 300 1
74 319 1
74 393 1
74 419 1
74 428 1
74 447 1
74 457 1
74 483 1
74 492 1
74 511 1
75 141 1
75 166 1
75 176 1
75 186 1
75 269 1
75 294 1
75 304 1
75 314 1
75 397 1
75 422 1
75 432 1
75 442 1
75 461 1
75 486 1
75 496 1
75 506 1
76 138 1
76 165 1
76 174 1
76 192 1
76 266 1
76 293 1
76 302 1
76 320 1
76 394 1
76 421 1
76 430 1
76 448 1
76 458 1
76 485 1
76 494 1
76 512 1
77 143 1
77 161 1
77 171 1
77 188 1
77 271 1
77 289 1
77 299 1
77 316 1
77 399 1
77 417 1
77 427 1
77 444 1
77 463 1
77 481 1
77 491 1
77 508 1
78 140 1
78 167 1
78 169 1
78 187 1
78 268 1
78 295 1
78 297 1
78 315 1
78 396 1
78 423 1
78 425 1
78 443 1
78 460 1
78 487 1
78 489 1
78 507 1
79 144 1
79 162 1
79 173 1
79 190 1
79 272 1
79 290 1
79 301 1
79 318 1
79 400 1
79 418 1
79 429 1
79 446 1
79 464 1
79 482 1
79 493 1
79 510 1
80 139 1
80 164 1
80 175 1
80 185 1
80 267 1
80 292 1
80 303 1
80 313 1
80 395 1
80 420 1
80 431 1
80 441 1
80 459 1
80 484 1
80 495 1
80 505 1
81 151 1
81 168 1
81 181 1
81 189 1
81 279 1
81 296 1
81 309 1
81 317 1
81 407 1
81 424 1
81 437 1
81 445 1
81 471 1
81 488 1
81 501 1
81 509 1
82 152 1
82 163 1
82 183 1
82 191 1
82 280 1
82 291 1
82 311 1
82 319 1
82 408 1
82 419 1
82 439 1
82 447 1
82 472 1
82 483 1
82 503 1
82 511 1
83 145 1
83 166 1
83 178 1
83 186 1
83 273 1
83 294 1
83 306 1
83 314 1
83 401 1
83 422 1
83 434 1
83 442 1
83 465 1
83 486 1
83 498 1
83 506 1
84 147 1
84 165 1
84 184 1
84 192 1
84 275 1
84 293 1
84 312 1
84 320 1
84 403 1
84 421 1
84 440 1
84 448 1
84 467 1
84 485 1
84 504 1
84 512 1
85 146 1
85 161 1
85 180 1
85 188 1
85 274 1
85 289 1
85 308 1
85 316 1
85 402 1
85 417 1
85 436 1
85 444 1
85 466 1
85 481 1
85 500 1
85 508 1
86 149 1
86 167 1
86 179 1
86 187 1
86 277 1
86 295 1
86 307 1
86 315 1
86 405 1
86 423 1
86 435 1
86 443 1
86 469 1
86 487 1
86 499 1
86 507 1
87 148 1
87 162 1
87 182 1
87 190 1
87 276 1
87 290 1
87 310 1
87 318 1
87 404 1
87 418 1
87 438 1
87 446 1
87 468 1
87 482 1
87 502 1
87 510 1
88 150 1
88 164 1
88 177 1
88 185 1
88 278 1
88 292 1
88 305 1
88 313 1
88 406 1
88 420 1
88 433 1
88 441 1
88 470 1
88 484 1
88 497 1
88 505 1
89 156 1
89 168 1
89 170 1
89 181 1
89 284 1
89 296 1
89 298 1
89 309 1
89 412 1
89 424 1
89 426 1
89 437 1
89 476 1
89 488 1
89 490 1
89 501 1
90 158 1
90 163 1
90 172 1
90 183 1
90 286 1
90 291 1
90 300 1
90 311 1
90 414 1
90 419 1
90 428 1
90 439 1
90 478 1
90 483 1
90 492 1
90 503 1
91 159 1
91 166 1
91 176 1
91 178 1
91 287 1
91 294 1
91 304 1
91 306 1
91 415 1
91 422 1
91 432 1
91 434 1
91 479 1
91 486 1
91 496 1
91 498 1
92 153 1
92 165 1
92 174 1
92 184 1
92 281 1
92 293 1
92 302 1
92 312 1
92 409 1
92 421 1
92 430 1
92 440 1
92 473 1
92 485 1
92 494 1
92 504 1
93 160 1
93 161 1
93 171 1
93 180 1
93 288 1
93 289 1
93 299 1
93 308 1
93 416 1
93 417 1
93 427 1
93 436 1
93 480 1
93 481 1
93 491 1
93 500 1
94 154 1
94 167 1
94 169 1
94 179 1
94 282 1
94 295 1
94 297 1
94 307 1
94 410 1
94 423 1
94 425 1
94 435 1
94 474 1
94 487 1
94 489 1
94 499 1
95 155 1
95 162 1
95 173 1
95 182 1
95 283 1
95 290 1
95 301 1
95 310 1
95 411 1
95 418 1
95 429 1
95 438 1
95 475 1
95 482 1
95 493 1
95 502 1
96 157 1
96 164 1
96 175 1
96 177 1
96 285 1
96 292 1
96 303 1
96 305 1
96 413 1
96 420 1
96 431 1
96 433 1
96 477 1
96 484 1
96 495 1
96 497 1
97 193 1
97 234 1
97 245 1
97 253 1
97 321 1
97 362 1
97 373 1
97 381 1
97 385 1
97 426 1
97 437 1
97 445 1
97 449 1
97 490 1
97 501 1
97 509 1
98 194 1
98 236 1
98 247 1
98 255 1
98 322 1
98 364 1
98 375 1
98 383 1
98 386 1
98 428 1
98 439 1
98 447 1
98 450 1
98 492 1
98 503 1
98 511 1
99 195 1
99 240 1
99 242 1
99 250 1
99 323 1
99 368 1
99 370 1
99 378 1
99 387 1
99 432 1
99 434 1
99 442 1
99 451 1
99 496 1
99 498 1
99 506 1
100 196 1
100 238 1
100 248 1
100 256 1
100 324 1
100 366 1
100 376 1
100 384 1
100 388 1
100 430 1
100 440 1
100 448 1
100 452 1
100 494 1
100 504 1
100 512 1
101 197 1
101 235 1
101 244 1
101 252 1
101 325 1
101 363 1
101 372 1
101 380 1
101 389 1
101 427 1
101 436 1
101 444 1
101 453 1
101 491 1
101 500 1
101 508 1
102 198 1
102 233 1
102 243 1
102 251 1
102 326 1
102 361 1
102 371 1
102 379 1
102 390 1
102 425 1
102 435 1
102 443 1
102 454 1
102 489 1
102 499 1
102 507 1
103 199 1
103 237 1
103 246 1
103 254 1
103 327 1
103 365 1
103 374 1
103 382 1
103 391 1
103 429 1
103 438 1
103 446 1
103 455 1
103 493 1
103 502 1
103 510 1
104 200 1
104 239 1
104 241 1
104 249 1
104 328 1
104 367 1
104 369 1
104 377 1
104 392 1
104 431 1
104 433 1
104 441 1
104 456 1
104 495 1
104 497 1
104 505 1
105 206 1
105 232 1
105 234 1
105 253 1
105 334 1
105 360 1
105 362 1
105 381 1
105 398 1
105 424 1
105 426 1
105 445 1
105 462 1
105 488 1
105 490 1
105 509 1
106 201 1
106 227 1
106 236 1
106 255 1
106 329 1
106 355 1
106 364 1
106 383 1
106 393 1
106 419 1
106 428 1
106 447 1
106 457 1
106 483 1
106 492 1
106 511 1
107 205 1
107 230 1
107 240 1
107 250 1
107 333 1
107 358 1
107 368 1
107 378 1
107 397 1
107 422 1
107 432 1
107 442 1
107 461 1
107 486 1
107 496 1
107 506 1
108 202 1
108 229 1
108 238 1
108 256 1
108 330 1
108 357 1
108 366 1
108 384 1
108 394 1
108 421 1
108 430 1
108 448 1
108 458 1
108 485 1
108 494 1
108 512 1
109 207 1
109 225 1
109 235 1
109 252 1
109 335 1
109 353 1
109 363 1
109 380 1
109 399 1
109 417 1
109 427 1
109 444 1
109 463 1
109 481 1
109 491 1
109 508 1
110 204 1
110 231 1
110 233 1
110 251 1
110 332 1
110 359 1
110 361 1
110 379 1
110 396 1
110 423 1
110 425 1
110 443 1
110 460 1
110 487 1
110 489 1
110 507 1
111 208 1
111 226 1
111 237 1
111 254 1
111 336 1
111 354 1
111 365 1
111 382 1
111 400 1
111 418 1
111 429 1
111 446 1
111 464 1
111 482 1
111 493 1
111 510 1
112 203 1
112 228 1
112 239 1
112 249 1
112 331 1
112 356 1
112 367 1
112 377 1
112 395 1
112 420 1
112 431 1
112 441 1
112 459 1
112 484 1
112 495 1
112 505 1
113 215 1
113 232 1
113 245 1
113 253 1
113 343 1
113 360 1
113 373 1
113 381 1
113 407 1
113 424 1
113 437 1
113 445 1
113 471 1
113 488 1
113 501 1
113 509 1
114 216 1
114 227 1
114 247 1
114 255 1
114 344 1
114 355 1
114 375 1
114 383 1
114 408 1
114 419 1
114 439 1
114 447 1
114 472 1
114 483 1
114 503 1
114 511 1
115 209 1
115 230 1
115 242 1
115 250 1
115 337 1
115 358 1
115 370 1
115 378 1
115 401 1
115 422 1
115 434 1
115 442 1
115 465 1
115 486 1
115 498 1
115 506 1
116 211 1
116 229 1
116 248 1
116 256 1
116 339 1
116 357 1
116 376 1
116 384 1
116 403 1
116 421 1
116 440 1
116 448 1
116 467 1
116 485 1
116 504 1
116 512 1
117 210 1
117 225 1
117 244 1
117 252 1
117 338 1
117 353 1
117 372 1
117 380 1
117 402 1
117 417 1
117 436 1
117 444 1
117 466 1
117 481 1
117 500 1
117 508 1
118 213 1
118 231 1
118 243 1
118 251 1
118 341 1
118 359 1
118 371 1
118 379 1
118 405 1
118 423 1
118 435 1
118 443 1
118 469 1
118 487 1
118 499 1
118 507 1
119 212 1
119 226 1
119 246 1
119 254 1
119 340 1
119 354 1
119 374 1
119 382 1
119 404 1
119 418 1
119 438 1
119 446 1
119 468 1
119 482 1
119 502 1
119 510 1
120 214 1
120 228 1
120 241 1
120 249 1
120 342 1
120 356 1
120 369 1
120 377 1
120 406 1
120 420 1
120 433 1
120 441 1
120 470 1
120 484 1
120 497 1
120 505 1
121 220 1
121 232 1
121 234 1
121 245 1
121 348 1
121 360 1
121 362 1
121 373 1
121 412 1
121 424 1
121 426 1
121 437 1
121 476 1
121 488 1
121 490 1
121 501 1
122 222 1
122 227 1
122 236 1
122 247 1
122 350 1
122 355 1
122 364 1
122 375 1
122 414 1
122 419 1
122 428 1
122 439 1
122 478 1
122 483 1
122 492 1
122 503 1
123 223 1
123 230 1
123 240 1
123 242 1
123 351 1
123 358 1
123 368 1
123 370 1
123 415 1
123 422 1
123 432 1
123 434 1
123 479 1
123 486 1
123 496 1
123 498 1
124 217 1
124 229 1
124 238 1
124 248 1
124 345 1
124 357 1
124 366 1
124 376 1
124 409 1
124 421 1
124 430 1
124 440 1
124 473 1
124 485 1
124 494 1
124 504 1
125 224 1
125 225 1
125 235 1
125 244 1
125 352 1
125 353 1
125 363 1
125 372 1
125 416 1
125 417 1
125 427 1
125 436 1
125 480 1
125 481 1
125 491 1
125 500 1
126 218 1
126 231 1
126 233 1
126 243 1
126 346 1
126 359 1
126 361 1
126 371 1
126 410 1
126 423 1
126 425 1
126 435 1
126 474 1
126 487 1
126 489 1
126 499 1
127 219 1
127 226 1
127 237 1
127 246 1
127 347 1
127 354 1
127 365 1
127 374 1
127 411 1
127 418 1
127 429 1
127 438 1
127 475 1
127 482 1
127 493 1
127 502 1
128 221 1
128 228 1
128 239 1
128 241 1
128 349 1
128 356 1
128 367 1
128 369 1
128 413 1
128 420 1
128 431 1
128 433 1
128 477 1
128 484 1
128 495 1
128 497 1
129 1 1
129 33 1
129 41 1
129 49 1
129 326 1
129 358 1
129 366 1
129 374 1
129 391 1
129 423 1
129 431 1
129 439 1
129 456 1
129 488 1
129 496 1
129 504 1
130 2 1
130 34 1
130 42 1
130 50 1
130 321 1
130 353 1
130 361 1
130 369 1
130 389 1
130 421 1
130 429 1
130 437 1
130 455 1
130 487 1
130 495 1
130 503 1
131 3 1
131 35 1
131 43 1
131 51 1
131 328 1
131 360 1
131 368 1
131 376 1
131 385 1
131 417 1
131 425 1
131 433 1
131 450 1
131 482 1
131 490 1
131 498 1
132 4 1
132 36 1
132 44 1
132 52 1
132 322 1
132 354 1
132 362 1
132 370 1
132 387 1
132 419 1
132 427 1
132 435 1
132 453 1
132 485 1
132 493 1
132 501 1
133 5 1
133 37 1
133 45 1
133 53 1
133 323 1
133 355 1
133 363 1
133 371 1
133 390 1
133 422 1
133 430 1
133 438 1
133 449 1
133 481 1
133 489 1
133 497 1
134 6 1
134 38 1
134 46 1
134 54 1
134 324 1
134 356 1
134 364 1
134 372 1
134 392 1
134 424 1
134 432 1
134 440 1
134 451 1
134 483 1
134 491 1
134 499 1
135 7 1
135 39 1
135 47 1
135 55 1
135 325 1
135 357 1
135 365 1
135 373 1
135 388 1
135 420 1
135 428 1
135 436 1
135 454 1
135 486 1
135 494 1
135 502 1
136 8 1
136 40 1
136 48 1
136 56 1
136 327 1
136 359 1
136 367 1
136 375 1
136 386 1
136 418 1
136 426 1
136 434 1
136 452 1
136 484 1
136 492 1
136 500 1
137 9 1
137 33 1
137 41 1
137 57 1
137 334 1
137 358 1
137 366 1
137 382 1
137 399 1
137 423 1
137 431 1
137 447 1
137 464 1
137 488 1
137 496 1
137 512 1
138 10 1
138 34 1
138 42 1
138 58 1
138 329 1
138 353 1
138 361 1
138 377 1
138 397 1
138 421 1
138 429 1
138 445 1
138 463 1
138 487 1
138 495 1
138 511 1
139 11 1
139 35 1
139 43 1
139 59 1
139 336 1
139 360 1
139 368 1
139 384 1
139 393 1
139 417 1
139 425 1
139 441 1
139 458 1
139 482 1
139 490 1
139 506 1
140 12 1
140 36 1
140 44 1
140 60 1
140 330 1
140 354 1
140 362 1
140 378 1
140 395 1
140 419 1
140 427 1
140 443 1
140 461 1
140 485 1
140 493 1
140 509 1
141 13 1
141 37 1
141 45 1
141 61 1
141 331 1
141 355 1
141 363 1
141 379 1
141 398 1
141 422 1
141 430 1
141 446 1
141 457 1
141 481 1
141 489 1
141 505 1
142 14 1
142 38 1
142 46 1
142 62 1
142 332 1
142 356 1
142 364 1
142 380 1
142 400 1
142 424 1
142 432 1
142 448 1
142 459 1
142 483 1
142 491 1
142 507 1
143 15 1
143 39 1
143 47 1
143 63 1
143 333 1
143 357 1
143 365 1
143 381 1
143 396 1
143 420 1
143 428 1
143 444 1
143 462 1
143 486 1
143 494 1
143 510 1
144 16 1
144 40 1
144 48 1
144 64 1
144 335 1
144 359 1
144 367 1
144 383 1
144 394 1
144 418 1
144 426 1
144 442 1
144 460 1
144 484 1
144 492 1
144 508 1
145 17 1
145 33 1
145 49 1
145 57 1
145 342 1
145 358 1
145 374 1
145 382 1
145 407 1
145 423 1
145 439 1
145 447 1
145 472 1
145 488 1
145 504 1
145 512 1
146 18 1
146 34 1
146 50 1
146 58 1
146 337 1
146 353 1
146 369 1
146 377 1
146 405 1
146 421 1
146 437 1
146 445 1
146 471 1
146 487 1
146 503 1
146 511 1
147 19 1
147 35 1
147 51 1
147 59 1
147 344 1
147 360 1
147 376 1
147 384 1
147 401 1
147 417 1
147 433 1
147 441 1
147 466 1
147 482 1
147 498 1
147 506 1
148 20 1
148 36 1
148 52 1
148 60 1
148 338 1
148 354 1
148 370 1
148 378 1
148 403 1
148 419 1
148 435 1
148 443 1
148 469 1
148 485 1
148 501 1
148 509 1
149 21 1
149 37 1
149 53 1
149 61 1
149 339 1
149 355 1
149 371 1
149 379 1
149 406 1
149 422 1
149 438 1
149 446 1
149 465 1
149 481 1
149 497 1
149 505 1
150 22 1
150 38 1
150 54 1
150 62 1
150 340 1
150 356 1
150 372 1
150 380 1
150 408 1
150 424 1
150 440 1
150 448 1
150 467 1
150 483 1
150 499 1
150 507 1
151 23 1
151 39 1
151 55 1
151 63 1
151 341 1
151 357 1
151 373 1
151 381 1
151 404 1
151 420 1
151 436 1
151 444 1
151 470 1
151 486 1
151 502 1
151 510 1
152 24 1
152 40 1
152 56 1
152 64 1
152 343 1
152 359 1
152 375 1
152 383 1
152 402 1
152 418 1
152 434 1
152 442 1
152 468 1
152 484 1
152 500 1
152 508 1
153 25 1
153 41 1
153 49 1
153 57 1
153 350 1
153 366 1
153 374 1
153 382 1
153 415 1
153 431 1
153 439 1
153 447 1
153 480 1
153 496 1
153 504 1
153 512 1
154 26 1
154 42 1
154 50 1
154 58 1
154 345 1
154 361 1
154 369 1
154 377 1
154 413 1
154 429 1
154 437 1
154 445 1
154 479 1
154 495 1
154 503 1
154 511 1
155 27 1
155 43 1
155 51 1
155 59 1
155 352 1
155 368 1
155 376 1
155 384 1
155 409 1
155 425 1
155 433 1
155 441 1
155 474 1
155 490 1
155 498 1
155 506 1
156 28 1
156 44 1
156 52 1
156 60 1
156 346 1
156 362 1
156 370 1
156 378 1
156 411 1
156 427 1
156 435 1
156 443 1
156 477 1
156 493 1
156 501 1
156 509 1
157 29 1
157 45 1
157 53 1
157 61 1
157 347 1
157 363 1
157 371 1
157 379 1
157 414 1
157 430 1
157 438 1
157 446 1
157 473 1
157 489 1
157 497 1
157 505 1
158 30 1
158 46 1
158 54 1
158 62 1
158 348 1
158 364 1
158 372 1
158 380 1
158 416 1
158 432 1
158 440 1
158 448 1
158 475 1
158 491 1
158 499 1
158 507 1
159 31 1
159 47 1
159 55 1
159 63 1
159 349 1
159 365 1
159 373 1
159 381 1
159 412 1
159 428 1
159 436 1
159 444 1
159 478 1
159 494 1
159 502 1
159 510 1
160 32 1
160 48 1
160 56 1
160 64 1
160 351 1
160 367 1
160 375 1
160 383 1
160 410 1
160 426 1
160 434 1
160 442 1
160 476 1
160 492 1
160 500 1
160 508 1
161 66 1
161 98 1
161 106 1
161 114 1
161 261 1
161 293 1
161 301 1
161 309 1
161 326 1
161 358 1
161 366 1
161 374 1
161 456 1
161 488 1
161 496 1
161 504 1
162 68 1
162 100 1
162 108 1
162 116 1
162 259 1
162 291 1
162 299 1
162 307 1
162 321 1
162 353 1
162 361 1
162 369 1
162 455 1
162 487 1
162 495 1
162 503 1
163 69 1
163 101 1
163 109 1
163 117 1
163 262 1
163 294 1
163 302 1
163 310 1
163 328 1
163 360 1
163 368 1
163 376 1
163 450 1
163 482 1
163 490 1
163 498 1
164 70 1
164 102 1
164 110 1
164 118 1
164 264 1
164 296 1
164 304 1
164 312 1
164 322 1
164 354 1
164 362 1
164 370 1
164 453 1
164 485 1
164 493 1
164 501 1
165 71 1
165 103 1
165 111 1
165 119 1
165 260 1
165 292 1
165 300 1
165 308 1
165 323 1
165 355 1
165 363 1
165 371 1
165 449 1
165 481 1
165 489 1
165 497 1
166 65 1
166 97 1
166 105 1
166 113 1
166 263 1
166 295 1
166 303 1
166 311 1
166 324 1
166 356 1
166 364 1
166 372 1
166 451 1
166 483 1
166 491 1
166 499 1
167 72 1
167 104 1
167 112 1
167 120 1
167 258 1
167 290 1
167 298 1
167 306 1
167 325 1
167 357 1
167 365 1
167 373 1
167 454 1
167 486 1
167 494 1
167 502 1
168 67 1
168 99 1
168 107 1
168 115 1
168 257 1
168 289 1
168 297 1
168 305 1
168 327 1
168 359 1
168 367 1
168 375 1
168 452 1
168 484 1
168 492 1
168 500 1
169 74 1
169 98 1
169 106 1
169 122 1
169 269 1
169 293 1
169 301 1
169 317 1
169 334 1
169 358 1
169 366 1
169 382 1
169 464 1
169 488 1
169 496 1
169 512 1
170 76 1
170 100 1
170 108 1
170 124 1
170 267 1
170 291 1
170 299 1
170 315 1
170 329 1
170 353 1
170 361 1
170 377 1
170 463 1
170 487 1
170 495 1
170 511 1
171 77 1
171 101 1
171 109 1
171 125 1
171 270 1
171 294 1
171 302 1
171 318 1
171 336 1
171 360 1
171 368 1
171 384 1
171 458 1
171 482 1
171 490 1
171 506 1
172 78 1
172 102 1
172 110 1
172 126 1
172 272 1
172 296 1
172 304 1
172 320 1
172 330 1
172 354 1
172 362 1
172 378 1
172 461 1
172 485 1
172 493 1
172 509 1
173 79 1
173 103 1
173 111 1
173 127 1
173 268 1
173 292 1
173 300 1
173 316 1
173 331 1
173 355 1
173 363 1
173 379 1
173 457 1
173 481 1
173 489 1
173 505 1
174 73 1
174 97 1
174 105 1
174 121 1
174 271 1
174 295 1
174 303 1
174 319 1
174 332 1
174 356 1
174 364 1
174 380 1
174 459 1
174 483 1
174 491 1
174 507 1
175 80 1
175 104 1
175 112 1
175 128 1
175 266 1
175 290 1
175 298 1
175 314 1
175 333 1
175 357 1
175 365 1
175 381 1
175 462 1
175 486 1
175 494 1
175 510 1
176 75 1
176 99 1
176 107 1
176 123 1
176 265 1
176 289 1
176 297 1
176 313 1
176 335 1
176 359 1
176 367 1
176 383 1
176 460 1
176 484 1
176 492 1
176 508 1
177 82 1
177 98 1
177 114 1
177 122 1
177 277 1
177 293 1
177 309 1
177 317 1
177 342 1
177 358 1
177 374 1
177 382 1
177 472 1
177 488 1
177 504 1
177 512 1
178 84 1
178 100 1
178 116 1
178 124 1
178 275 1
178 291 1
178 307 1
178 315 1
178 337 1
178 353 1
178 369 1
178 377 1
178 471 1
178 487 1
178 503 1
178 511 1
179 85 1
179 101 1
179 117 1
179 125 1
179 278 1
179 294 1
179 310 1
179 318 1
179 344 1
179 360 1
179 376 1
179 384 1
179 466 1
179 482 1
179 498 1
179 506 1
180 86 1
180 102 1
180 118 1
180 126 1
180 280 1
180 296 1
180 312 1
180 320 1
180 338 1
180 354 1
180 370 1
180 378 1
180 469 1
180 485 1
180 501 1
180 509 1
181 87 1
181 103 1
181 119 1
181 127 1
181 276 1
181 292 1
181 308 1
181 316 1
181 339 1
181 355 1
181 371 1
181 379 1
181 465 1
181 481 1
181 497 1
181 505 1
182 81 1
182 97 1
182 113 1
182 121 1
182 279 1
182 295 1
182 311 1
182 319 1
182 340 1
182 356 1
182 372 1
182 380 1
182 467 1
182 483 1
182 499 1
182 507 1
183 88 1
183 104 1
183 120 1
183 128 1
183 274 1
183 290 1
183 306 1
183 314 1
183 341 1
183 357 1
183 373 1
183 381 1
183 470 1
183 486 1
183 502 1
183 510 1
184 83 1
184 99 1
184 115 1
184 123 1
184 273 1
184 289 1
184 305 1
184 313 1
184 343 1
184 359 1
184 375 1
184 383 1
184 468 1
184 484 1
184 500 1
184 508 1
185 90 1
185 106 1
185 114 1
185 122 1
185 285 1
185 301 1
185 309 1
185 317 1
185 350 1
185 366 1
185 374 1
185 382 1
185 480 1
185 496 1
185 504 1
185 512 1
186 92 1
186 108 1
186 116 1
186 124 1
186 283 1
186 299 1
186 307 1
186 315 1
186 345 1
186 361 1
186 369 1
186 377 1
186 479 1
186 495 1
186 503 1
186 511 1
187 93 1
187 109 1
187 117 1
187 125 1
187 286 1
187 302 1
187 310 1
187 318 1
187 352 1
187 368 1
187 376 1
187 384 1
187 474 1
187 490 1
187 498 1
187 506 1
188 94 1
188 110 1
188 118 1
188 126 1
188 288 1
188 304 1
188 312 1
188 320 1
188 346 1
188 362 1
188 370 1
188 378 1
188 477 1
188 493 1
188 501 1
188 509 1
189 95 1
189 111 1
189 119 1
189 127 1
189 284 1
189 300 1
189 308 1
189 316 1
189 347 1
189 363 1
189 371 1
189 379 1
189 473 1
189 489 1
189 497 1
189 505 1
190 89 1
190 105 1
190 113 1
190 121 1
190 287 1
190 303 1
190 311 1
190 319 1
190 348 1
190 364 1
190 372 1
190 380 1
190 475 1
190 491 1
190 499 1
190 507 1
191 96 1
191 112 1
191 120 1
191 128 1
191 282 1
191 298 1
191 306 1
191 314 1
191 349 1
191 365 1
191 373 1
191 381 1
191 478 1
191 494 1
191 502 1
191 510 1
192 91 1
192 107 1
192 115 1
192 123 1
192 281 1
192 297 1
192 305 1
192 313 1
192 351 1
192 367 1
192 375 1
192 383 1
192 476 1
192 492 1
192 500 1
192 508 1
193 131 1
193 163 1
193 171 1
193 179 1
193 261 1
193 293 1
193 301 1
193 309 1
193 391 1
193 423 1
193 431 1
193 439 1
193 456 1
193 488 1
193 496 1
193 504 1
194 136 1
194 168 1
194 176 1
194 184 1
194 259 1
194 291 1
194 299 1
194 307 1
194 389 1
194 421 1
194 429 1
194 437 1
194 455 1
194 487 1
194 495 1
194 503 1
195 132 1
195 164 1
195 172 1
195 180 1
195 262 1
195 294 1
195 302 1
195 310 1
195 385 1
195 417 1
195 425 1
195 433 1
195 450 1
195 482 1
195 490 1
195 498 1
196 135 1
196 167 1
196 175 1
196 183 1
196 264 1
196 296 1
196 304 1
196 312 1
196 387 1
196 419 1
196 427 1
196 435 1
196 453 1
196 485 1
196 493 1
196 501 1
197 130 1
197 162 1
197 170 1
197 178 1
197 260 1
197 292 1
197 300 1
197 308 1
197 390 1
197 422 1
197 430 1
197 438 1
197 449 1
197 481 1
197 489 1
197 497 1
198 133 1
198 165 1
198 173 1
198 181 1
198 263 1
198 295 1
198 303 1
198 311 1
198 392 1
198 424 1
198 432 1
198 440 1
198 451 1
198 483 1
198 491 1
198 499 1
199 129 1
199 161 1
199 169 1
199 177 1
199 258 1
199 290 1
199 298 1
199 306 1
199 388 1
199 420 1
199 428 1
199 436 1
199 454 1
199 486 1
199 494 1
199 502 1
200 134 1
200 166 1
200 174 1
200 182 1
200 257 1
200 289 1
200 297 1
200 305 1
200 386 1
200 418 1
200 426 1
200 434 1
200 452 1
200 484 1
200 492 1
200 500 1
201 139 1
201 163 1
201 171 1
201 187 1
201 269 1
201 293 1
201 301 1
201 317 1
201 399 1
201 423 1
201 431 1
201 447 1
201 464 1
201 488 1
201 496 1
201 512 1
202 144 1
202 168 1
202 176 1
202 192 1
202 267 1
202 291 1
202 299 1
202 315 1
202 397 1
202 421 1
202 429 1
202 445 1
202 463 1
202 487 1
202 495 1
202 511 1
203 140 1
203 164 1
203 172 1
203 188 1
203 270 1
203 294 1
203 302 1
203 318 1
203 393 1
203 417 1
203 425 1
203 441 1
203 458 1
203 482 1
203 490 1
203 506 1
204 143 1
204 167 1
204 175 1
204 191 1
204 272 1
204 296 1
204 304 1
204 320 1
204 395 1
204 419 1
204 427 1
204 443 1
204 461 1
204 485 1
204 493 1
204 509 1
205 138 1
205 162 1
205 170 1
205 186 1
205 268 1
205 292 1
205 300 1
205 316 1
205 398 1
205 422 1
205 430 1
205 446 1
205 457 1
205 481 1
205 489 1
205 505 1
206 141 1
206 165 1
206 173 1
206 189 1
206 271 1
206 295 1
206 303 1
206 319 1
206 400 1
206 424 1
206 432 1
206 448 1
206 459 1
206 483 1
206 491 1
206 507 1
207 137 1
207 161 1
207 169 1
207 185 1
207 266 1
207 290 1
207 298 1
207 314 1
207 396 1
207 420 1
207 428 1
207 444 1
207 462 1
207 486 1
207 494 1
207 510 1
208 142 1
208 166 1
208 174 1
208 190 1
208 265 1
208 289 1
208 297 1
208 313 1
208 394 1
208 418 1
208 426 1
208 442 1
208 460 1
208 484 1
208 492 1
208 508 1
209 147 1
209 163 1
209 179 1
209 187 1
209 277 1
209 293 1
209 309 1
209 317 1
209 407 1
209 423 1
209 439 1
209 447 1
209 472 1
209 488 1
209 504 1
209 512 1
210 152 1
210 168 1
210 184 1
210 192 1
210 275 1
210 291 1
210 307 1
210 315 1
210 405 1
210 421 1
210 437 1
210 445 1
210 471 1
210 487 1
210 503 1
210 511 1
211 148 1
211 164 1
211 180 1
211 188 1
211 278 1
211 294 1
211 310 1
211 318 1
211 401 1
211 417 1
211 433 1
211 441 1
211 466 1
211 482 1
211 498 1
211 506 1
212 151 1
212 167 1
212 183 1
212 191 1
212 280 1
212 296 1
212 312 1
212 320 1
212 403 1
212 419 1
212 435 1
212 443 1
212 469 1
212 485 1
212 501 1
212 509 1
213 146 1
213 162 1
213 178 1
213 186 1
213 276 1
213 292 1
213 308 1
213 316 1
213 406 1
213 422 1
213 438 1
213 446 1
213 465 1
213 481 1
213 497 1
213 505 1
214 149 1
214 165 1
214 181 1
214 189 1
214 279 1
214 295 1
214 311 1
214 319 1
214 408 1
214 424 1
214 440 1
214 448 1
214 467 1
214 483 1
214 499 1
214 507 1
215 145 1
215 161 1
215 177 1
215 185 1
215 274 1
215 290 1
215 306 1
215 314 1
215 404 1
215 420 1
215 436 1
215 444 1
215 470 1
215 486 1
215 502 1
215 510 1
216 150 1
216 166 1
216 182 1
216 190 1
216 273 1
216 289 1
216 305 1
216 313 1
216 402 1
216 418 1
216 434 1
216 442 1
216 468 1
216 484 1
216 500 1
216 508 1
217 155 1
217 171 1
217 179 1
217 187 1
217 285 1
217 301 1
217 309 1
217 317 1
217 415 1
217 431 1
217 439 1
217 447 1
217 480 1
217 496 1
217 504 1
217 512 1
218 160 1
218 176 1
218 184 1
218 192 1
218 283 1
218 299 1
218 307 1
218 315 1
218 413 1
218 429 1
218 437 1
218 445 1
218 479 1
218 495 1
218 503 1
218 511 1
219 156 1
219 172 1
219 180 1
219 188 1
219 286 1
219 302 1
219 310 1
219 318 1
219 409 1
219 425 1
219 433 1
219 441 1
219 474 1
219 490 1
219 498 1
219 506 1
220 159 1
220 175 1
220 183 1
220 191 1
220 288 1
220 304 1
220 312 1
220 320 1
220 411 1
220 427 1
220 435 1
220 443 1
220 477 1
220 493 1
220 501 1
220 509 1
221 154 1
221 170 1
221 178 1
221 186 1
221 284 1
221 300 1
221 308 1
221 316 1
221 414 1
221 430 1
221 438 1
221 446 1
221 473 1
221 489 1
221 497 1
221 505 1
222 157 1
222 173 1
222 181 1
222 189 1
222 287 1
222 303 1
222 311 1
222 319 1
222 416 1
222 432 1
222 440 1
222 448 1
222 475 1
222 491 1
222 499 1
222 507 1
223 153 1
223 169 1
223 177 1
223 185 1
223 282 1
223 298 1
223 306 1
223 314 1
223 412 1
223 428 1
223 436 1
223 444 1
223 478 1
223 494 1
223 502 1
223 510 1
224 158 1
224 174 1
224 182 1
224 190 1
224 281 1
224 297 1
224 305 1
224 313 1
224 410 1
224 426 1
224 434 1
224 442 1
224 476 1
224 492 1
224 500 1
224 508 1
225 195 1
225 227 1
225 235 1
225 243 1
225 261 1
225 293 1
225 301 1
225 309 1
225 326 1
225 358 1
225 366 1
225 374 1
225 391 1
225 423 1
225 431 1
225 439 1
226 200 1
226 232 1
226 240 1
226 248 1
226 259 1
226 291 1
226 299 1
226 307 1
226 321 1
226 353 1
226 361 1
226 369 1
226 389 1
226 421 1
226 429 1
226 437 1
227 196 1
227 228 1
227 236 1
227 244 1
227 262 1
227 294 1
227 302 1
227 310 1
227 328 1
227 360 1
227 368 1
227 376 1
227 385 1
227 417 1
227 425 1
227 433 1
228 199 1
228 231 1
228 239 1
228 247 1
228 264 1
228 296 1
228 304 1
228 312 1
228 322 1
228 354 1
228 362 1
228 370 1
228 387 1
228 419 1
228 427 1
228 435 1
229 194 1
229 226 1
229 234 1
229 242 1
229 260 1
229 292 1
229 300 1
229 308 1
229 323 1
229 355 1
229 363 1
229 371 1
229 390 1
229 422 1
229 430 1
229 438 1
230 197 1
230 229 1
230 237 1
230 245 1
230 263 1
230 295 1
230 303 1
230 311 1
230 324 1
230 356 1
230 364 1
230 372 1
230 392 1
230 424 1
230 432 1
230 440 1
231 193 1
231 225 1
231 233 1
231 241 1
231 258 1
231 290 1
231 298 1
231 306 1
231 325 1
231 357 1
231 365 1
231 373 1
231 388 1
231 420 1
231 428 1
231 436 1
232 198 1
232 230 1
232 238 1
232 246 1
232 257 1
232 289 1
232 297 1
232 305 1
232 327 1
232 359 1
232 367 1
232 375 1
232 386 1
232 418 1
232 426 1
232 434 1
233 203 1
233 227 1
233 235 1
233 251 1
233 269 1
233 293 1
233 301 1
233 317 1
233 334 1
233 358 1
233 366 1
233 382 1
233 399 1
233 423 1
233 431 1
233 447 1
234 208 1
234 232 1
234 240 1
234 256 1
234 267 1
234 291 1
234 299 1
234 315 1
234 329 1
234 353 1
234 361 1
234 377 1
234 397 1
234 421 1
234 429 1
234 445 1
235 204 1
235 228 1
235 236 1
235 252 1
235 270 1
235 294 1
235 302 1
235 318 1
235 336 1
235 360 1
235 368 1
235 384 1
235 393 1
235 417 1
235 425 1
235 441 1
236 207 1
236 231 1
236 239 1
236 255 1
236 272 1
236 296 1
236 304 1
236 320 1
236 330 1
236 354 1
236 362 1
236 378 1
236 395 1
236 419 1
236 427 1
236 443 1
237 202 1
237 226 1
237 234 1
237 250 1
237 268 1
237 292 1
237 300 1
237 316 1
237 331 1
237 355 1
237 363 1
237 379 1
237 398 1
237 422 1
237 430 1
237 446 1
238 205 1
238 229 1
238 237 1
238 253 1
238 271 1
238 295 1
238 303 1
238 319 1
238 332 1
238 356 1
238 364 1
238 380 1
238 400 1
238 424 1
238 432 1
238 448 1
239 201 1
239 225 1
239 233 1
239 249 1
239 266 1
239 290 1
239 298 1
239 314 1
239 333 1
239 357 1
239 365 1
239 381 1
239 396 1
239 420 1
239 428 1
239 444 1
240 206 1
240 230 1
240 238 1
240 254 1
240 265 1
240 289 1
240 297 1
240 313 1
240 335 1
240 359 1
240 367 1
240 383 1
240 394 1
240 418 1
240 426 1
240 442 1
241 211 1
241 227 1
241 243 1
241 251 1
241 277 1
241 293 1
241 309 1
241 317 1
241 342 1
241 358 1
241 374 1
241 382 1
241 407 1
241 423 1
241 439 1
241 447 1
242 216 1
242 232 1
242 248 1
242 256 1
242 275 1
242 291 1
242 307 1
242 315 1
242 337 1
242 353 1
242 369 1
242 377 1
242 405 1
242 421 1
242 437 1
242 445 1
243 212 1
243 228 1
243 244 1
243 252 1
243 278 1
243 294 1
243 310 1
243 318 1
243 344 1
243 360 1
243 376 1
243 384 1
243 401 1
243 417 1
243 433 1
243 441 1
244 215 1
244 231 1
244 247 1
244 255 1
244 280 1
244 296 1
244 312 1
244 320 1
244 338 1
244 354 1
244 370 1
244 378 1
244 403 1
244 419 1
244 435 1
244 443 1
245 210 1
245 226 1
245 242 1
245 250 1
245 276 1
245 292 1
245 308 1
245 316 1
245 339 1
245 355 1
245 371 1
245 379 1
245 406 1
245 422 1
245 438 1
245 446 1
246 213 1
246 229 1
246 245 1
246 253 1
246 279 1
246 295 1
246 311 1
246 319 1
246 340 1
246 356 1
246 372 1
246 380 1
246 408 1
246 424 1
246 440 1
246 448 1
247 209 1
247 225 1
247 241 1
247 249 1
247 274 1
247 290 1
247 306 1
247 314 1
247 341 1
247 357 1
247 373 1
247 381 1
247 404 1
247 420 1
247 436 1
247 444 1
248 214 1
248 230 1
248 246 1
248 254 1
248 273 1
248 289 1
248 305 1
248 313 1
248 343 1
248 359 1
248 375 1
248 383 1
248 402 1
248 418 1
248 434 1
248 442 1
249 219 1
249 235 1
249 243 1
249 251 1
249 285 1
249 301 1
249 309 1
249 317 1
249 350 1
249 366 1
249 374 1
249 382 1
249 415 1
249 431 1
249 439 1
249 447 1
250 224 1
250 240 1
250 248 1
250 256 1
250 283 1
250 299 1
250 307 1
250 315 1
250 345 1
250 361 1
250 369 1
250 377 1
250 413 1
250 429 1
250 437 1
250 445 1
251 220 1
251 236 1
251 244 1
251 252 1
251 286 1
251 302 1
251 310 1
251 318 1
251 352 1
251 368 1
251 376 1
251 384 1
251 409 1
251 425 1
251 433 1
251 441 1
252 223 1
252 239 1
252 247 1
252 255 1
252 288 1
252 304 1
252 312 1
252 320 1
252 346 1
252 362 1
252 370 1
252 378 1
252 411 1
252 427 1
252 435 1
252 443 1
253 218 1
253 234 1
253 242 1
253 250 1
253 284 1
253 300 1
253 308 1
253 316 1
253 347 1
253 363 1
253 371 1
253 379 1
253 414 1
253 430 1
253 438 1
253 446 1
254 221 1
254 237 1
254 245 1
254 253 1
254 287 1
254 303 1
254 311 1
254 319 1
254 348 1
254 364 1
254 372 1
254 380 1
254 416 1
254 432 1
254 440 1
254 448 1
255 217 1
255 233 1
255 241 1
255 249 1
255 282 1
255 298 1
255 306 1
255 314 1
255 349 1
255 365 1
255 373 1
255 381 1
255 412 1
255 428 1
255 436 1
255 444 1
256 222 1
256 238 1
256 246 1
256 254 1
256 281 1
256 297 1
256 305 1
256 313 1
256 351 1
256 367 1
256 375 1
256 383 1
256 410 1
256 426 1
256 434 1
256 442 1
