%%MatrixMarket matrix coordinate integer general
324 648 2916
1 1 1
1 55 1
1 73 1
1 109 1
1 163 1
1 181 1
1 325 1
1 379 1
1 397 1
2 2 1
2 56 1
2 74 1
2 110 1
2 164 1
2 182 1
2 326 1
2 380 1
2 398 1
3 3 1
3 57 1
3 75 1
3 111 1
3 165 1
3 183 1
3 327 1
3 381 1
3 399 1
4 4 1
4 58 1
4 76 1
4 112 1
4 166 1
4 184 1
4 328 1
4 382 1
4 400 1
5 5 1
5 59 1
5 77 1
5 113 1
5 167 1
5 185 1
5 329 1
5 383 1
5 401 1
6 6 1
6 60 1
6 78 1
6 114 1
6 168 1
6 186 1
6 330 1
6 384 1
6 402 1
7 7 1
7 61 1
7 79 1
7 115 1
7 169 1
7 187 1
7 331 1
7 385 1
7 403 1
8 8 1
8 62 1
8 80 1
8 116 1
8 170 1
8 188 1
8 332 1
8 386 1
8 404 1
9 9 1
9 63 1
9 81 1
9 117 1
9 171 1
9 189 1
9 333 1
9 387 1
9 405 1
10 10 1
10 64 1
10 82 1
10 118 1
10 172 1
10 190 1
10 334 1
10 388 1
10 406 1
11 11 1
11 65 1
11 83 1
11 119 1
11 173 1
11 191 1
11 335 1
11 389 1
11 407 1
12 12 1
12 66 1
12 84 1
12 120 1
12 174 1
12 192 1
12 336 1
12 390 1
12 408 1
13 13 1
13 67 1
13 85 1
13 121 1
13 175 1
13 193 1
13 337 1
13 391 1
13 409 1
14 14 1
14 68 1
14 86 1
14 122 1
14 176 1
14 194 1
14 338 1
14 392 1
14 410 1
15 15 1
15 69 1
15 87 1
15 123 1
15 177 1
15 195 1
15 339 1
15 393 1
15 411 1
16 16 1
16 70 1
16 88 1
16 124 1
16 178 1
16 196 1
16 340 1
16 394 1
16 412 1
17 17 1
17 71 1
17 89 1
17 125 1
17 179 1
17 197 1
17 341 1
17 395 1
17 413 1
18 18 1
18 72 1
18 90 1
18 126 1
18 180 1
18 198 1
18 342 1
18 396 1
18 414 1
19 19 1
19 55 1
19 91 1
19 127 1
19 163 1
19 199 1
19 343 1
19 379 1
19 415 1
20 20 1
20 56 1
20 92 1
20 128 1
20 164 1
20 200 1
20 344 1
20 380 1
20 416 1
21 21 1
21 57 1
21 93 1
21 129 1
21 165 1
21 201 1
21 345 1
21 381 1
21 417 1
22 22 1
22 58 1
22 94 1
22 130 1
22 166 1
22 202 1
22 346 1
22 382 1
22 418 1
23 23 1
23 59 1
23 95 1
23 131 1
23 167 1
23 203 1
23 347 1
23 383 1
23 419 1
24 24 1
24 60 1
24 96 1
24 132 1
24 168 1
24 204 1
24 348 1
24 384 1
24 420 1
25 25 1
25 61 1
25 97 1
25 133 1
25 169 1
25 205 1
25 349 1
25 385 1
25 421 1
26 26 1
26 62 1
26 98 1
26 134 1
26 170 1
26 206 1
26 350 1
26 386 1
26 422 1
27 27 1
27 63 1
27 99 1
27 135 1
27 171 1
27 207 1
27 351 1
27 387 1
27 423 1
28 28 1
28 64 1
28 100 1
28 136 1
28 172 1
28 208 1
28 352 1
28 388 1
28 424 1
29 29 1
29 65 1
29 101 1
29 137 1
29 173 1
29 209 1
29 353 1
29 389 1
29 425 1
30 30 1
30 66 1
30 102 1
30 138 1
30 174 1
30 210 1
30 354 1
30 390 1
30 426 1
31 31 1
31 67 1
31 103 1
31 139 1
31 175 1
31 211 1
31 355 1
31 391 1
31 427 1
32 32 1
32 68 1
32 104 1
32 140 1
32 176 1
32 212 1
32 356 1
32 392 1
32 428 1
33 33 1
33 69 1
33 105 1
33 141 1
33 177 1
33 213 1
33 357 1
33 393 1
33 429 1
34 34 1
34 70 1
34 106 1
34 142 1
34 178 1
34 214 1
34 358 1
34 394 1
34 430 1
35 35 1
35 71 1
35 107 1
35 143 1
35 179 1
35 215 1
35 359 1
35 395 1
35 431 1
36 36 1
36 72 1
36 108 1
36 144 1
36 180 1
36 216 1
36 360 1
36 396 1
36 432 1
37 37 1
37 73 1
37 91 1
37 145 1
37 181 1
37 199 1
37 361 1
37 397 1
37 415 1
38 38 1
38 74 1
38 92 1
38 146 1
38 182 1
38 200 1
38 362 1
38 398 1
38 416 1
39 39 1
39 75 1
39 93 1
39 147 1
39 183 1
39 201 1
39 363 1
39 399 1
39 417 1
40 40 1
40 76 1
40 94 1
40 148 1
40 184 1
40 202 1
40 364 1
40 400 1
40 418 1
41 41 1
41 77 1
41 95 1
41 149 1
41 185 1
41 203 1
41 365 1
41 401 1
41 419 1
42 42 1
42 78 1
42 96 1
42 150 1
42 186 1
42 204 1
42 366 1
42 402 1
42 420 1
43 43 1
43 79 1
43 97 1
43 151 1
43 187 1
43 205 1
43 367 1
43 403 1
43 421 1
44 44 1
44 80 1
44 98 1
44 152 1
44 188 1
44 206 1
44 368 1
44 404 1
44 422 1
45 45 1
45 81 1
45 99 1
45 153 1
45 189 1
45 207 1
45 369 1
45 405 1
45 423 1
46 46 1
46 82 1
46 100 1
46 154 1
46 190 1
46 208 1
46 370 1
46 406 1
46 424 1
47 47 1
47 83 1
47 101 1
47 155 1
47 191 1
47 209 1
47 371 1
47 407 1
47 425 1
48 48 1
48 84 1
48 102 1
48 156 1
48 192 1
48 210 1
48 372 1
48 408 1
48 426 1
49 49 1
49 85 1
49 103 1
49 157 1
49 193 1
49 211 1
49 373 1
49 409 1
49 427 1
50 50 1
50 86 1
50 104 1
50 158 1
50 194 1
50 212 1
50 374 1
50 410 1
50 428 1
51 51 1
51 87 1
51 105 1
51 159 1
51 195 1
51 213 1
51 375 1
51 411 1
51 429 1
52 52 1
52 88 1
52 106 1
52 160 1
52 196 1
52 214 1
52 376 1
52 412 1
52 430 1
53 53 1
53 89 1
53 107 1
53 161 1
53 197 1
53 215 1
53 377 1
53 413 1
53 431 1
54 54 1
54 90 1
54 108 1
54 162 1
54 198 1
54 216 1
54 378 1
54 414 1
54 432 1
55 1 1
55 55 1
55 73 1
55 217 1
55 271 1
55 289 1
55 433 1
55 487 1
55 505 1
56 2 1
56 56 1
56 74 1
56 218 1
56 272 1
56 290 1
56 434 1
56 488 1
56 506 1
57 3 1
57 57 1
57 75 1
57 219 1
57 273 1
57 291 1
57 435 1
57 489 1
57 507 1
58 4 1
58 58 1
58 76 1
58 220 1
58 274 1
58 292 1
58 436 1
58 490 1
58 508 1
59 5 1
59 59 1
59 77 1
59 221 1
59 275 1
59 293 1
59 437 1
59 491 1
59 509 1
60 6 1
60 60 1
60 78 1
60 222 1
60 276 1
60 294 1
60 438 1
60 492 1
60 510 1
61 7 1
61 61 1
61 79 1
61 223 1
61 277 1
61 295 1
61 439 1
61 493 1
61 511 1
62 8 1
62 62 1
62 80 1
62 224 1
62 278 1
62 296 1
62 440 1
62 494 1
62 512 1
63 9 1
63 63 1
63 81 1
63 225 1
63 279 1
63 297 1
63 441 1
63 495 1
63 513 1
64 10 1
64 64 1
64 82 1
64 226 1
64 280 1
64 298 1
64 442 1
64 496 1
64 514 1
65 11 1
65 65 1
65 83 1
65 227 1
65 281 1
65 299 1
65 443 1
65 497 1
65 515 1
66 12 1
66 66 1
66 84 1
66 228 1
66 282 1
66 300 1
66 444 1
66 498 1
66 516 1
67 13 1
67 67 1
67 85 1
67 229 1
67 283 1
67 301 1
67 445 1
67 499 1
67 517 1
68 14 1
68 68 1
68 86 1
68 230 1
68 284 1
68 302 1
68 446 1
68 500 1
68 518 1
69 15 1
69 69 1
69 87 1
69 231 1
69 285 1
69 303 1
69 447 1
69 501 1
69 519 1
70 16 1
70 70 1
70 88 1
70 232 1
70 286 1
70 304 1
70 448 1
70 502 1
70 520 1
71 17 1
71 71 1
71 89 1
71 233 1
71 287 1
71 305 1
71 449 1
71 503 1
71 521 1
72 18 1
72 72 1
72 90 1
72 234 1
72 288 1
72 306 1
72 450 1
72 504 1
72 522 1
73 19 1
73 55 1
73 91 1
73 235 1
73 271 1
73 307 1
73 451 1
73 487 1
73 523 1
74 20 1
74 56 1
74 92 1
74 236 1
74 272 1
74 308 1
74 452 1
74 488 1
74 524 1
75 21 1
75 57 1
75 93 1
75 237 1
75 273 1
75 309 1
75 453 1
75 489 1
75 525 1
76 22 1
76 58 1
76 94 1
76 238 1
76 274 1
76 310 1
76 454 1
76 490 1
76 526 1
77 23 1
77 59 1
77 95 1
77 239 1
77 275 1
77 311 1
77 455 1
77 491 1
77 527 1
78 24 1
78 60 1
78 96 1
78 240 1
78 276 1
78 312 1
78 456 1
78 492 1
78 528 1
79 25 1
79 61 1
79 97 1
79 241 1
79 277 1
79 313 1
79 457 1
79 493 1
79 529 1
80 26 1
80 62 1
80 98 1
80 242 1
80 278 1
80 314 1
80 458 1
80 494 1
80 530 1
81 27 1
81 63 1
81 99 1
81 243 1
81 279 1
81 315 1
81 459 1
81 495 1
81 531 1
82 28 1
82 64 1
82 100 1
82 244 1
82 280 1
82 316 1
82 460 1
82 496 1
82 532 1
83 29 1
83 65 1
83 101 1
83 245 1
83 281 1
83 317 1
83 461 1
83 497 1
83 533 1
84 30 1
84 66 1
84 102 1
84 246 1
84 282 1
84 318 1
84 462 1
84 498 1
84 534 1
85 31 1
85 67 1
85 103 1
85 247 1
85 283 1
85 319 1
85 463 1
85 499 1
85 535 1
86 32 1
86 68 1
86 104 1
86 248 1
86 284 1
86 320 1
86 464 1
86 500 1
86 536 1
87 33 1
87 69 1
87 105 1
87 249 1
87 285 1
87 321 1
87 465 1
87 501 1
87 537 1
88 34 1
88 70 1
88 106 1
88 250 1
88 286 1
88 322 1
88 466 1
88 502 1
88 538 1
89 35 1
89 71 1
89 107 1
89 251 1
89 287 1
89 323 1
89 467 1
89 503 1
89 539 1
90 36 1
90 72 1
90 108 1
90 252 1
90 288 1
90 324 1
90 468 1
90 504 1
90 540 1
91 37 1
91 73 1
91 91 1
91 253 1
91 289 1
91 307 1
91 469 1
91 505 1
91 523 1
92 38 1
92 74 1
92 92 1
92 254 1
92 290 1
92 308 1
92 470 1
92 506 1
92 524 1
93 39 1
93 75 1
93 93 1
93 255 1
93 291 1
93 309 1
93 471 1
93 507 1
93 525 1
94 40 1
94 76 1
94 94 1
94 256 1
94 292 1
94 310 1
94 472 1
94 508 1
94 526 1
95 41 1
95 77 1
95 95 1
95 257 1
95 293 1
95 311 1
95 473 1
95 509 1
95 527 1
96 42 1
96 78 1
96 96 1
96 258 1
96 294 1
96 312 1
96 474 1
96 510 1
96 528 1
97 43 1
97 79 1
97 97 1
97 259 1
97 295 1
97 313 1
97 475 1
97 511 1
97 529 1
98 44 1
98 80 1
98 98 1
98 260 1
98 296 1
98 314 1
98 476 1
98 512 1
98 530 1
99 45 1
99 81 1
99 99 1
99 261 1
99 297 1
99 315 1
99 477 1
99 513 1
99 531 1
100 46 1
100 82 1
100 100 1
100 262 1
100 298 1
100 316 1
100 478 1
100 514 1
100 532 1
101 47 1
101 83 1
101 101 1
101 263 1
101 299 1
101 317 1
101 479 1
101 515 1
101 533 1
102 48 1
102 84 1
102 102 1
102 264 1
102 300 1
102 318 1
102 480 1
102 516 1
102 534 1
103 49 1
103 85 1
103 103 1
103 265 1
103 301 1
103 319 1
103 481 1
103 517 1
103 535 1
104 50 1
104 86 1
104 104 1
104 266 1
104 302 1
104 320 1
104 482 1
104 518 1
104 536 1
105 51 1
105 87 1
105 105 1
105 267 1
105 303 1
105 321 1
105 483 1
105 519 1
105 537 1
106 52 1
106 88 1
106 106 1
106 268 1
106 304 1
106 322 1
106 484 1
106 520 1
106 538 1
107 53 1
107 89 1
107 107 1
107 269 1
107 305 1
107 323 1
107 485 1
107 521 1
107 539 1
108 54 1
108 90 1
108 108 1
108 270 1
108 306 1
108 324 1
108 486 1
108 522 1
108 540 1
109 109 1
109 163 1
109 181 1
109 217 1
109 271 1
109 289 1
109 541 1
109 595 1
109 613 1
110 110 1
110 164 1
110 182 1
110 218 1
110 272 1
110 290 1
110 542 1
110 596 1
110 614 1
111 111 1
111 165 1
111 183 1
111 219 1
111 273 1
111 291 1
111 543 1
111 597 1
111 615 1
112 112 1
112 166 1
112 184 1
112 220 1
112 274 1
112 292 1
112 544 1
112 598 1
112 616 1
113 113 1
113 167 1
113 185 1
113 221 1
113 275 1
113 293 1
113 545 1
113 599 1
113 617 1
114 114 1
114 168 1
114 186 1
114 222 1
114 276 1
114 294 1
114 546 1
114 600 1
114 618 1
115 115 1
115 169 1
115 187 1
115 223 1
115 277 1
115 295 1
115 547 1
115 601 1
115 619 1
116 116 1
116 170 1
116 188 1
116 224 1
116 278 1
116 296 1
116 548 1
116 602 1
116 620 1
117 117 1
117 171 1
117 189 1
117 225 1
117 279 1
117 297 1
117 549 1
117 603 1
117 621 1
118 118 1
118 172 1
118 190 1
118 226 1
118 280 1
118 298 1
118 550 1
118 604 1
118 622 1
119 119 1
119 173 1
119 191 1
119 227 1
119 281 1
119 299 1
119 551 1
119 605 1
119 623 1
120 120 1
120 174 1
120 192 1
120 228 1
120 282 1
120 300 1
120 552 1
120 606 1
120 624 1
121 121 1
121 175 1
121 193 1
121 229 1
121 283 1
121 301 1
121 553 1
121 607 1
121 625 1
122 122 1
122 176 1
122 194 1
122 230 1
122 284 1
122 302 1
122 554 1
122 608 1
122 626 1
123 123 1
123 177 1
123 195 1
123 231 1
123 285 1
123 303 1
123 555 1
123 609 1
123 627 1
124 124 1
124 178 1
124 196 1
124 232 1
124 286 1
124 304 1
124 556 1
124 610 1
124 628 1
125 125 1
125 179 1
125 197 1
125 233 1
125 287 1
125 305 1
125 557 1
125 611 1
125 629 1
126 126 1
126 180 1
126 198 1
126 234 1
126 288 1
126 306 1
126 558 1
126 612 1
126 630 1
127 127 1
127 163 1
127 199 1
127 235 1
127 271 1
127 307 1
127 559 1
127 595 1
127 631 1
128 128 1
128 164 1
128 200 1
128 236 1
128 272 1
128 308 1
128 560 1
128 596 1
128 632 1
129 129 1
129 165 1
129 201 1
129 237 1
129 273 1
129 309 1
129 561 1
129 597 1
129 633 1
130 130 1
130 166 1
130 202 1
130 238 1
130 274 1
130 310 1
130 562 1
130 598 1
130 634 1
131 131 1
131 167 1
131 203 1
131 239 1
131 275 1
131 311 1
131 563 1
131 599 1
131 635 1
132 132 1
132 168 1
132 204 1
132 240 1
132 276 1
132 312 1
132 564 1
132 600 1
132 636 1
133 133 1
133 169 1
133 205 1
133 241 1
133 277 1
133 313 1
133 565 1
133 601 1
133 637 1
134 134 1
134 170 1
134 206 1
134 242 1
134 278 1
134 314 1
134 566 1
134 602 1
134 638 1
135 135 1
135 171 1
135 207 1
135 243 1
135 279 1
135 315 1
135 567 1
135 603 1
135 639 1
136 136 1
136 172 1
136 208 1
136 244 1
136 280 1
136 316 1
136 568 1
136 604 1
136 640 1
137 137 1
137 173 1
137 209 1
137 245 1
137 281 1
137 317 1
137 569 1
137 605 1
137 641 1
138 138 1
138 174 1
138 210 1
138 246 1
138 282 1
138 318 1
138 570 1
138 606 1
138 642 1
139 139 1
139 175 1
139 211 1
139 247 1
139 283 1
139 319 1
139 571 1
139 607 1
139 643 1
140 140 1
140 176 1
140 212 1
140 248 1
140 284 1
140 320 1
140 572 1
140 608 1
140 644 1
141 141 1
141 177 1
141 213 1
141 249 1
141 285 1
141 321 1
141 573 1
141 609 1
141 645 1
142 142 1
142 178 1
142 214 1
142 250 1
142 286 1
142 322 1
142 574 1
142 610 1
142 646 1
143 143 1
143 179 1
143 215 1
143 251 1
143 287 1
143 323 1
143 575 1
143 611 1
143 647 1
144 144 1
144 180 1
144 216 1
144 252 1
144 288 1
144 324 1
144 576 1
144 612 1
144 648 1
145 145 1
145 181 1
145 199 1
145 253 1
145 289 1
145 307 1
145 577 1
145 613 1
145 631 1
146 146 1
146 182 1
146 200 1
146 254 1
146 290 1
146 308 1
146 578 1
146 614 1
146 632 1
147 147 1
147 183 1
147 201 1
147 255 1
147 291 1
147 309 1
147 579 1
147 615 1
147 633 1
148 148 1
148 184 1
148 202 1
148 256 1
148 292 1
148 310 1
148 580 1
148 616 1
148 634 1
149 149 1
149 185 1
149 203 1
149 257 1
149 293 1
149 311 1
149 581 1
149 617 1
149 635 1
150 150 1
150 186 1
150 204 1
150 258 1
150 294 1
150 312 1
150 582 1
150 618 1
150 636 1
151 151 1
151 187 1
151 205 1
151 259 1
151 295 1
151 313 1
151 583 1
151 619 1
151 637 1
152 152 1
152 188 1
152 206 1
152 260 1
152 296 1
152 314 1
152 584 1
152 620 1
152 638 1
153 153 1
153 189 1
153 207 1
153 261 1
153 297 1
153 315 1
153 585 1
153 621 1
153 639 1
154 154 1
154 190 1
154 208 1
154 262 1
154 298 1
154 316 1
154 586 1
154 622 1
154 640 1
155 155 1
155 191 1
155 209 1
155 263 1
155 299 1
155 317 1
155 587 1
155 623 1
155 641 1
156 156 1
156 192 1
156 210 1
156 264 1
156 300 1
156 318 1
156 588 1
156 624 1
156 642 1
157 157 1
157 193 1
157 211 1
157 265 1
157 301 1
157 319 1
157 589 1
157 625 1
157 643 1
158 158 1
158 194 1
158 212 1
158 266 1
158 302 1
158 320 1
158 590 1
158 626 1
158 644 1
159 159 1
159 195 1
159 213 1
159 267 1
159 303 1
159 321 1
159 591 1
159 627 1
159 645 1
160 160 1
160 196 1
160 214 1
160 268 1
160 304 1
160 322 1
160 592 1
160 628 1
160 646 1
161 161 1
161 197 1
161 215 1
161 269 1
161 305 1
161 323 1
161 593 1
161 629 1
161 647 1
162 162 1
162 198 1
162 216 1
162 270 1
162 306 1
162 324 1
162 594 1
162 630 1
162 648 1
163 1 1
163 41 1
163 108 1
163 222 1
163 266 1
163 319 1
163 558 1
163 583 1
163 631 1
164 2 1
164 39 1
164 107 1
164 225 1
164 263 1
164 316 1
164 543 1
164 578 1
164 646 1
165 3 1
165 38 1
165 106 1
165 227 1
165 261 1
165 314 1
165 542 1
165 579 1
165 647 1
166 4 1
166 52 1
166 105 1
166 228 1
166 260 1
166 313 1
166 550 1
166 593 1
166 639 1
167 5 1
167 37 1
167 104 1
167 230 1
167 258 1
167 311 1
167 547 1
167 594 1
167 642 1
168 6 1
168 50 1
168 103 1
168 217 1
168 257 1
168 324 1
168 548 1
168 588 1
168 641 1
169 7 1
169 54 1
169 102 1
169 231 1
169 265 1
169 310 1
169 545 1
169 577 1
169 644 1
170 8 1
170 48 1
170 101 1
170 232 1
170 256 1
170 309 1
170 546 1
170 590 1
170 643 1
171 9 1
171 47 1
171 100 1
171 218 1
171 255 1
171 323 1
171 555 1
171 589 1
171 634 1
172 10 1
172 53 1
172 99 1
172 233 1
172 262 1
172 308 1
172 544 1
172 592 1
172 645 1
173 11 1
173 45 1
173 98 1
173 219 1
173 254 1
173 322 1
173 553 1
173 591 1
173 636 1
174 12 1
174 44 1
174 97 1
174 220 1
174 268 1
174 321 1
174 554 1
174 582 1
174 635 1
175 13 1
175 51 1
175 96 1
175 234 1
175 259 1
175 307 1
175 551 1
175 585 1
175 638 1
176 14 1
176 42 1
176 95 1
176 221 1
176 253 1
176 320 1
176 552 1
176 584 1
176 637 1
177 15 1
177 49 1
177 94 1
177 223 1
177 270 1
177 318 1
177 549 1
177 587 1
177 640 1
178 16 1
178 40 1
178 93 1
178 224 1
178 264 1
178 317 1
178 557 1
178 586 1
178 632 1
179 17 1
179 46 1
179 92 1
179 226 1
179 269 1
179 315 1
179 556 1
179 580 1
179 633 1
180 18 1
180 43 1
180 91 1
180 229 1
180 267 1
180 312 1
180 541 1
180 581 1
180 648 1
181 35 1
181 41 1
181 84 1
181 244 1
181 266 1
181 292 1
181 574 1
181 583 1
181 626 1
182 36 1
182 39 1
182 81 1
182 247 1
182 263 1
182 290 1
182 559 1
182 578 1
182 627 1
183 19 1
183 38 1
183 87 1
183 240 1
183 261 1
183 295 1
183 576 1
183 579 1
183 621 1
184 25 1
184 52 1
184 78 1
184 249 1
184 260 1
184 289 1
184 563 1
184 593 1
184 620 1
185 20 1
185 37 1
185 85 1
185 243 1
185 258 1
185 306 1
185 561 1
185 594 1
185 623 1
186 28 1
186 50 1
186 76 1
186 251 1
186 257 1
186 300 1
186 562 1
186 588 1
186 622 1
187 21 1
187 54 1
187 83 1
187 245 1
187 265 1
187 291 1
187 560 1
187 577 1
187 625 1
188 22 1
188 48 1
188 82 1
188 246 1
188 256 1
188 305 1
188 568 1
188 590 1
188 616 1
189 31 1
189 47 1
189 74 1
189 252 1
189 255 1
189 297 1
189 569 1
189 589 1
189 615 1
190 23 1
190 53 1
190 80 1
190 248 1
190 262 1
190 304 1
190 565 1
190 592 1
190 618 1
191 24 1
191 45 1
191 79 1
191 235 1
191 254 1
191 303 1
191 566 1
191 591 1
191 617 1
192 33 1
192 44 1
192 73 1
192 241 1
192 268 1
192 294 1
192 567 1
192 582 1
192 630 1
193 26 1
193 51 1
193 77 1
193 250 1
193 259 1
193 302 1
193 564 1
193 585 1
193 619 1
194 27 1
194 42 1
194 90 1
194 236 1
194 253 1
194 301 1
194 573 1
194 584 1
194 613 1
195 29 1
195 49 1
195 75 1
195 237 1
195 270 1
195 299 1
195 571 1
195 587 1
195 614 1
196 30 1
196 40 1
196 89 1
196 238 1
196 264 1
196 298 1
196 572 1
196 586 1
196 628 1
197 32 1
197 46 1
197 88 1
197 239 1
197 269 1
197 296 1
197 570 1
197 580 1
197 629 1
198 34 1
198 43 1
198 86 1
198 242 1
198 267 1
198 293 1
198 575 1
198 581 1
198 624 1
199 59 1
199 84 1
199 108 1
199 284 1
199 292 1
199 319 1
199 601 1
199 626 1
199 631 1
200 57 1
200 81 1
200 107 1
200 281 1
200 290 1
200 316 1
200 596 1
200 627 1
200 646 1
201 56 1
201 87 1
201 106 1
201 279 1
201 295 1
201 314 1
201 597 1
201 621 1
201 647 1
202 70 1
202 78 1
202 105 1
202 278 1
202 289 1
202 313 1
202 611 1
202 620 1
202 639 1
203 55 1
203 85 1
203 104 1
203 276 1
203 306 1
203 311 1
203 612 1
203 623 1
203 642 1
204 68 1
204 76 1
204 103 1
204 275 1
204 300 1
204 324 1
204 606 1
204 622 1
204 641 1
205 72 1
205 83 1
205 102 1
205 283 1
205 291 1
205 310 1
205 595 1
205 625 1
205 644 1
206 66 1
206 82 1
206 101 1
206 274 1
206 305 1
206 309 1
206 608 1
206 616 1
206 643 1
207 65 1
207 74 1
207 100 1
207 273 1
207 297 1
207 323 1
207 607 1
207 615 1
207 634 1
208 71 1
208 80 1
208 99 1
208 280 1
208 304 1
208 308 1
208 610 1
208 618 1
208 645 1
209 63 1
209 79 1
209 98 1
209 272 1
209 303 1
209 322 1
209 609 1
209 617 1
209 636 1
210 62 1
210 73 1
210 97 1
210 286 1
210 294 1
210 321 1
210 600 1
210 630 1
210 635 1
211 69 1
211 77 1
211 96 1
211 277 1
211 302 1
211 307 1
211 603 1
211 619 1
211 638 1
212 60 1
212 90 1
212 95 1
212 271 1
212 301 1
212 320 1
212 602 1
212 613 1
212 637 1
213 67 1
213 75 1
213 94 1
213 288 1
213 299 1
213 318 1
213 605 1
213 614 1
213 640 1
214 58 1
214 89 1
214 93 1
214 282 1
214 298 1
214 317 1
214 604 1
214 628 1
214 632 1
215 64 1
215 88 1
215 92 1
215 287 1
215 296 1
215 315 1
215 598 1
215 629 1
215 633 1
216 61 1
216 86 1
216 91 1
216 285 1
216 293 1
216 312 1
216 599 1
216 624 1
216 648 1
217 1 1
217 41 1
217 108 1
217 330 1
217 374 1
217 427 1
217 447 1
217 481 1
217 526 1
218 2 1
218 39 1
218 107 1
218 333 1
218 371 1
218 424 1
218 440 1
218 480 1
218 533 1
219 3 1
219 38 1
219 106 1
219 335 1
219 369 1
219 422 1
219 444 1
219 476 1
219 529 1
220 4 1
220 52 1
220 105 1
220 336 1
220 368 1
220 421 1
220 450 1
220 475 1
220 523 1
221 5 1
221 37 1
221 104 1
221 338 1
221 366 1
221 419 1
221 445 1
221 483 1
221 528 1
222 6 1
222 50 1
222 103 1
222 325 1
222 365 1
222 432 1
222 446 1
222 474 1
222 527 1
223 7 1
223 54 1
223 102 1
223 339 1
223 373 1
223 418 1
223 448 1
223 472 1
223 525 1
224 8 1
224 48 1
224 101 1
224 340 1
224 364 1
224 417 1
224 434 1
224 471 1
224 539 1
225 9 1
225 47 1
225 100 1
225 326 1
225 363 1
225 431 1
225 442 1
225 485 1
225 531 1
226 10 1
226 53 1
226 99 1
226 341 1
226 370 1
226 416 1
226 441 1
226 479 1
226 532 1
227 11 1
227 45 1
227 98 1
227 327 1
227 362 1
227 430 1
227 449 1
227 478 1
227 524 1
228 12 1
228 44 1
228 97 1
228 328 1
228 376 1
228 429 1
228 435 1
228 470 1
228 538 1
229 13 1
229 51 1
229 96 1
229 342 1
229 367 1
229 415 1
229 437 1
229 469 1
229 536 1
230 14 1
230 42 1
230 95 1
230 329 1
230 361 1
230 428 1
230 438 1
230 482 1
230 535 1
231 15 1
231 49 1
231 94 1
231 331 1
231 378 1
231 426 1
231 433 1
231 473 1
231 540 1
232 16 1
232 40 1
232 93 1
232 332 1
232 372 1
232 425 1
232 439 1
232 486 1
232 534 1
233 17 1
233 46 1
233 92 1
233 334 1
233 377 1
233 423 1
233 443 1
233 477 1
233 530 1
234 18 1
234 43 1
234 91 1
234 337 1
234 375 1
234 420 1
234 436 1
234 484 1
234 537 1
235 35 1
235 41 1
235 84 1
235 352 1
235 374 1
235 400 1
235 461 1
235 481 1
235 507 1
236 36 1
236 39 1
236 81 1
236 355 1
236 371 1
236 398 1
236 454 1
236 480 1
236 514 1
237 19 1
237 38 1
237 87 1
237 348 1
237 369 1
237 403 1
237 465 1
237 476 1
237 505 1
238 25 1
238 52 1
238 78 1
238 357 1
238 368 1
238 397 1
238 466 1
238 475 1
238 518 1
239 20 1
239 37 1
239 85 1
239 351 1
239 366 1
239 414 1
239 458 1
239 483 1
239 509 1
240 28 1
240 50 1
240 76 1
240 359 1
240 365 1
240 408 1
240 459 1
240 474 1
240 522 1
241 21 1
241 54 1
241 83 1
241 353 1
241 373 1
241 399 1
241 462 1
241 472 1
241 521 1
242 22 1
242 48 1
242 82 1
242 354 1
242 364 1
242 413 1
242 468 1
242 471 1
242 513 1
243 31 1
243 47 1
243 74 1
243 360 1
243 363 1
243 405 1
243 455 1
243 485 1
243 512 1
244 23 1
244 53 1
244 80 1
244 356 1
244 370 1
244 412 1
244 463 1
244 479 1
244 506 1
245 24 1
245 45 1
245 79 1
245 343 1
245 362 1
245 411 1
245 464 1
245 478 1
245 520 1
246 33 1
246 44 1
246 73 1
246 349 1
246 376 1
246 402 1
246 451 1
246 470 1
246 519 1
247 26 1
247 51 1
247 77 1
247 358 1
247 367 1
247 410 1
247 452 1
247 469 1
247 517 1
248 27 1
248 42 1
248 90 1
248 344 1
248 361 1
248 409 1
248 460 1
248 482 1
248 508 1
249 29 1
249 49 1
249 75 1
249 345 1
249 378 1
249 407 1
249 467 1
249 473 1
249 516 1
250 30 1
250 40 1
250 89 1
250 346 1
250 372 1
250 406 1
250 453 1
250 486 1
250 515 1
251 32 1
251 46 1
251 88 1
251 347 1
251 377 1
251 404 1
251 456 1
251 477 1
251 511 1
252 34 1
252 43 1
252 86 1
252 350 1
252 375 1
252 401 1
252 457 1
252 484 1
252 510 1
253 59 1
253 84 1
253 108 1
253 392 1
253 400 1
253 427 1
253 499 1
253 507 1
253 526 1
254 57 1
254 81 1
254 107 1
254 389 1
254 398 1
254 424 1
254 498 1
254 514 1
254 533 1
255 56 1
255 87 1
255 106 1
255 387 1
255 403 1
255 422 1
255 494 1
255 505 1
255 529 1
256 70 1
256 78 1
256 105 1
256 386 1
256 397 1
256 421 1
256 493 1
256 518 1
256 523 1
257 55 1
257 85 1
257 104 1
257 384 1
257 414 1
257 419 1
257 501 1
257 509 1
257 528 1
258 68 1
258 76 1
258 103 1
258 383 1
258 408 1
258 432 1
258 492 1
258 522 1
258 527 1
259 72 1
259 83 1
259 102 1
259 391 1
259 399 1
259 418 1
259 490 1
259 521 1
259 525 1
260 66 1
260 82 1
260 101 1
260 382 1
260 413 1
260 417 1
260 489 1
260 513 1
260 539 1
261 65 1
261 74 1
261 100 1
261 381 1
261 405 1
261 431 1
261 503 1
261 512 1
261 531 1
262 71 1
262 80 1
262 99 1
262 388 1
262 412 1
262 416 1
262 497 1
262 506 1
262 532 1
263 63 1
263 79 1
263 98 1
263 380 1
263 411 1
263 430 1
263 496 1
263 520 1
263 524 1
264 62 1
264 73 1
264 97 1
264 394 1
264 402 1
264 429 1
264 488 1
264 519 1
264 538 1
265 69 1
265 77 1
265 96 1
265 385 1
265 410 1
265 415 1
265 487 1
265 517 1
265 536 1
266 60 1
266 90 1
266 95 1
266 379 1
266 409 1
266 428 1
266 500 1
266 508 1
266 535 1
267 67 1
267 75 1
267 94 1
267 396 1
267 407 1
267 426 1
267 491 1
267 516 1
267 540 1
268 58 1
268 89 1
268 93 1
268 390 1
268 406 1
268 425 1
268 504 1
268 515 1
268 534 1
269 64 1
269 88 1
269 92 1
269 395 1
269 404 1
269 423 1
269 495 1
269 511 1
269 530 1
270 61 1
270 86 1
270 91 1
270 393 1
270 401 1
270 420 1
270 502 1
270 510 1
270 537 1
271 110 1
271 147 1
271 215 1
271 222 1
271 266 1
271 319 1
271 447 1
271 481 1
271 526 1
272 109 1
272 149 1
272 216 1
272 225 1
272 263 1
272 316 1
272 440 1
272 480 1
272 533 1
273 113 1
273 145 1
273 212 1
273 227 1
273 261 1
273 314 1
273 444 1
273 476 1
273 529 1
274 114 1
274 158 1
274 211 1
274 228 1
274 260 1
274 313 1
274 450 1
274 475 1
274 523 1
275 111 1
275 146 1
275 214 1
275 230 1
275 258 1
275 311 1
275 445 1
275 483 1
275 528 1
276 112 1
276 160 1
276 213 1
276 217 1
276 257 1
276 324 1
276 446 1
276 474 1
276 527 1
277 118 1
277 161 1
277 207 1
277 231 1
277 265 1
277 310 1
277 448 1
277 472 1
277 525 1
278 119 1
278 153 1
278 206 1
278 232 1
278 256 1
278 309 1
278 434 1
278 471 1
278 539 1
279 120 1
279 152 1
279 205 1
279 218 1
279 255 1
279 323 1
279 442 1
279 485 1
279 531 1
280 115 1
280 162 1
280 210 1
280 233 1
280 262 1
280 308 1
280 441 1
280 479 1
280 532 1
281 116 1
281 156 1
281 209 1
281 219 1
281 254 1
281 322 1
281 449 1
281 478 1
281 524 1
282 117 1
282 155 1
282 208 1
282 220 1
282 268 1
282 321 1
282 435 1
282 470 1
282 538 1
283 123 1
283 157 1
283 202 1
283 234 1
283 259 1
283 307 1
283 437 1
283 469 1
283 536 1
284 124 1
284 148 1
284 201 1
284 221 1
284 253 1
284 320 1
284 438 1
284 482 1
284 535 1
285 121 1
285 159 1
285 204 1
285 223 1
285 270 1
285 318 1
285 433 1
285 473 1
285 540 1
286 122 1
286 150 1
286 203 1
286 224 1
286 264 1
286 317 1
286 439 1
286 486 1
286 534 1
287 126 1
287 151 1
287 199 1
287 226 1
287 269 1
287 315 1
287 443 1
287 477 1
287 530 1
288 125 1
288 154 1
288 200 1
288 229 1
288 267 1
288 312 1
288 436 1
288 484 1
288 537 1
289 144 1
289 147 1
289 189 1
289 244 1
289 266 1
289 292 1
289 461 1
289 481 1
289 507 1
290 143 1
290 149 1
290 192 1
290 247 1
290 263 1
290 290 1
290 454 1
290 480 1
290 514 1
291 128 1
291 145 1
291 193 1
291 240 1
291 261 1
291 295 1
291 465 1
291 476 1
291 505 1
292 136 1
292 158 1
292 184 1
292 249 1
292 260 1
292 289 1
292 466 1
292 475 1
292 518 1
293 127 1
293 146 1
293 195 1
293 243 1
293 258 1
293 306 1
293 458 1
293 483 1
293 509 1
294 133 1
294 160 1
294 186 1
294 251 1
294 257 1
294 300 1
294 459 1
294 474 1
294 522 1
295 131 1
295 161 1
295 188 1
295 245 1
295 265 1
295 291 1
295 462 1
295 472 1
295 521 1
296 132 1
296 153 1
296 187 1
296 246 1
296 256 1
296 305 1
296 468 1
296 471 1
296 513 1
297 141 1
297 152 1
297 181 1
297 252 1
297 255 1
297 297 1
297 455 1
297 485 1
297 512 1
298 129 1
298 162 1
298 191 1
298 248 1
298 262 1
298 304 1
298 463 1
298 479 1
298 506 1
299 130 1
299 156 1
299 190 1
299 235 1
299 254 1
299 303 1
299 464 1
299 478 1
299 520 1
300 139 1
300 155 1
300 182 1
300 241 1
300 268 1
300 294 1
300 451 1
300 470 1
300 519 1
301 137 1
301 157 1
301 183 1
301 250 1
301 259 1
301 302 1
301 452 1
301 469 1
301 517 1
302 138 1
302 148 1
302 197 1
302 236 1
302 253 1
302 301 1
302 460 1
302 482 1
302 508 1
303 134 1
303 159 1
303 185 1
303 237 1
303 270 1
303 299 1
303 467 1
303 473 1
303 516 1
304 135 1
304 150 1
304 198 1
304 238 1
304 264 1
304 298 1
304 453 1
304 486 1
304 515 1
305 142 1
305 151 1
305 194 1
305 239 1
305 269 1
305 296 1
305 456 1
305 477 1
305 511 1
306 140 1
306 154 1
306 196 1
306 242 1
306 267 1
306 293 1
306 457 1
306 484 1
306 510 1
307 165 1
307 189 1
307 215 1
307 284 1
307 292 1
307 319 1
307 499 1
307 507 1
307 526 1
308 167 1
308 192 1
308 216 1
308 281 1
308 290 1
308 316 1
308 498 1
308 514 1
308 533 1
309 163 1
309 193 1
309 212 1
309 279 1
309 295 1
309 314 1
309 494 1
309 505 1
309 529 1
310 176 1
310 184 1
310 211 1
310 278 1
310 289 1
310 313 1
310 493 1
310 518 1
310 523 1
311 164 1
311 195 1
311 214 1
311 276 1
311 306 1
311 311 1
311 501 1
311 509 1
311 528 1
312 178 1
312 186 1
312 213 1
312 275 1
312 300 1
312 324 1
312 492 1
312 522 1
312 527 1
313 179 1
313 188 1
313 207 1
313 283 1
313 291 1
313 310 1
313 490 1
313 521 1
313 525 1
314 171 1
314 187 1
314 206 1
314 274 1
314 305 1
314 309 1
314 489 1
314 513 1
314 539 1
315 170 1
315 181 1
315 205 1
315 273 1
315 297 1
315 323 1
315 503 1
315 512 1
315 531 1
316 180 1
316 191 1
316 210 1
316 280 1
316 304 1
316 308 1
316 497 1
316 506 1
316 532 1
317 174 1
317 190 1
317 209 1
317 272 1
317 303 1
317 322 1
317 496 1
317 520 1
317 524 1
318 173 1
318 182 1
318 208 1
318 286 1
318 294 1
318 321 1
318 488 1
318 519 1
318 538 1
319 175 1
319 183 1
319 202 1
319 277 1
319 302 1
319 307 1
319 487 1
319 517 1
319 536 1
320 166 1
320 197 1
320 201 1
320 271 1
320 301 1
320 320 1
320 500 1
320 508 1
320 535 1
321 177 1
321 185 1
321 204 1
321 288 1
321 299 1
321 318 1
321 491 1
321 516 1
321 540 1
322 168 1
322 198 1
322 203 1
322 282 1
322 298 1
322 317 1
322 504 1
322 515 1
322 534 1
323 169 1
323 194 1
323 199 1
323 287 1
323 296 1
323 315 1
323 495 1
323 511 1
323 530 1
324 172 1
324 196 1
324 200 1
324 285 1
324 293 1
324 312 1
324 502 1
324 510 1
324 537 1
