%%MatrixMarket matrix coordinate integer general
160 320 2560
1 1 1
1 25 1
1 30 1
1 35 1
1 161 1
1 185 1
1 190 1
1 195 1
1 201 1
1 225 1
1 230 1
1 235 1
1 241 1
1 265 1
1 270 1
1 275 1
2 2 1
2 21 1
2 26 1
2 31 1
2 162 1
2 181 1
2 186 1
2 191 1
2 202 1
2 221 1
2 226 1
2 231 1
2 242 1
2 261 1
2 266 1
2 271 1
3 3 1
3 22 1
3 27 1
3 32 1
3 163 1
3 182 1
3 187 1
3 192 1
3 203 1
3 222 1
3 227 1
3 232 1
3 243 1
3 262 1
3 267 1
3 272 1
4 4 1
4 23 1
4 28 1
4 33 1
4 164 1
4 183 1
4 188 1
4 193 1
4 204 1
4 223 1
4 228 1
4 233 1
4 244 1
4 263 1
4 268 1
4 273 1
5 5 1
5 24 1
5 29 1
5 34 1
5 165 1
5 184 1
5 189 1
5 194 1
5 205 1
5 224 1
5 229 1
5 234 1
5 245 1
5 264 1
5 269 1
5 274 1
6 6 1
6 25 1
6 30 1
6 40 1
6 166 1
6 185 1
6 190 1
6 200 1
6 206 1
6 225 1
6 230 1
6 240 1
6 246 1
6 265 1
6 270 1
6 280 1
7 7 1
7 21 1
7 26 1
7 36 1
7 167 1
7 181 1
7 186 1
7 196 1
7 207 1
7 221 1
7 226 1
7 236 1
7 247 1
7 261 1
7 266 1
7 276 1
8 8 1
8 22 1
8 27 1
8 37 1
8 168 1
8 182 1
8 187 1
8 197 1
8 208 1
8 222 1
8 227 1
8 237 1
8 248 1
8 262 1
8 267 1
8 277 1
9 9 1
9 23 1
9 28 1
9 38 1
9 169 1
9 183 1
9 188 1
9 198 1
9 209 1
9 223 1
9 228 1
9 238 1
9 249 1
9 263 1
9 268 1
9 278 1
10 10 1
10 24 1
10 29 1
10 39 1
10 170 1
10 184 1
10 189 1
10 199 1
10 210 1
10 224 1
10 229 1
10 239 1
10 250 1
10 264 1
10 269 1
10 279 1
11 11 1
11 25 1
11 35 1
11 40 1
11 171 1
11 185 1
11 195 1
11 200 1
11 211 1
11 225 1
11 235 1
11 240 1
11 251 1
11 265 1
11 275 1
11 280 1
12 12 1
12 21 1
12 31 1
12 36 1
12 172 1
12 181 1
12 191 1
12 196 1
12 212 1
12 221 1
12 231 1
12 236 1
12 252 1
12 261 1
12 271 1
12 276 1
13 13 1
13 22 1
13 32 1
13 37 1
13 173 1
13 182 1
13 192 1
13 197 1
13 213 1
13 222 1
13 232 1
13 237 1
13 253 1
13 262 1
13 272 1
13 277 1
14 14 1
14 23 1
14 33 1
14 38 1
14 174 1
14 183 1
14 193 1
14 198 1
14 214 1
14 223 1
14 233 1
14 238 1
14 254 1
14 263 1
14 273 1
14 278 1
15 15 1
15 24 1
15 34 1
15 39 1
15 175 1
15 184 1
15 194 1
15 199 1
15 215 1
15 224 1
15 234 1
15 239 1
15 255 1
15 264 1
15 274 1
15 279 1
16 16 1
16 30 1
16 35 1
16 40 1
16 176 1
16 190 1
16 195 1
16 200 1
16 216 1
16 230 1
16 235 1
16 240 1
16 256 1
16 270 1
16 275 1
16 280 1
17 17 1
17 26 1
17 31 1
17 36 1
17 177 1
17 186 1
17 191 1
17 196 1
17 217 1
17 226 1
17 231 1
17 236 1
17 257 1
17 266 1
17 271 1
17 276 1
18 18 1
18 27 1
18 32 1
18 37 1
18 178 1
18 187 1
18 192 1
18 197 1
18 218 1
18 227 1
18 232 1
18 237 1
18 258 1
18 267 1
18 272 1
18 277 1
19 19 1
19 28 1
19 33 1
19 38 1
19 179 1
19 188 1
19 193 1
19 198 1
19 219 1
19 228 1
19 233 1
19 238 1
19 259 1
19 268 1
19 273 1
19 278 1
20 20 1
20 29 1
20 34 1
20 39 1
20 180 1
20 189 1
20 194 1
20 199 1
20 220 1
20 229 1
20 234 1
20 239 1
20 260 1
20 269 1
20 274 1
20 279 1
21 41 1
21 65 1
21 70 1
21 75 1
21 161 1
21 185 1
21 190 1
21 195 1
21 201 1
21 225 1
21 230 1
21 235 1
21 281 1
21 305 1
21 310 1
21 315 1
22 42 1
22 61 1
22 66 1
22 71 1
22 162 1
22 181 1
22 186 1
22 191 1
22 202 1
22 221 1
22 226 1
22 231 1
22 282 1
22 301 1
22 306 1
22 311 1
23 43 1
23 62 1
23 67 1
23 72 1
23 163 1
23 182 1
23 187 1
23 192 1
23 203 1
23 222 1
23 227 1
23 232 1
23 283 1
23 302 1
23 307 1
23 312 1
24 44 1
24 63 1
24 68 1
24 73 1
24 164 1
24 183 1
24 188 1
24 193 1
24 204 1
24 223 1
24 228 1
24 233 1
24 284 1
24 303 1
24 308 1
24 313 1
25 45 1
25 64 1
25 69 1
25 74 1
25 165 1
25 184 1
25 189 1
25 194 1
25 205 1
25 224 1
25 229 1
25 234 1
25 285 1
25 304 1
25 309 1
25 314 1
26 46 1
26 65 1
26 70 1
26 80 1
26 166 1
26 185 1
26 190 1
26 200 1
26 206 1
26 225 1
26 230 1
26 240 1
26 286 1
26 305 1
26 310 1
26 320 1
27 47 1
27 61 1
27 66 1
27 76 1
27 167 1
27 181 1
27 186 1
27 196 1
27 207 1
27 221 1
27 226 1
27 236 1
27 287 1
27 301 1
27 306 1
27 316 1
28 48 1
28 62 1
28 67 1
28 77 1
28 168 1
28 182 1
28 187 1
28 197 1
28 208 1
28 222 1
28 227 1
28 237 1
28 288 1
28 302 1
28 307 1
28 317 1
29 49 1
29 63 1
29 68 1
29 78 1
29 169 1
29 183 1
29 188 1
29 198 1
29 209 1
29 223 1
29 228 1
29 238 1
29 289 1
29 303 1
29 308 1
29 318 1
30 50 1
30 64 1
30 69 1
30 79 1
30 170 1
30 184 1
30 189 1
30 199 1
30 210 1
30 224 1
30 229 1
30 239 1
30 290 1
30 304 1
30 309 1
30 319 1
31 51 1
31 65 1
31 75 1
31 80 1
31 171 1
31 185 1
31 195 1
31 200 1
31 211 1
31 225 1
31 235 1
31 240 1
31 291 1
31 305 1
31 315 1
31 320 1
32 52 1
32 61 1
32 71 1
32 76 1
32 172 1
32 181 1
32 191 1
32 196 1
32 212 1
32 221 1
32 231 1
32 236 1
32 292 1
32 301 1
32 311 1
32 316 1
33 53 1
33 62 1
33 72 1
33 77 1
33 173 1
33 182 1
33 192 1
33 197 1
33 213 1
33 222 1
33 232 1
33 237 1
33 293 1
33 302 1
33 312 1
33 317 1
34 54 1
34 63 1
34 73 1
34 78 1
34 174 1
34 183 1
34 193 1
34 198 1
34 214 1
34 223 1
34 233 1
34 238 1
34 294 1
34 303 1
34 313 1
34 318 1
35 55 1
35 64 1
35 74 1
35 79 1
35 175 1
35 184 1
35 194 1
35 199 1
35 215 1
35 224 1
35 234 1
35 239 1
35 295 1
35 304 1
35 314 1
35 319 1
36 56 1
36 70 1
36 75 1
36 80 1
36 176 1
36 190 1
36 195 1
36 200 1
36 216 1
36 230 1
36 235 1
36 240 1
36 296 1
36 310 1
36 315 1
36 320 1
37 57 1
37 66 1
37 71 1
37 76 1
37 177 1
37 186 1
37 191 1
37 196 1
37 217 1
37 226 1
37 231 1
37 236 1
37 297 1
37 306 1
37 311 1
37 316 1
38 58 1
38 67 1
38 72 1
38 77 1
38 178 1
38 187 1
38 192 1
38 197 1
38 218 1
38 227 1
38 232 1
38 237 1
38 298 1
38 307 1
38 312 1
38 317 1
39 59 1
39 68 1
39 73 1
39 78 1
39 179 1
39 188 1
39 193 1
39 198 1
39 219 1
39 228 1
39 233 1
39 238 1
39 299 1
39 308 1
39 313 1
39 318 1
40 60 1
40 69 1
40 74 1
40 79 1
40 180 1
40 189 1
40 194 1
40 199 1
40 220 1
40 229 1
40 234 1
40 239 1
40 300 1
40 309 1
40 314 1
40 319 1
41 81 1
41 105 1
41 110 1
41 115 1
41 161 1
41 185 1
41 190 1
41 195 1
41 241 1
41 265 1
41 270 1
41 275 1
41 281 1
41 305 1
41 310 1
41 315 1
42 82 1
42 101 1
42 106 1
42 111 1
42 162 1
42 181 1
42 186 1
42 191 1
42 242 1
42 261 1
42 266 1
42 271 1
42 282 1
42 301 1
42 306 1
42 311 1
43 83 1
43 102 1
43 107 1
43 112 1
43 163 1
43 182 1
43 187 1
43 192 1
43 243 1
43 262 1
43 267 1
43 272 1
43 283 1
43 302 1
43 307 1
43 312 1
44 84 1
44 103 1
44 108 1
44 113 1
44 164 1
44 183 1
44 188 1
44 193 1
44 244 1
44 263 1
44 268 1
44 273 1
44 284 1
44 303 1
44 308 1
44 313 1
45 85 1
45 104 1
45 109 1
45 114 1
45 165 1
45 184 1
45 189 1
45 194 1
45 245 1
45 264 1
45 269 1
45 274 1
45 285 1
45 304 1
45 309 1
45 314 1
46 86 1
46 105 1
46 110 1
46 120 1
46 166 1
46 185 1
46 190 1
46 200 1
46 246 1
46 265 1
46 270 1
46 280 1
46 286 1
46 305 1
46 310 1
46 320 1
47 87 1
47 101 1
47 106 1
47 116 1
47 167 1
47 181 1
47 186 1
47 196 1
47 247 1
47 261 1
47 266 1
47 276 1
47 287 1
47 301 1
47 306 1
47 316 1
48 88 1
48 102 1
48 107 1
48 117 1
48 168 1
48 182 1
48 187 1
48 197 1
48 248 1
48 262 1
48 267 1
48 277 1
48 288 1
48 302 1
48 307 1
48 317 1
49 89 1
49 103 1
49 108 1
49 118 1
49 169 1
49 183 1
49 188 1
49 198 1
49 249 1
49 263 1
49 268 1
49 278 1
49 289 1
49 303 1
49 308 1
49 318 1
50 90 1
50 104 1
50 109 1
50 119 1
50 170 1
50 184 1
50 189 1
50 199 1
50 250 1
50 264 1
50 269 1
50 279 1
50 290 1
50 304 1
50 309 1
50 319 1
51 91 1
51 105 1
51 115 1
51 120 1
51 171 1
51 185 1
51 195 1
51 200 1
51 251 1
51 265 1
51 275 1
51 280 1
51 291 1
51 305 1
51 315 1
51 320 1
52 92 1
52 101 1
52 111 1
52 116 1
52 172 1
52 181 1
52 191 1
52 196 1
52 252 1
52 261 1
52 271 1
52 276 1
52 292 1
52 301 1
52 311 1
52 316 1
53 93 1
53 102 1
53 112 1
53 117 1
53 173 1
53 182 1
53 192 1
53 197 1
53 253 1
53 262 1
53 272 1
53 277 1
53 293 1
53 302 1
53 312 1
53 317 1
54 94 1
54 103 1
54 113 1
54 118 1
54 174 1
54 183 1
54 193 1
54 198 1
54 254 1
54 263 1
54 273 1
54 278 1
54 294 1
54 303 1
54 313 1
54 318 1
55 95 1
55 104 1
55 114 1
55 119 1
55 175 1
55 184 1
55 194 1
55 199 1
55 255 1
55 264 1
55 274 1
55 279 1
55 295 1
55 304 1
55 314 1
55 319 1
56 96 1
56 110 1
56 115 1
56 120 1
56 176 1
56 190 1
56 195 1
56 200 1
56 256 1
56 270 1
56 275 1
56 280 1
56 296 1
56 310 1
56 315 1
56 320 1
57 97 1
57 106 1
57 111 1
57 116 1
57 177 1
57 186 1
57 191 1
57 196 1
57 257 1
57 266 1
57 271 1
57 276 1
57 297 1
57 306 1
57 311 1
57 316 1
58 98 1
58 107 1
58 112 1
58 117 1
58 178 1
58 187 1
58 192 1
58 197 1
58 258 1
58 267 1
58 272 1
58 277 1
58 298 1
58 307 1
58 312 1
58 317 1
59 99 1
59 108 1
59 113 1
59 118 1
59 179 1
59 188 1
59 193 1
59 198 1
59 259 1
59 268 1
59 273 1
59 278 1
59 299 1
59 308 1
59 313 1
59 318 1
60 100 1
60 109 1
60 114 1
60 119 1
60 180 1
60 189 1
60 194 1
60 199 1
60 260 1
60 269 1
60 274 1
60 279 1
60 300 1
60 309 1
60 314 1
60 319 1
61 121 1
61 145 1
61 150 1
61 155 1
61 201 1
61 225 1
61 230 1
61 235 1
61 241 1
61 265 1
61 270 1
61 275 1
61 281 1
61 305 1
61 310 1
61 315 1
62 122 1
62 141 1
62 146 1
62 151 1
62 202 1
62 221 1
62 226 1
62 231 1
62 242 1
62 261 1
62 266 1
62 271 1
62 282 1
62 301 1
62 306 1
62 311 1
63 123 1
63 142 1
63 147 1
63 152 1
63 203 1
63 222 1
63 227 1
63 232 1
63 243 1
63 262 1
63 267 1
63 272 1
63 283 1
63 302 1
63 307 1
63 312 1
64 124 1
64 143 1
64 148 1
64 153 1
64 204 1
64 223 1
64 228 1
64 233 1
64 244 1
64 263 1
64 268 1
64 273 1
64 284 1
64 303 1
64 308 1
64 313 1
65 125 1
65 144 1
65 149 1
65 154 1
65 205 1
65 224 1
65 229 1
65 234 1
65 245 1
65 264 1
65 269 1
65 274 1
65 285 1
65 304 1
65 309 1
65 314 1
66 126 1
66 145 1
66 150 1
66 160 1
66 206 1
66 225 1
66 230 1
66 240 1
66 246 1
66 265 1
66 270 1
66 280 1
66 286 1
66 305 1
66 310 1
66 320 1
67 127 1
67 141 1
67 146 1
67 156 1
67 207 1
67 221 1
67 226 1
67 236 1
67 247 1
67 261 1
67 266 1
67 276 1
67 287 1
67 301 1
67 306 1
67 316 1
68 128 1
68 142 1
68 147 1
68 157 1
68 208 1
68 222 1
68 227 1
68 237 1
68 248 1
68 262 1
68 267 1
68 277 1
68 288 1
68 302 1
68 307 1
68 317 1
69 129 1
69 143 1
69 148 1
69 158 1
69 209 1
69 223 1
69 228 1
69 238 1
69 249 1
69 263 1
69 268 1
69 278 1
69 289 1
69 303 1
69 308 1
69 318 1
70 130 1
70 144 1
70 149 1
70 159 1
70 210 1
70 224 1
70 229 1
70 239 1
70 250 1
70 264 1
70 269 1
70 279 1
70 290 1
70 304 1
70 309 1
70 319 1
71 131 1
71 145 1
71 155 1
71 160 1
71 211 1
71 225 1
71 235 1
71 240 1
71 251 1
71 265 1
71 275 1
71 280 1
71 291 1
71 305 1
71 315 1
71 320 1
72 132 1
72 141 1
72 151 1
72 156 1
72 212 1
72 221 1
72 231 1
72 236 1
72 252 1
72 261 1
72 271 1
72 276 1
72 292 1
72 301 1
72 311 1
72 316 1
73 133 1
73 142 1
73 152 1
73 157 1
73 213 1
73 222 1
73 232 1
73 237 1
73 253 1
73 262 1
73 272 1
73 277 1
73 293 1
73 302 1
73 312 1
73 317 1
74 134 1
74 143 1
74 153 1
74 158 1
74 214 1
74 223 1
74 233 1
74 238 1
74 254 1
74 263 1
74 273 1
74 278 1
74 294 1
74 303 1
74 313 1
74 318 1
75 135 1
75 144 1
75 154 1
75 159 1
75 215 1
75 224 1
75 234 1
75 239 1
75 255 1
75 264 1
75 274 1
75 279 1
75 295 1
75 304 1
75 314 1
75 319 1
76 136 1
76 150 1
76 155 1
76 160 1
76 216 1
76 230 1
76 235 1
76 240 1
76 256 1
76 270 1
76 275 1
76 280 1
76 296 1
76 310 1
76 315 1
76 320 1
77 137 1
77 146 1
77 151 1
77 156 1
77 217 1
77 226 1
77 231 1
77 236 1
77 257 1
77 266 1
77 271 1
77 276 1
77 297 1
77 306 1
77 311 1
77 316 1
78 138 1
78 147 1
78 152 1
78 157 1
78 218 1
78 227 1
78 232 1
78 237 1
78 258 1
78 267 1
78 272 1
78 277 1
78 298 1
78 307 1
78 312 1
78 317 1
79 139 1
79 148 1
79 153 1
79 158 1
79 219 1
79 228 1
79 233 1
79 238 1
79 259 1
79 268 1
79 273 1
79 278 1
79 299 1
79 308 1
79 313 1
79 318 1
80 140 1
80 149 1
80 154 1
80 159 1
80 220 1
80 229 1
80 234 1
80 239 1
80 260 1
80 269 1
80 274 1
80 279 1
80 300 1
80 309 1
80 314 1
80 319 1
81 1 1
81 21 1
81 26 1
81 31 1
81 163 1
81 183 1
81 188 1
81 193 1
81 243 1
81 263 1
81 268 1
81 273 1
81 284 1
81 304 1
81 309 1
81 314 1
82 2 1
82 22 1
82 27 1
82 32 1
82 164 1
82 184 1
82 189 1
82 194 1
82 244 1
82 264 1
82 269 1
82 274 1
82 285 1
82 305 1
82 310 1
82 315 1
83 3 1
83 23 1
83 28 1
83 33 1
83 165 1
83 185 1
83 190 1
83 195 1
83 245 1
83 265 1
83 270 1
83 275 1
83 281 1
83 301 1
83 306 1
83 311 1
84 4 1
84 24 1
84 29 1
84 34 1
84 161 1
84 181 1
84 186 1
84 191 1
84 241 1
84 261 1
84 266 1
84 271 1
84 282 1
84 302 1
84 307 1
84 312 1
85 5 1
85 25 1
85 30 1
85 35 1
85 162 1
85 182 1
85 187 1
85 192 1
85 242 1
85 262 1
85 267 1
85 272 1
85 283 1
85 303 1
85 308 1
85 313 1
86 6 1
86 21 1
86 26 1
86 36 1
86 168 1
86 183 1
86 188 1
86 198 1
86 248 1
86 263 1
86 268 1
86 278 1
86 289 1
86 304 1
86 309 1
86 319 1
87 7 1
87 22 1
87 27 1
87 37 1
87 169 1
87 184 1
87 189 1
87 199 1
87 249 1
87 264 1
87 269 1
87 279 1
87 290 1
87 305 1
87 310 1
87 320 1
88 8 1
88 23 1
88 28 1
88 38 1
88 170 1
88 185 1
88 190 1
88 200 1
88 250 1
88 265 1
88 270 1
88 280 1
88 286 1
88 301 1
88 306 1
88 316 1
89 9 1
89 24 1
89 29 1
89 39 1
89 166 1
89 181 1
89 186 1
89 196 1
89 246 1
89 261 1
89 266 1
89 276 1
89 287 1
89 302 1
89 307 1
89 317 1
90 10 1
90 25 1
90 30 1
90 40 1
90 167 1
90 182 1
90 187 1
90 197 1
90 247 1
90 262 1
90 267 1
90 277 1
90 288 1
90 303 1
90 308 1
90 318 1
91 11 1
91 21 1
91 31 1
91 36 1
91 173 1
91 183 1
91 193 1
91 198 1
91 253 1
91 263 1
91 273 1
91 278 1
91 294 1
91 304 1
91 314 1
91 319 1
92 12 1
92 22 1
92 32 1
92 37 1
92 174 1
92 184 1
92 194 1
92 199 1
92 254 1
92 264 1
92 274 1
92 279 1
92 295 1
92 305 1
92 315 1
92 320 1
93 13 1
93 23 1
93 33 1
93 38 1
93 175 1
93 185 1
93 195 1
93 200 1
93 255 1
93 265 1
93 275 1
93 280 1
93 291 1
93 301 1
93 311 1
93 316 1
94 14 1
94 24 1
94 34 1
94 39 1
94 171 1
94 181 1
94 191 1
94 196 1
94 251 1
94 261 1
94 271 1
94 276 1
94 292 1
94 302 1
94 312 1
94 317 1
95 15 1
95 25 1
95 35 1
95 40 1
95 172 1
95 182 1
95 192 1
95 197 1
95 252 1
95 262 1
95 272 1
95 277 1
95 293 1
95 303 1
95 313 1
95 318 1
96 16 1
96 26 1
96 31 1
96 36 1
96 178 1
96 188 1
96 193 1
96 198 1
96 258 1
96 268 1
96 273 1
96 278 1
96 299 1
96 309 1
96 314 1
96 319 1
97 17 1
97 27 1
97 32 1
97 37 1
97 179 1
97 189 1
97 194 1
97 199 1
97 259 1
97 269 1
97 274 1
97 279 1
97 300 1
97 310 1
97 315 1
97 320 1
98 18 1
98 28 1
98 33 1
98 38 1
98 180 1
98 190 1
98 195 1
98 200 1
98 260 1
98 270 1
98 275 1
98 280 1
98 296 1
98 306 1
98 311 1
98 316 1
99 19 1
99 29 1
99 34 1
99 39 1
99 176 1
99 186 1
99 191 1
99 196 1
99 256 1
99 266 1
99 271 1
99 276 1
99 297 1
99 307 1
99 312 1
99 317 1
100 20 1
100 30 1
100 35 1
100 40 1
100 177 1
100 187 1
100 192 1
100 197 1
100 257 1
100 267 1
100 272 1
100 277 1
100 298 1
100 308 1
100 313 1
100 318 1
101 41 1
101 61 1
101 66 1
101 71 1
101 163 1
101 183 1
101 188 1
101 193 1
101 203 1
101 223 1
101 228 1
101 233 1
101 284 1
101 304 1
101 309 1
101 314 1
102 42 1
102 62 1
102 67 1
102 72 1
102 164 1
102 184 1
102 189 1
102 194 1
102 204 1
102 224 1
102 229 1
102 234 1
102 285 1
102 305 1
102 310 1
102 315 1
103 43 1
103 63 1
103 68 1
103 73 1
103 165 1
103 185 1
103 190 1
103 195 1
103 205 1
103 225 1
103 230 1
103 235 1
103 281 1
103 301 1
103 306 1
103 311 1
104 44 1
104 64 1
104 69 1
104 74 1
104 161 1
104 181 1
104 186 1
104 191 1
104 201 1
104 221 1
104 226 1
104 231 1
104 282 1
104 302 1
104 307 1
104 312 1
105 45 1
105 65 1
105 70 1
105 75 1
105 162 1
105 182 1
105 187 1
105 192 1
105 202 1
105 222 1
105 227 1
105 232 1
105 283 1
105 303 1
105 308 1
105 313 1
106 46 1
106 61 1
106 66 1
106 76 1
106 168 1
106 183 1
106 188 1
106 198 1
106 208 1
106 223 1
106 228 1
106 238 1
106 289 1
106 304 1
106 309 1
106 319 1
107 47 1
107 62 1
107 67 1
107 77 1
107 169 1
107 184 1
107 189 1
107 199 1
107 209 1
107 224 1
107 229 1
107 239 1
107 290 1
107 305 1
107 310 1
107 320 1
108 48 1
108 63 1
108 68 1
108 78 1
108 170 1
108 185 1
108 190 1
108 200 1
108 210 1
108 225 1
108 230 1
108 240 1
108 286 1
108 301 1
108 306 1
108 316 1
109 49 1
109 64 1
109 69 1
109 79 1
109 166 1
109 181 1
109 186 1
109 196 1
109 206 1
109 221 1
109 226 1
109 236 1
109 287 1
109 302 1
109 307 1
109 317 1
110 50 1
110 65 1
110 70 1
110 80 1
110 167 1
110 182 1
110 187 1
110 197 1
110 207 1
110 222 1
110 227 1
110 237 1
110 288 1
110 303 1
110 308 1
110 318 1
111 51 1
111 61 1
111 71 1
111 76 1
111 173 1
111 183 1
111 193 1
111 198 1
111 213 1
111 223 1
111 233 1
111 238 1
111 294 1
111 304 1
111 314 1
111 319 1
112 52 1
112 62 1
112 72 1
112 77 1
112 174 1
112 184 1
112 194 1
112 199 1
112 214 1
112 224 1
112 234 1
112 239 1
112 295 1
112 305 1
112 315 1
112 320 1
113 53 1
113 63 1
113 73 1
113 78 1
113 175 1
113 185 1
113 195 1
113 200 1
113 215 1
113 225 1
113 235 1
113 240 1
113 291 1
113 301 1
113 311 1
113 316 1
114 54 1
114 64 1
114 74 1
114 79 1
114 171 1
114 181 1
114 191 1
114 196 1
114 211 1
114 221 1
114 231 1
114 236 1
114 292 1
114 302 1
114 312 1
114 317 1
115 55 1
115 65 1
115 75 1
115 80 1
115 172 1
115 182 1
115 192 1
115 197 1
115 212 1
115 222 1
115 232 1
115 237 1
115 293 1
115 303 1
115 313 1
115 318 1
116 56 1
116 66 1
116 71 1
116 76 1
116 178 1
116 188 1
116 193 1
116 198 1
116 218 1
116 228 1
116 233 1
116 238 1
116 299 1
116 309 1
116 314 1
116 319 1
117 57 1
117 67 1
117 72 1
117 77 1
117 179 1
117 189 1
117 194 1
117 199 1
117 219 1
117 229 1
117 234 1
117 239 1
117 300 1
117 310 1
117 315 1
117 320 1
118 58 1
118 68 1
118 73 1
118 78 1
118 180 1
118 190 1
118 195 1
118 200 1
118 220 1
118 230 1
118 235 1
118 240 1
118 296 1
118 306 1
118 311 1
118 316 1
119 59 1
119 69 1
119 74 1
119 79 1
119 176 1
119 186 1
119 191 1
119 196 1
119 216 1
119 226 1
119 231 1
119 236 1
119 297 1
119 307 1
119 312 1
119 317 1
120 60 1
120 70 1
120 75 1
120 80 1
120 177 1
120 187 1
120 192 1
120 197 1
120 217 1
120 227 1
120 232 1
120 237 1
120 298 1
120 308 1
120 313 1
120 318 1
121 82 1
121 102 1
121 107 1
121 112 1
121 163 1
121 183 1
121 188 1
121 193 1
121 203 1
121 223 1
121 228 1
121 233 1
121 243 1
121 263 1
121 268 1
121 273 1
122 83 1
122 103 1
122 108 1
122 113 1
122 164 1
122 184 1
122 189 1
122 194 1
122 204 1
122 224 1
122 229 1
122 234 1
122 244 1
122 264 1
122 269 1
122 274 1
123 84 1
123 104 1
123 109 1
123 114 1
123 165 1
123 185 1
123 190 1
123 195 1
123 205 1
123 225 1
123 230 1
123 235 1
123 245 1
123 265 1
123 270 1
123 275 1
124 85 1
124 105 1
124 110 1
124 115 1
124 161 1
124 181 1
124 186 1
124 191 1
124 201 1
124 221 1
124 226 1
124 231 1
124 241 1
124 261 1
124 266 1
124 271 1
125 81 1
125 101 1
125 106 1
125 111 1
125 162 1
125 182 1
125 187 1
125 192 1
125 202 1
125 222 1
125 227 1
125 232 1
125 242 1
125 262 1
125 267 1
125 272 1
126 87 1
126 102 1
126 107 1
126 117 1
126 168 1
126 183 1
126 188 1
126 198 1
126 208 1
126 223 1
126 228 1
126 238 1
126 248 1
126 263 1
126 268 1
126 278 1
127 88 1
127 103 1
127 108 1
127 118 1
127 169 1
127 184 1
127 189 1
127 199 1
127 209 1
127 224 1
127 229 1
127 239 1
127 249 1
127 264 1
127 269 1
127 279 1
128 89 1
128 104 1
128 109 1
128 119 1
128 170 1
128 185 1
128 190 1
128 200 1
128 210 1
128 225 1
128 230 1
128 240 1
128 250 1
128 265 1
128 270 1
128 280 1
129 90 1
129 105 1
129 110 1
129 120 1
129 166 1
129 181 1
129 186 1
129 196 1
129 206 1
129 221 1
129 226 1
129 236 1
129 246 1
129 261 1
129 266 1
129 276 1
130 86 1
130 101 1
130 106 1
130 116 1
130 167 1
130 182 1
130 187 1
130 197 1
130 207 1
130 222 1
130 227 1
130 237 1
130 247 1
130 262 1
130 267 1
130 277 1
131 92 1
131 102 1
131 112 1
131 117 1
131 173 1
131 183 1
131 193 1
131 198 1
131 213 1
131 223 1
131 233 1
131 238 1
131 253 1
131 263 1
131 273 1
131 278 1
132 93 1
132 103 1
132 113 1
132 118 1
132 174 1
132 184 1
132 194 1
132 199 1
132 214 1
132 224 1
132 234 1
132 239 1
132 254 1
132 264 1
132 274 1
132 279 1
133 94 1
133 104 1
133 114 1
133 119 1
133 175 1
133 185 1
133 195 1
133 200 1
133 215 1
133 225 1
133 235 1
133 240 1
133 255 1
133 265 1
133 275 1
133 280 1
134 95 1
134 105 1
134 115 1
134 120 1
134 171 1
134 181 1
134 191 1
134 196 1
134 211 1
134 221 1
134 231 1
134 236 1
134 251 1
134 261 1
134 271 1
134 276 1
135 91 1
135 101 1
135 111 1
135 116 1
135 172 1
135 182 1
135 192 1
135 197 1
135 212 1
135 222 1
135 232 1
135 237 1
135 252 1
135 262 1
135 272 1
135 277 1
136 97 1
136 107 1
136 112 1
136 117 1
136 178 1
136 188 1
136 193 1
136 198 1
136 218 1
136 228 1
136 233 1
136 238 1
136 258 1
136 268 1
136 273 1
136 278 1
137 98 1
137 108 1
137 113 1
137 118 1
137 179 1
137 189 1
137 194 1
137 199 1
137 219 1
137 229 1
137 234 1
137 239 1
137 259 1
137 269 1
137 274 1
137 279 1
138 99 1
138 109 1
138 114 1
138 119 1
138 180 1
138 190 1
138 195 1
138 200 1
138 220 1
138 230 1
138 235 1
138 240 1
138 260 1
138 270 1
138 275 1
138 280 1
139 100 1
139 110 1
139 115 1
139 120 1
139 176 1
139 186 1
139 191 1
139 196 1
139 216 1
139 226 1
139 231 1
139 236 1
139 256 1
139 266 1
139 271 1
139 276 1
140 96 1
140 106 1
140 111 1
140 116 1
140 177 1
140 187 1
140 192 1
140 197 1
140 217 1
140 227 1
140 232 1
140 237 1
140 257 1
140 267 1
140 272 1
140 277 1
141 122 1
141 142 1
141 147 1
141 152 1
141 203 1
141 223 1
141 228 1
141 233 1
141 243 1
141 263 1
141 268 1
141 273 1
141 284 1
141 304 1
141 309 1
141 314 1
142 123 1
142 143 1
142 148 1
142 153 1
142 204 1
142 224 1
142 229 1
142 234 1
142 244 1
142 264 1
142 269 1
142 274 1
142 285 1
142 305 1
142 310 1
142 315 1
143 124 1
143 144 1
143 149 1
143 154 1
143 205 1
143 225 1
143 230 1
143 235 1
143 245 1
143 265 1
143 270 1
143 275 1
143 281 1
143 301 1
143 306 1
143 311 1
144 125 1
144 145 1
144 150 1
144 155 1
144 201 1
144 221 1
144 226 1
144 231 1
144 241 1
144 261 1
144 266 1
144 271 1
144 282 1
144 302 1
144 307 1
144 312 1
145 121 1
145 141 1
145 146 1
145 151 1
145 202 1
145 222 1
145 227 1
145 232 1
145 242 1
145 262 1
145 267 1
145 272 1
145 283 1
145 303 1
145 308 1
145 313 1
146 127 1
146 142 1
146 147 1
146 157 1
146 208 1
146 223 1
146 228 1
146 238 1
146 248 1
146 263 1
146 268 1
146 278 1
146 289 1
146 304 1
146 309 1
146 319 1
147 128 1
147 143 1
147 148 1
147 158 1
147 209 1
147 224 1
147 229 1
147 239 1
147 249 1
147 264 1
147 269 1
147 279 1
147 290 1
147 305 1
147 310 1
147 320 1
148 129 1
148 144 1
148 149 1
148 159 1
148 210 1
148 225 1
148 230 1
148 240 1
148 250 1
148 265 1
148 270 1
148 280 1
148 286 1
148 301 1
148 306 1
148 316 1
149 130 1
149 145 1
149 150 1
149 160 1
149 206 1
149 221 1
149 226 1
149 236 1
149 246 1
149 261 1
149 266 1
149 276 1
149 287 1
149 302 1
149 307 1
149 317 1
150 126 1
150 141 1
150 146 1
150 156 1
150 207 1
150 222 1
150 227 1
150 237 1
150 247 1
150 262 1
150 267 1
150 277 1
150 288 1
150 303 1
150 308 1
150 318 1
151 132 1
151 142 1
151 152 1
151 157 1
151 213 1
151 223 1
151 233 1
151 238 1
151 253 1
151 263 1
151 273 1
151 278 1
151 294 1
151 304 1
151 314 1
151 319 1
152 133 1
152 143 1
152 153 1
152 158 1
152 214 1
152 224 1
152 234 1
152 239 1
152 254 1
152 264 1
152 274 1
152 279 1
152 295 1
152 305 1
152 315 1
152 320 1
153 134 1
153 144 1
153 154 1
153 159 1
153 215 1
153 225 1
153 235 1
153 240 1
153 255 1
153 265 1
153 275 1
153 280 1
153 291 1
153 301 1
153 311 1
153 316 1
154 135 1
154 145 1
154 155 1
154 160 1
154 211 1
154 221 1
154 231 1
154 236 1
154 251 1
154 261 1
154 271 1
154 276 1
154 292 1
154 302 1
154 312 1
154 317 1
155 131 1
155 141 1
155 151 1
155 156 1
155 212 1
155 222 1
155 232 1
155 237 1
155 252 1
155 262 1
155 272 1
155 277 1
155 293 1
155 303 1
155 313 1
155 318 1
156 137 1
156 147 1
156 152 1
156 157 1
156 218 1
156 228 1
156 233 1
156 238 1
156 258 1
156 268 1
156 273 1
156 278 1
156 299 1
156 309 1
156 314 1
156 319 1
157 138 1
157 148 1
157 153 1
157 158 1
157 219 1
157 229 1
157 234 1
157 239 1
157 259 1
157 269 1
157 274 1
157 279 1
157 300 1
157 310 1
157 315 1
157 320 1
158 139 1
158 149 1
158 154 1
158 159 1
158 220 1
158 230 1
158 235 1
158 240 1
158 260 1
158 270 1
158 275 1
158 280 1
158 296 1
158 306 1
158 311 1
158 316 1
159 140 1
159 150 1
159 155 1
159 160 1
159 216 1
159 226 1
159 231 1
159 236 1
159 256 1
159 266 1
159 271 1
159 276 1
159 297 1
159 307 1
159 312 1
159 317 1
160 136 1
160 146 1
160 151 1
160 156 1
160 217 1
160 227 1
160 232 1
160 237 1
160 257 1
160 267 1
160 272 1
160 277 1
160 298 1
160 308 1
160 313 1
160 318 1
