%%MatrixMarket matrix coordinate integer general
256 512 4096
1 1 1
1 33 1
1 41 1
1 49 1
1 257 1
1 289 1
1 297 1
1 305 1
1 321 1
1 353 1
1 361 1
1 369 1
1 385 1
1 417 1
1 425 1
1 433 1
2 2 1
2 34 1
2 42 1
2 50 1
2 258 1
2 290 1
2 298 1
2 306 1
2 322 1
2 354 1
2 362 1
2 370 1
2 386 1
2 418 1
2 426 1
2 434 1
3 3 1
3 35 1
3 43 1
3 51 1
3 259 1
3 291 1
3 299 1
3 307 1
3 323 1
3 355 1
3 363 1
3 371 1
3 387 1
3 419 1
3 427 1
3 435 1
4 4 1
4 36 1
4 44 1
4 52 1
4 260 1
4 292 1
4 300 1
4 308 1
4 324 1
4 356 1
4 364 1
4 372 1
4 388 1
4 420 1
4 428 1
4 436 1
5 5 1
5 37 1
5 45 1
5 53 1
5 261 1
5 293 1
5 301 1
5 309 1
5 325 1
5 357 1
5 365 1
5 373 1
5 389 1
5 421 1
5 429 1
5 437 1
6 6 1
6 38 1
6 46 1
6 54 1
6 262 1
6 294 1
6 302 1
6 310 1
6 326 1
6 358 1
6 366 1
6 374 1
6 390 1
6 422 1
6 430 1
6 438 1
7 7 1
7 39 1
7 47 1
7 55 1
7 263 1
7 295 1
7 303 1
7 311 1
7 327 1
7 359 1
7 367 1
7 375 1
7 391 1
7 423 1
7 431 1
7 439 1
8 8 1
8 40 1
8 48 1
8 56 1
8 264 1
8 296 1
8 304 1
8 312 1
8 328 1
8 360 1
8 368 1
8 376 1
8 392 1
8 424 1
8 432 1
8 440 1
9 9 1
9 33 1
9 41 1
9 57 1
9 265 1
9 289 1
9 297 1
9 313 1
9 329 1
9 353 1
9 361 1
9 377 1
9 393 1
9 417 1
9 425 1
9 441 1
10 10 1
10 34 1
10 42 1
10 58 1
10 266 1
10 290 1
10 298 1
10 314 1
10 330 1
10 354 1
10 362 1
10 378 1
10 394 1
10 418 1
10 426 1
10 442 1
11 11 1
11 35 1
11 43 1
11 59 1
11 267 1
11 291 1
11 299 1
11 315 1
11 331 1
11 355 1
11 363 1
11 379 1
11 395 1
11 419 1
11 427 1
11 443 1
12 12 1
12 36 1
12 44 1
12 60 1
12 268 1
12 292 1
12 300 1
12 316 1
12 332 1
12 356 1
12 364 1
12 380 1
12 396 1
12 420 1
12 428 1
12 444 1
13 13 1
13 37 1
13 45 1
13 61 1
13 269 1
13 293 1
13 301 1
13 317 1
13 333 1
13 357 1
13 365 1
13 381 1
13 397 1
13 421 1
13 429 1
13 445 1
14 14 1
14 38 1
14 46 1
14 62 1
14 270 1
14 294 1
14 302 1
14 318 1
14 334 1
14 358 1
14 366 1
14 382 1
14 398 1
14 422 1
14 430 1
14 446 1
15 15 1
15 39 1
15 47 1
15 63 1
15 271 1
15 295 1
15 303 1
15 319 1
15 335 1
15 359 1
15 367 1
15 383 1
15 399 1
15 423 1
15 431 1
15 447 1
16 16 1
16 40 1
16 48 1
16 64 1
16 272 1
16 296 1
16 304 1
16 320 1
16 336 1
16 360 1
16 368 1
16 384 1
16 400 1
16 424 1
16 432 1
16 448 1
17 17 1
17 33 1
17 49 1
17 57 1
17 273 1
17 289 1
17 305 1
17 313 1
17 337 1
17 353 1
17 369 1
17 377 1
17 401 1
17 417 1
17 433 1
17 441 1
18 18 1
18 34 1
18 50 1
18 58 1
18 274 1
18 290 1
18 306 1
18 314 1
18 338 1
18 354 1
18 370 1
18 378 1
18 402 1
18 418 1
18 434 1
18 442 1
19 19 1
19 35 1
19 51 1
19 59 1
19 275 1
19 291 1
19 307 1
19 315 1
19 339 1
19 355 1
19 371 1
19 379 1
19 403 1
19 419 1
19 435 1
19 443 1
20 20 1
20 36 1
20 52 1
20 60 1
20 276 1
20 292 1
20 308 1
20 316 1
20 340 1
20 356 1
20 372 1
20 380 1
20 404 1
20 420 1
20 436 1
20 444 1
21 21 1
21 37 1
21 53 1
21 61 1
21 277 1
21 293 1
21 309 1
21 317 1
21 341 1
21 357 1
21 373 1
21 381 1
21 405 1
21 421 1
21 437 1
21 445 1
22 22 1
22 38 1
22 54 1
22 62 1
22 278 1
22 294 1
22 310 1
22 318 1
22 342 1
22 358 1
22 374 1
22 382 1
22 406 1
22 422 1
22 438 1
22 446 1
23 23 1
23 39 1
23 55 1
23 63 1
23 279 1
23 295 1
23 311 1
23 319 1
23 343 1
23 359 1
23 375 1
23 383 1
23 407 1
23 423 1
23 439 1
23 447 1
24 24 1
24 40 1
24 56 1
24 64 1
24 280 1
24 296 1
24 312 1
24 320 1
24 344 1
24 360 1
24 376 1
24 384 1
24 408 1
24 424 1
24 440 1
24 448 1
25 25 1
25 41 1
25 49 1
25 57 1
25 281 1
25 297 1
25 305 1
25 313 1
25 345 1
25 361 1
25 369 1
25 377 1
25 409 1
25 425 1
25 433 1
25 441 1
26 26 1
26 42 1
26 50 1
26 58 1
26 282 1
26 298 1
26 306 1
26 314 1
26 346 1
26 362 1
26 370 1
26 378 1
26 410 1
26 426 1
26 434 1
26 442 1
27 27 1
27 43 1
27 51 1
27 59 1
27 283 1
27 299 1
27 307 1
27 315 1
27 347 1
27 363 1
27 371 1
27 379 1
27 411 1
27 427 1
27 435 1
27 443 1
28 28 1
28 44 1
28 52 1
28 60 1
28 284 1
28 300 1
28 308 1
28 316 1
28 348 1
28 364 1
28 372 1
28 380 1
28 412 1
28 428 1
28 436 1
28 444 1
29 29 1
29 45 1
29 53 1
29 61 1
29 285 1
29 301 1
29 309 1
29 317 1
29 349 1
29 365 1
29 373 1
29 381 1
29 413 1
29 429 1
29 437 1
29 445 1
30 30 1
30 46 1
30 54 1
30 62 1
30 286 1
30 302 1
30 310 1
30 318 1
30 350 1
30 366 1
30 374 1
30 382 1
30 414 1
30 430 1
30 438 1
30 446 1
31 31 1
31 47 1
31 55 1
31 63 1
31 287 1
31 303 1
31 311 1
31 319 1
31 351 1
31 367 1
31 375 1
31 383 1
31 415 1
31 431 1
31 439 1
31 447 1
32 32 1
32 48 1
32 56 1
32 64 1
32 288 1
32 304 1
32 312 1
32 320 1
32 352 1
32 368 1
32 376 1
32 384 1
32 416 1
32 432 1
32 440 1
32 448 1
33 65 1
33 97 1
33 105 1
33 113 1
33 257 1
33 289 1
33 297 1
33 305 1
33 321 1
33 353 1
33 361 1
33 369 1
33 449 1
33 481 1
33 489 1
33 497 1
34 66 1
34 98 1
34 106 1
34 114 1
34 258 1
34 290 1
34 298 1
34 306 1
34 322 1
34 354 1
34 362 1
34 370 1
34 450 1
34 482 1
34 490 1
34 498 1
35 67 1
35 99 1
35 107 1
35 115 1
35 259 1
35 291 1
35 299 1
35 307 1
35 323 1
35 355 1
35 363 1
35 371 1
35 451 1
35 483 1
35 491 1
35 499 1
36 68 1
36 100 1
36 108 1
36 116 1
36 260 1
36 292 1
36 300 1
36 308 1
36 324 1
36 356 1
36 364 1
36 372 1
36 452 1
36 484 1
36 492 1
36 500 1
37 69 1
37 101 1
37 109 1
37 117 1
37 261 1
37 293 1
37 301 1
37 309 1
37 325 1
37 357 1
37 365 1
37 373 1
37 453 1
37 485 1
37 493 1
37 501 1
38 70 1
38 102 1
38 110 1
38 118 1
38 262 1
38 294 1
38 302 1
38 310 1
38 326 1
38 358 1
38 366 1
38 374 1
38 454 1
38 486 1
38 494 1
38 502 1
39 71 1
39 103 1
39 111 1
39 119 1
39 263 1
39 295 1
39 303 1
39 311 1
39 327 1
39 359 1
39 367 1
39 375 1
39 455 1
39 487 1
39 495 1
39 503 1
40 72 1
40 104 1
40 112 1
40 120 1
40 264 1
40 296 1
40 304 1
40 312 1
40 328 1
40 360 1
40 368 1
40 376 1
40 456 1
40 488 1
40 496 1
40 504 1
41 73 1
41 97 1
41 105 1
41 121 1
41 265 1
41 289 1
41 297 1
41 313 1
41 329 1
41 353 1
41 361 1
41 377 1
41 457 1
41 481 1
41 489 1
41 505 1
42 74 1
42 98 1
42 106 1
42 122 1
42 266 1
42 290 1
42 298 1
42 314 1
42 330 1
42 354 1
42 362 1
42 378 1
42 458 1
42 482 1
42 490 1
42 506 1
43 75 1
43 99 1
43 107 1
43 123 1
43 267 1
43 291 1
43 299 1
43 315 1
43 331 1
43 355 1
43 363 1
43 379 1
43 459 1
43 483 1
43 491 1
43 507 1
44 76 1
44 100 1
44 108 1
44 124 1
44 268 1
44 292 1
44 300 1
44 316 1
44 332 1
44 356 1
44 364 1
44 380 1
44 460 1
44 484 1
44 492 1
44 508 1
45 77 1
45 101 1
45 109 1
45 125 1
45 269 1
45 293 1
45 301 1
45 317 1
45 333 1
45 357 1
45 365 1
45 381 1
45 461 1
45 485 1
45 493 1
45 509 1
46 78 1
46 102 1
46 110 1
46 126 1
46 270 1
46 294 1
46 302 1
46 318 1
46 334 1
46 358 1
46 366 1
46 382 1
46 462 1
46 486 1
46 494 1
46 510 1
47 79 1
47 103 1
47 111 1
47 127 1
47 271 1
47 295 1
47 303 1
47 319 1
47 335 1
47 359 1
47 367 1
47 383 1
47 463 1
47 487 1
47 495 1
47 511 1
48 80 1
48 104 1
48 112 1
48 128 1
48 272 1
48 296 1
48 304 1
48 320 1
48 336 1
48 360 1
48 368 1
48 384 1
48 464 1
48 488 1
48 496 1
48 512 1
49 81 1
49 97 1
49 113 1
49 121 1
49 273 1
49 289 1
49 305 1
49 313 1
49 337 1
49 353 1
49 369 1
49 377 1
49 465 1
49 481 1
49 497 1
49 505 1
50 82 1
50 98 1
50 114 1
50 122 1
50 274 1
50 290 1
50 306 1
50 314 1
50 338 1
50 354 1
50 370 1
50 378 1
50 466 1
50 482 1
50 498 1
50 506 1
51 83 1
51 99 1
51 115 1
51 123 1
51 275 1
51 291 1
51 307 1
51 315 1
51 339 1
51 355 1
51 371 1
51 379 1
51 467 1
51 483 1
51 499 1
51 507 1
52 84 1
52 100 1
52 116 1
52 124 1
52 276 1
52 292 1
52 308 1
52 316 1
52 340 1
52 356 1
52 372 1
52 380 1
52 468 1
52 484 1
52 500 1
52 508 1
53 85 1
53 101 1
53 117 1
53 125 1
53 277 1
53 293 1
53 309 1
53 317 1
53 341 1
53 357 1
53 373 1
53 381 1
53 469 1
53 485 1
53 501 1
53 509 1
54 86 1
54 102 1
54 118 1
54 126 1
54 278 1
54 294 1
54 310 1
54 318 1
54 342 1
54 358 1
54 374 1
54 382 1
54 470 1
54 486 1
54 502 1
54 510 1
55 87 1
55 103 1
55 119 1
55 127 1
55 279 1
55 295 1
55 311 1
55 319 1
55 343 1
55 359 1
55 375 1
55 383 1
55 471 1
55 487 1
55 503 1
55 511 1
56 88 1
56 104 1
56 120 1
56 128 1
56 280 1
56 296 1
56 312 1
56 320 1
56 344 1
56 360 1
56 376 1
56 384 1
56 472 1
56 488 1
56 504 1
56 512 1
57 89 1
57 105 1
57 113 1
57 121 1
57 281 1
57 297 1
57 305 1
57 313 1
57 345 1
57 361 1
57 369 1
57 377 1
57 473 1
57 489 1
57 497 1
57 505 1
58 90 1
58 106 1
58 114 1
58 122 1
58 282 1
58 298 1
58 306 1
58 314 1
58 346 1
58 362 1
58 370 1
58 378 1
58 474 1
58 490 1
58 498 1
58 506 1
59 91 1
59 107 1
59 115 1
59 123 1
59 283 1
59 299 1
59 307 1
59 315 1
59 347 1
59 363 1
59 371 1
59 379 1
59 475 1
59 491 1
59 499 1
59 507 1
60 92 1
60 108 1
60 116 1
60 124 1
60 284 1
60 300 1
60 308 1
60 316 1
60 348 1
60 364 1
60 372 1
60 380 1
60 476 1
60 492 1
60 500 1
60 508 1
61 93 1
61 109 1
61 117 1
61 125 1
61 285 1
61 301 1
61 309 1
61 317 1
61 349 1
61 365 1
61 373 1
61 381 1
61 477 1
61 493 1
61 501 1
61 509 1
62 94 1
62 110 1
62 118 1
62 126 1
62 286 1
62 302 1
62 310 1
62 318 1
62 350 1
62 366 1
62 374 1
62 382 1
62 478 1
62 494 1
62 502 1
62 510 1
63 95 1
63 111 1
63 119 1
63 127 1
63 287 1
63 303 1
63 311 1
63 319 1
63 351 1
63 367 1
63 375 1
63 383 1
63 479 1
63 495 1
63 503 1
63 511 1
64 96 1
64 112 1
64 120 1
64 128 1
64 288 1
64 304 1
64 312 1
64 320 1
64 352 1
64 368 1
64 376 1
64 384 1
64 480 1
64 496 1
64 504 1
64 512 1
65 129 1
65 161 1
65 169 1
65 177 1
65 257 1
65 289 1
65 297 1
65 305 1
65 385 1
65 417 1
65 425 1
65 433 1
65 449 1
65 481 1
65 489 1
65 497 1
66 130 1
66 162 1
66 170 1
66 178 1
66 258 1
66 290 1
66 298 1
66 306 1
66 386 1
66 418 1
66 426 1
66 434 1
66 450 1
66 482 1
66 490 1
66 498 1
67 131 1
67 163 1
67 171 1
67 179 1
67 259 1
67 291 1
67 299 1
67 307 1
67 387 1
67 419 1
67 427 1
67 435 1
67 451 1
67 483 1
67 491 1
67 499 1
68 132 1
68 164 1
68 172 1
68 180 1
68 260 1
68 292 1
68 300 1
68 308 1
68 388 1
68 420 1
68 428 1
68 436 1
68 452 1
68 484 1
68 492 1
68 500 1
69 133 1
69 165 1
69 173 1
69 181 1
69 261 1
69 293 1
69 301 1
69 309 1
69 389 1
69 421 1
69 429 1
69 437 1
69 453 1
69 485 1
69 493 1
69 501 1
70 134 1
70 166 1
70 174 1
70 182 1
70 262 1
70 294 1
70 302 1
70 310 1
70 390 1
70 422 1
70 430 1
70 438 1
70 454 1
70 486 1
70 494 1
70 502 1
71 135 1
71 167 1
71 175 1
71 183 1
71 263 1
71 295 1
71 303 1
71 311 1
71 391 1
71 423 1
71 431 1
71 439 1
71 455 1
71 487 1
71 495 1
71 503 1
72 136 1
72 168 1
72 176 1
72 184 1
72 264 1
72 296 1
72 304 1
72 312 1
72 392 1
72 424 1
72 432 1
72 440 1
72 456 1
72 488 1
72 496 1
72 504 1
73 137 1
73 161 1
73 169 1
73 185 1
73 265 1
73 289 1
73 297 1
73 313 1
73 393 1
73 417 1
73 425 1
73 441 1
73 457 1
73 481 1
73 489 1
73 505 1
74 138 1
74 162 1
74 170 1
74 186 1
74 266 1
74 290 1
74 298 1
74 314 1
74 394 1
74 418 1
74 426 1
74 442 1
74 458 1
74 482 1
74 490 1
74 506 1
75 139 1
75 163 1
75 171 1
75 187 1
75 267 1
75 291 1
75 299 1
75 315 1
75 395 1
75 419 1
75 427 1
75 443 1
75 459 1
75 483 1
75 491 1
75 507 1
76 140 1
76 164 1
76 172 1
76 188 1
76 268 1
76 292 1
76 300 1
76 316 1
76 396 1
76 420 1
76 428 1
76 444 1
76 460 1
76 484 1
76 492 1
76 508 1
77 141 1
77 165 1
77 173 1
77 189 1
77 269 1
77 293 1
77 301 1
77 317 1
77 397 1
77 421 1
77 429 1
77 445 1
77 461 1
77 485 1
77 493 1
77 509 1
78 142 1
78 166 1
78 174 1
78 190 1
78 270 1
78 294 1
78 302 1
78 318 1
78 398 1
78 422 1
78 430 1
78 446 1
78 462 1
78 486 1
78 494 1
78 510 1
79 143 1
79 167 1
79 175 1
79 191 1
79 271 1
79 295 1
79 303 1
79 319 1
79 399 1
79 423 1
79 431 1
79 447 1
79 463 1
79 487 1
79 495 1
79 511 1
80 144 1
80 168 1
80 176 1
80 192 1
80 272 1
80 296 1
80 304 1
80 320 1
80 400 1
80 424 1
80 432 1
80 448 1
80 464 1
80 488 1
80 496 1
80 512 1
81 145 1
81 161 1
81 177 1
81 185 1
81 273 1
81 289 1
81 305 1
81 313 1
81 401 1
81 417 1
81 433 1
81 441 1
81 465 1
81 481 1
81 497 1
81 505 1
82 146 1
82 162 1
82 178 1
82 186 1
82 274 1
82 290 1
82 306 1
82 314 1
82 402 1
82 418 1
82 434 1
82 442 1
82 466 1
82 482 1
82 498 1
82 506 1
83 147 1
83 163 1
83 179 1
83 187 1
83 275 1
83 291 1
83 307 1
83 315 1
83 403 1
83 419 1
83 435 1
83 443 1
83 467 1
83 483 1
83 499 1
83 507 1
84 148 1
84 164 1
84 180 1
84 188 1
84 276 1
84 292 1
84 308 1
84 316 1
84 404 1
84 420 1
84 436 1
84 444 1
84 468 1
84 484 1
84 500 1
84 508 1
85 149 1
85 165 1
85 181 1
85 189 1
85 277 1
85 293 1
85 309 1
85 317 1
85 405 1
85 421 1
85 437 1
85 445 1
85 469 1
85 485 1
85 501 1
85 509 1
86 150 1
86 166 1
86 182 1
86 190 1
86 278 1
86 294 1
86 310 1
86 318 1
86 406 1
86 422 1
86 438 1
86 446 1
86 470 1
86 486 1
86 502 1
86 510 1
87 151 1
87 167 1
87 183 1
87 191 1
87 279 1
87 295 1
87 311 1
87 319 1
87 407 1
87 423 1
87 439 1
87 447 1
87 471 1
87 487 1
87 503 1
87 511 1
88 152 1
88 168 1
88 184 1
88 192 1
88 280 1
88 296 1
88 312 1
88 320 1
88 408 1
88 424 1
88 440 1
88 448 1
88 472 1
88 488 1
88 504 1
88 512 1
89 153 1
89 169 1
89 177 1
89 185 1
89 281 1
89 297 1
89 305 1
89 313 1
89 409 1
89 425 1
89 433 1
89 441 1
89 473 1
89 489 1
89 497 1
89 505 1
90 154 1
90 170 1
90 178 1
90 186 1
90 282 1
90 298 1
90 306 1
90 314 1
90 410 1
90 426 1
90 434 1
90 442 1
90 474 1
90 490 1
90 498 1
90 506 1
91 155 1
91 171 1
91 179 1
91 187 1
91 283 1
91 299 1
91 307 1
91 315 1
91 411 1
91 427 1
91 435 1
91 443 1
91 475 1
91 491 1
91 499 1
91 507 1
92 156 1
92 172 1
92 180 1
92 188 1
92 284 1
92 300 1
92 308 1
92 316 1
92 412 1
92 428 1
92 436 1
92 444 1
92 476 1
92 492 1
92 500 1
92 508 1
93 157 1
93 173 1
93 181 1
93 189 1
93 285 1
93 301 1
93 309 1
93 317 1
93 413 1
93 429 1
93 437 1
93 445 1
93 477 1
93 493 1
93 501 1
93 509 1
94 158 1
94 174 1
94 182 1
94 190 1
94 286 1
94 302 1
94 310 1
94 318 1
94 414 1
94 430 1
94 438 1
94 446 1
94 478 1
94 494 1
94 502 1
94 510 1
95 159 1
95 175 1
95 183 1
95 191 1
95 287 1
95 303 1
95 311 1
95 319 1
95 415 1
95 431 1
95 439 1
95 447 1
95 479 1
95 495 1
95 503 1
95 511 1
96 160 1
96 176 1
96 184 1
96 192 1
96 288 1
96 304 1
96 312 1
96 320 1
96 416 1
96 432 1
96 440 1
96 448 1
96 480 1
96 496 1
96 504 1
96 512 1
97 193 1
97 225 1
97 233 1
97 241 1
97 321 1
97 353 1
97 361 1
97 369 1
97 385 1
97 417 1
97 425 1
97 433 1
97 449 1
97 481 1
97 489 1
97 497 1
98 194 1
98 226 1
98 234 1
98 242 1
98 322 1
98 354 1
98 362 1
98 370 1
98 386 1
98 418 1
98 426 1
98 434 1
98 450 1
98 482 1
98 490 1
98 498 1
99 195 1
99 227 1
99 235 1
99 243 1
99 323 1
99 355 1
99 363 1
99 371 1
99 387 1
99 419 1
99 427 1
99 435 1
99 451 1
99 483 1
99 491 1
99 499 1
100 196 1
100 228 1
100 236 1
100 244 1
100 324 1
100 356 1
100 364 1
100 372 1
100 388 1
100 420 1
100 428 1
100 436 1
100 452 1
100 484 1
100 492 1
100 500 1
101 197 1
101 229 1
101 237 1
101 245 1
101 325 1
101 357 1
101 365 1
101 373 1
101 389 1
101 421 1
101 429 1
101 437 1
101 453 1
101 485 1
101 493 1
101 501 1
102 198 1
102 230 1
102 238 1
102 246 1
102 326 1
102 358 1
102 366 1
102 374 1
102 390 1
102 422 1
102 430 1
102 438 1
102 454 1
102 486 1
102 494 1
102 502 1
103 199 1
103 231 1
103 239 1
103 247 1
103 327 1
103 359 1
103 367 1
103 375 1
103 391 1
103 423 1
103 431 1
103 439 1
103 455 1
103 487 1
103 495 1
103 503 1
104 200 1
104 232 1
104 240 1
104 248 1
104 328 1
104 360 1
104 368 1
104 376 1
104 392 1
104 424 1
104 432 1
104 440 1
104 456 1
104 488 1
104 496 1
104 504 1
105 201 1
105 225 1
105 233 1
105 249 1
105 329 1
105 353 1
105 361 1
105 377 1
105 393 1
105 417 1
105 425 1
105 441 1
105 457 1
105 481 1
105 489 1
105 505 1
106 202 1
106 226 1
106 234 1
106 250 1
106 330 1
106 354 1
106 362 1
106 378 1
106 394 1
106 418 1
106 426 1
106 442 1
106 458 1
106 482 1
106 490 1
106 506 1
107 203 1
107 227 1
107 235 1
107 251 1
107 331 1
107 355 1
107 363 1
107 379 1
107 395 1
107 419 1
107 427 1
107 443 1
107 459 1
107 483 1
107 491 1
107 507 1
108 204 1
108 228 1
108 236 1
108 252 1
108 332 1
108 356 1
108 364 1
108 380 1
108 396 1
108 420 1
108 428 1
108 444 1
108 460 1
108 484 1
108 492 1
108 508 1
109 205 1
109 229 1
109 237 1
109 253 1
109 333 1
109 357 1
109 365 1
109 381 1
109 397 1
109 421 1
109 429 1
109 445 1
109 461 1
109 485 1
109 493 1
109 509 1
110 206 1
110 230 1
110 238 1
110 254 1
110 334 1
110 358 1
110 366 1
110 382 1
110 398 1
110 422 1
110 430 1
110 446 1
110 462 1
110 486 1
110 494 1
110 510 1
111 207 1
111 231 1
111 239 1
111 255 1
111 335 1
111 359 1
111 367 1
111 383 1
111 399 1
111 423 1
111 431 1
111 447 1
111 463 1
111 487 1
111 495 1
111 511 1
112 208 1
112 232 1
112 240 1
112 256 1
112 336 1
112 360 1
112 368 1
112 384 1
112 400 1
112 424 1
112 432 1
112 448 1
112 464 1
112 488 1
112 496 1
112 512 1
113 209 1
113 225 1
113 241 1
113 249 1
113 337 1
113 353 1
113 369 1
113 377 1
113 401 1
113 417 1
113 433 1
113 441 1
113 465 1
113 481 1
113 497 1
113 505 1
114 210 1
114 226 1
114 242 1
114 250 1
114 338 1
114 354 1
114 370 1
114 378 1
114 402 1
114 418 1
114 434 1
114 442 1
114 466 1
114 482 1
114 498 1
114 506 1
115 211 1
115 227 1
115 243 1
115 251 1
115 339 1
115 355 1
115 371 1
115 379 1
115 403 1
115 419 1
115 435 1
115 443 1
115 467 1
115 483 1
115 499 1
115 507 1
116 212 1
116 228 1
116 244 1
116 252 1
116 340 1
116 356 1
116 372 1
116 380 1
116 404 1
116 420 1
116 436 1
116 444 1
116 468 1
116 484 1
116 500 1
116 508 1
117 213 1
117 229 1
117 245 1
117 253 1
117 341 1
117 357 1
117 373 1
117 381 1
117 405 1
117 421 1
117 437 1
117 445 1
117 469 1
117 485 1
117 501 1
117 509 1
118 214 1
118 230 1
118 246 1
118 254 1
118 342 1
118 358 1
118 374 1
118 382 1
118 406 1
118 422 1
118 438 1
118 446 1
118 470 1
118 486 1
118 502 1
118 510 1
119 215 1
119 231 1
119 247 1
119 255 1
119 343 1
119 359 1
119 375 1
119 383 1
119 407 1
119 423 1
119 439 1
119 447 1
119 471 1
119 487 1
119 503 1
119 511 1
120 216 1
120 232 1
120 248 1
120 256 1
120 344 1
120 360 1
120 376 1
120 384 1
120 408 1
120 424 1
120 440 1
120 448 1
120 472 1
120 488 1
120 504 1
120 512 1
121 217 1
121 233 1
121 241 1
121 249 1
121 345 1
121 361 1
121 369 1
121 377 1
121 409 1
121 425 1
121 433 1
121 441 1
121 473 1
121 489 1
121 497 1
121 505 1
122 218 1
122 234 1
122 242 1
122 250 1
122 346 1
122 362 1
122 370 1
122 378 1
122 410 1
122 426 1
122 434 1
122 442 1
122 474 1
122 490 1
122 498 1
122 506 1
123 219 1
123 235 1
123 243 1
123 251 1
123 347 1
123 363 1
123 371 1
123 379 1
123 411 1
123 427 1
123 435 1
123 443 1
123 475 1
123 491 1
123 499 1
123 507 1
124 220 1
124 236 1
124 244 1
124 252 1
124 348 1
124 364 1
124 372 1
124 380 1
124 412 1
124 428 1
124 436 1
124 444 1
124 476 1
124 492 1
124 500 1
124 508 1
125 221 1
125 237 1
125 245 1
125 253 1
125 349 1
125 365 1
125 373 1
125 381 1
125 413 1
125 429 1
125 437 1
125 445 1
125 477 1
125 493 1
125 501 1
125 509 1
126 222 1
126 238 1
126 246 1
126 254 1
126 350 1
126 366 1
126 374 1
126 382 1
126 414 1
126 430 1
126 438 1
126 446 1
126 478 1
126 494 1
126 502 1
126 510 1
127 223 1
127 239 1
127 247 1
127 255 1
127 351 1
127 367 1
127 375 1
127 383 1
127 415 1
127 431 1
127 439 1
127 447 1
127 479 1
127 495 1
127 503 1
127 511 1
128 224 1
128 240 1
128 248 1
128 256 1
128 352 1
128 368 1
128 376 1
128 384 1
128 416 1
128 432 1
128 440 1
128 448 1
128 480 1
128 496 1
128 504 1
128 512 1
129 1 1
129 27 1
129 44 1
129 54 1
129 194 1
129 221 1
129 238 1
129 244 1
129 325 1
129 346 1
129 368 1
129 371 1
129 391 1
129 412 1
129 427 1
129 440 1
130 2 1
130 29 1
130 46 1
130 52 1
130 193 1
130 219 1
130 236 1
130 246 1
130 327 1
130 348 1
130 363 1
130 376 1
130 389 1
130 410 1
130 432 1
130 435 1
131 3 1
131 25 1
131 47 1
131 53 1
131 197 1
131 218 1
131 240 1
131 243 1
131 322 1
131 349 1
131 366 1
131 372 1
131 388 1
131 415 1
131 425 1
131 434 1
132 4 1
132 31 1
132 41 1
132 50 1
132 198 1
132 224 1
132 234 1
132 241 1
132 328 1
132 350 1
132 365 1
132 375 1
132 387 1
132 409 1
132 431 1
132 437 1
133 5 1
133 26 1
133 48 1
133 51 1
133 195 1
133 217 1
133 239 1
133 245 1
133 324 1
133 351 1
133 361 1
133 370 1
133 386 1
133 413 1
133 430 1
133 436 1
134 6 1
134 32 1
134 42 1
134 49 1
134 196 1
134 223 1
134 233 1
134 242 1
134 323 1
134 345 1
134 367 1
134 373 1
134 392 1
134 414 1
134 429 1
134 439 1
135 7 1
135 28 1
135 43 1
135 56 1
135 200 1
135 222 1
135 237 1
135 247 1
135 326 1
135 352 1
135 362 1
135 369 1
135 385 1
135 411 1
135 428 1
135 438 1
136 8 1
136 30 1
136 45 1
136 55 1
136 199 1
136 220 1
136 235 1
136 248 1
136 321 1
136 347 1
136 364 1
136 374 1
136 390 1
136 416 1
136 426 1
136 433 1
137 9 1
137 27 1
137 44 1
137 61 1
137 202 1
137 221 1
137 238 1
137 251 1
137 333 1
137 346 1
137 368 1
137 380 1
137 399 1
137 412 1
137 427 1
137 442 1
138 10 1
138 29 1
138 46 1
138 59 1
138 201 1
138 219 1
138 236 1
138 253 1
138 335 1
138 348 1
138 363 1
138 378 1
138 397 1
138 410 1
138 432 1
138 444 1
139 11 1
139 25 1
139 47 1
139 62 1
139 205 1
139 218 1
139 240 1
139 252 1
139 330 1
139 349 1
139 366 1
139 379 1
139 396 1
139 415 1
139 425 1
139 448 1
140 12 1
140 31 1
140 41 1
140 64 1
140 206 1
140 224 1
140 234 1
140 255 1
140 336 1
140 350 1
140 365 1
140 377 1
140 395 1
140 409 1
140 431 1
140 446 1
141 13 1
141 26 1
141 48 1
141 60 1
141 203 1
141 217 1
141 239 1
141 254 1
141 332 1
141 351 1
141 361 1
141 384 1
141 394 1
141 413 1
141 430 1
141 443 1
142 14 1
142 32 1
142 42 1
142 63 1
142 204 1
142 223 1
142 233 1
142 256 1
142 331 1
142 345 1
142 367 1
142 382 1
142 400 1
142 414 1
142 429 1
142 441 1
143 15 1
143 28 1
143 43 1
143 58 1
143 208 1
143 222 1
143 237 1
143 249 1
143 334 1
143 352 1
143 362 1
143 383 1
143 393 1
143 411 1
143 428 1
143 445 1
144 16 1
144 30 1
144 45 1
144 57 1
144 207 1
144 220 1
144 235 1
144 250 1
144 329 1
144 347 1
144 364 1
144 381 1
144 398 1
144 416 1
144 426 1
144 447 1
145 18 1
145 27 1
145 54 1
145 61 1
145 209 1
145 221 1
145 244 1
145 251 1
145 343 1
145 346 1
145 371 1
145 380 1
145 405 1
145 412 1
145 440 1
145 442 1
146 17 1
146 29 1
146 52 1
146 59 1
146 210 1
146 219 1
146 246 1
146 253 1
146 341 1
146 348 1
146 376 1
146 378 1
146 407 1
146 410 1
146 435 1
146 444 1
147 24 1
147 25 1
147 53 1
147 62 1
147 215 1
147 218 1
147 243 1
147 252 1
147 337 1
147 349 1
147 372 1
147 379 1
147 406 1
147 415 1
147 434 1
147 448 1
148 22 1
148 31 1
148 50 1
148 64 1
148 212 1
148 224 1
148 241 1
148 255 1
148 339 1
148 350 1
148 375 1
148 377 1
148 408 1
148 409 1
148 437 1
148 446 1
149 23 1
149 26 1
149 51 1
149 60 1
149 216 1
149 217 1
149 245 1
149 254 1
149 342 1
149 351 1
149 370 1
149 384 1
149 401 1
149 413 1
149 436 1
149 443 1
150 20 1
150 32 1
150 49 1
150 63 1
150 214 1
150 223 1
150 242 1
150 256 1
150 344 1
150 345 1
150 373 1
150 382 1
150 403 1
150 414 1
150 439 1
150 441 1
151 21 1
151 28 1
151 56 1
151 58 1
151 211 1
151 222 1
151 247 1
151 249 1
151 340 1
151 352 1
151 369 1
151 383 1
151 402 1
151 411 1
151 438 1
151 445 1
152 19 1
152 30 1
152 55 1
152 57 1
152 213 1
152 220 1
152 248 1
152 250 1
152 338 1
152 347 1
152 374 1
152 381 1
152 404 1
152 416 1
152 433 1
152 447 1
153 35 1
153 44 1
153 54 1
153 61 1
153 229 1
153 238 1
153 244 1
153 251 1
153 354 1
153 368 1
153 371 1
153 380 1
153 420 1
153 427 1
153 440 1
153 442 1
154 37 1
154 46 1
154 52 1
154 59 1
154 227 1
154 236 1
154 246 1
154 253 1
154 356 1
154 363 1
154 376 1
154 378 1
154 418 1
154 432 1
154 435 1
154 444 1
155 33 1
155 47 1
155 53 1
155 62 1
155 226 1
155 240 1
155 243 1
155 252 1
155 357 1
155 366 1
155 372 1
155 379 1
155 423 1
155 425 1
155 434 1
155 448 1
156 39 1
156 41 1
156 50 1
156 64 1
156 232 1
156 234 1
156 241 1
156 255 1
156 358 1
156 365 1
156 375 1
156 377 1
156 417 1
156 431 1
156 437 1
156 446 1
157 34 1
157 48 1
157 51 1
157 60 1
157 225 1
157 239 1
157 245 1
157 254 1
157 359 1
157 361 1
157 370 1
157 384 1
157 421 1
157 430 1
157 436 1
157 443 1
158 40 1
158 42 1
158 49 1
158 63 1
158 231 1
158 233 1
158 242 1
158 256 1
158 353 1
158 367 1
158 373 1
158 382 1
158 422 1
158 429 1
158 439 1
158 441 1
159 36 1
159 43 1
159 56 1
159 58 1
159 230 1
159 237 1
159 247 1
159 249 1
159 360 1
159 362 1
159 369 1
159 383 1
159 419 1
159 428 1
159 438 1
159 445 1
160 38 1
160 45 1
160 55 1
160 57 1
160 228 1
160 235 1
160 248 1
160 250 1
160 355 1
160 364 1
160 374 1
160 381 1
160 424 1
160 426 1
160 433 1
160 447 1
161 65 1
161 91 1
161 108 1
161 118 1
161 194 1
161 221 1
161 238 1
161 244 1
161 325 1
161 346 1
161 368 1
161 371 1
161 456 1
161 478 1
161 493 1
161 503 1
162 66 1
162 93 1
162 110 1
162 116 1
162 193 1
162 219 1
162 236 1
162 246 1
162 327 1
162 348 1
162 363 1
162 376 1
162 451 1
162 473 1
162 495 1
162 501 1
163 67 1
163 89 1
163 111 1
163 117 1
163 197 1
163 218 1
163 240 1
163 243 1
163 322 1
163 349 1
163 366 1
163 372 1
163 454 1
163 480 1
163 490 1
163 497 1
164 68 1
164 95 1
164 105 1
164 114 1
164 198 1
164 224 1
164 234 1
164 241 1
164 328 1
164 350 1
164 365 1
164 375 1
164 453 1
164 474 1
164 496 1
164 499 1
165 69 1
165 90 1
165 112 1
165 115 1
165 195 1
165 217 1
165 239 1
165 245 1
165 324 1
165 351 1
165 361 1
165 370 1
165 449 1
165 475 1
165 492 1
165 502 1
166 70 1
166 96 1
166 106 1
166 113 1
166 196 1
166 223 1
166 233 1
166 242 1
166 323 1
166 345 1
166 367 1
166 373 1
166 455 1
166 476 1
166 491 1
166 504 1
167 71 1
167 92 1
167 107 1
167 120 1
167 200 1
167 222 1
167 237 1
167 247 1
167 326 1
167 352 1
167 362 1
167 369 1
167 450 1
167 477 1
167 494 1
167 500 1
168 72 1
168 94 1
168 109 1
168 119 1
168 199 1
168 220 1
168 235 1
168 248 1
168 321 1
168 347 1
168 364 1
168 374 1
168 452 1
168 479 1
168 489 1
168 498 1
169 73 1
169 91 1
169 108 1
169 125 1
169 202 1
169 221 1
169 238 1
169 251 1
169 333 1
169 346 1
169 368 1
169 380 1
169 464 1
169 478 1
169 493 1
169 505 1
170 74 1
170 93 1
170 110 1
170 123 1
170 201 1
170 219 1
170 236 1
170 253 1
170 335 1
170 348 1
170 363 1
170 378 1
170 459 1
170 473 1
170 495 1
170 510 1
171 75 1
171 89 1
171 111 1
171 126 1
171 205 1
171 218 1
171 240 1
171 252 1
171 330 1
171 349 1
171 366 1
171 379 1
171 462 1
171 480 1
171 490 1
171 511 1
172 76 1
172 95 1
172 105 1
172 128 1
172 206 1
172 224 1
172 234 1
172 255 1
172 336 1
172 350 1
172 365 1
172 377 1
172 461 1
172 474 1
172 496 1
172 508 1
173 77 1
173 90 1
173 112 1
173 124 1
173 203 1
173 217 1
173 239 1
173 254 1
173 332 1
173 351 1
173 361 1
173 384 1
173 457 1
173 475 1
173 492 1
173 509 1
174 78 1
174 96 1
174 106 1
174 127 1
174 204 1
174 223 1
174 233 1
174 256 1
174 331 1
174 345 1
174 367 1
174 382 1
174 463 1
174 476 1
174 491 1
174 506 1
175 79 1
175 92 1
175 107 1
175 122 1
175 208 1
175 222 1
175 237 1
175 249 1
175 334 1
175 352 1
175 362 1
175 383 1
175 458 1
175 477 1
175 494 1
175 507 1
176 80 1
176 94 1
176 109 1
176 121 1
176 207 1
176 220 1
176 235 1
176 250 1
176 329 1
176 347 1
176 364 1
176 381 1
176 460 1
176 479 1
176 489 1
176 512 1
177 82 1
177 91 1
177 118 1
177 125 1
177 209 1
177 221 1
177 244 1
177 251 1
177 343 1
177 346 1
177 371 1
177 380 1
177 467 1
177 478 1
177 503 1
177 505 1
178 81 1
178 93 1
178 116 1
178 123 1
178 210 1
178 219 1
178 246 1
178 253 1
178 341 1
178 348 1
178 376 1
178 378 1
178 472 1
178 473 1
178 501 1
178 510 1
179 88 1
179 89 1
179 117 1
179 126 1
179 215 1
179 218 1
179 243 1
179 252 1
179 337 1
179 349 1
179 372 1
179 379 1
179 468 1
179 480 1
179 497 1
179 511 1
180 86 1
180 95 1
180 114 1
180 128 1
180 212 1
180 224 1
180 241 1
180 255 1
180 339 1
180 350 1
180 375 1
180 377 1
180 471 1
180 474 1
180 499 1
180 508 1
181 87 1
181 90 1
181 115 1
181 124 1
181 216 1
181 217 1
181 245 1
181 254 1
181 342 1
181 351 1
181 370 1
181 384 1
181 466 1
181 475 1
181 502 1
181 509 1
182 84 1
182 96 1
182 113 1
182 127 1
182 214 1
182 223 1
182 242 1
182 256 1
182 344 1
182 345 1
182 373 1
182 382 1
182 469 1
182 476 1
182 504 1
182 506 1
183 85 1
183 92 1
183 120 1
183 122 1
183 211 1
183 222 1
183 247 1
183 249 1
183 340 1
183 352 1
183 369 1
183 383 1
183 465 1
183 477 1
183 500 1
183 507 1
184 83 1
184 94 1
184 119 1
184 121 1
184 213 1
184 220 1
184 248 1
184 250 1
184 338 1
184 347 1
184 374 1
184 381 1
184 470 1
184 479 1
184 498 1
184 512 1
185 99 1
185 108 1
185 118 1
185 125 1
185 229 1
185 238 1
185 244 1
185 251 1
185 354 1
185 368 1
185 371 1
185 380 1
185 486 1
185 493 1
185 503 1
185 505 1
186 101 1
186 110 1
186 116 1
186 123 1
186 227 1
186 236 1
186 246 1
186 253 1
186 356 1
186 363 1
186 376 1
186 378 1
186 481 1
186 495 1
186 501 1
186 510 1
187 97 1
187 111 1
187 117 1
187 126 1
187 226 1
187 240 1
187 243 1
187 252 1
187 357 1
187 366 1
187 372 1
187 379 1
187 488 1
187 490 1
187 497 1
187 511 1
188 103 1
188 105 1
188 114 1
188 128 1
188 232 1
188 234 1
188 241 1
188 255 1
188 358 1
188 365 1
188 375 1
188 377 1
188 482 1
188 496 1
188 499 1
188 508 1
189 98 1
189 112 1
189 115 1
189 124 1
189 225 1
189 239 1
189 245 1
189 254 1
189 359 1
189 361 1
189 370 1
189 384 1
189 483 1
189 492 1
189 502 1
189 509 1
190 104 1
190 106 1
190 113 1
190 127 1
190 231 1
190 233 1
190 242 1
190 256 1
190 353 1
190 367 1
190 373 1
190 382 1
190 484 1
190 491 1
190 504 1
190 506 1
191 100 1
191 107 1
191 120 1
191 122 1
191 230 1
191 237 1
191 247 1
191 249 1
191 360 1
191 362 1
191 369 1
191 383 1
191 485 1
191 494 1
191 500 1
191 507 1
192 102 1
192 109 1
192 119 1
192 121 1
192 228 1
192 235 1
192 248 1
192 250 1
192 355 1
192 364 1
192 374 1
192 381 1
192 487 1
192 489 1
192 498 1
192 512 1
193 130 1
193 157 1
193 174 1
193 180 1
193 194 1
193 221 1
193 238 1
193 244 1
193 391 1
193 412 1
193 427 1
193 440 1
193 456 1
193 478 1
193 493 1
193 503 1
194 129 1
194 155 1
194 172 1
194 182 1
194 193 1
194 219 1
194 236 1
194 246 1
194 389 1
194 410 1
194 432 1
194 435 1
194 451 1
194 473 1
194 495 1
194 501 1
195 133 1
195 154 1
195 176 1
195 179 1
195 197 1
195 218 1
195 240 1
195 243 1
195 388 1
195 415 1
195 425 1
195 434 1
195 454 1
195 480 1
195 490 1
195 497 1
196 134 1
196 160 1
196 170 1
196 177 1
196 198 1
196 224 1
196 234 1
196 241 1
196 387 1
196 409 1
196 431 1
196 437 1
196 453 1
196 474 1
196 496 1
196 499 1
197 131 1
197 153 1
197 175 1
197 181 1
197 195 1
197 217 1
197 239 1
197 245 1
197 386 1
197 413 1
197 430 1
197 436 1
197 449 1
197 475 1
197 492 1
197 502 1
198 132 1
198 159 1
198 169 1
198 178 1
198 196 1
198 223 1
198 233 1
198 242 1
198 392 1
198 414 1
198 429 1
198 439 1
198 455 1
198 476 1
198 491 1
198 504 1
199 136 1
199 158 1
199 173 1
199 183 1
199 200 1
199 222 1
199 237 1
199 247 1
199 385 1
199 411 1
199 428 1
199 438 1
199 450 1
199 477 1
199 494 1
199 500 1
200 135 1
200 156 1
200 171 1
200 184 1
200 199 1
200 220 1
200 235 1
200 248 1
200 390 1
200 416 1
200 426 1
200 433 1
200 452 1
200 479 1
200 489 1
200 498 1
201 138 1
201 157 1
201 174 1
201 187 1
201 202 1
201 221 1
201 238 1
201 251 1
201 399 1
201 412 1
201 427 1
201 442 1
201 464 1
201 478 1
201 493 1
201 505 1
202 137 1
202 155 1
202 172 1
202 189 1
202 201 1
202 219 1
202 236 1
202 253 1
202 397 1
202 410 1
202 432 1
202 444 1
202 459 1
202 473 1
202 495 1
202 510 1
203 141 1
203 154 1
203 176 1
203 188 1
203 205 1
203 218 1
203 240 1
203 252 1
203 396 1
203 415 1
203 425 1
203 448 1
203 462 1
203 480 1
203 490 1
203 511 1
204 142 1
204 160 1
204 170 1
204 191 1
204 206 1
204 224 1
204 234 1
204 255 1
204 395 1
204 409 1
204 431 1
204 446 1
204 461 1
204 474 1
204 496 1
204 508 1
205 139 1
205 153 1
205 175 1
205 190 1
205 203 1
205 217 1
205 239 1
205 254 1
205 394 1
205 413 1
205 430 1
205 443 1
205 457 1
205 475 1
205 492 1
205 509 1
206 140 1
206 159 1
206 169 1
206 192 1
206 204 1
206 223 1
206 233 1
206 256 1
206 400 1
206 414 1
206 429 1
206 441 1
206 463 1
206 476 1
206 491 1
206 506 1
207 144 1
207 158 1
207 173 1
207 185 1
207 208 1
207 222 1
207 237 1
207 249 1
207 393 1
207 411 1
207 428 1
207 445 1
207 458 1
207 477 1
207 494 1
207 507 1
208 143 1
208 156 1
208 171 1
208 186 1
208 207 1
208 220 1
208 235 1
208 250 1
208 398 1
208 416 1
208 426 1
208 447 1
208 460 1
208 479 1
208 489 1
208 512 1
209 145 1
209 157 1
209 180 1
209 187 1
209 209 1
209 221 1
209 244 1
209 251 1
209 405 1
209 412 1
209 440 1
209 442 1
209 467 1
209 478 1
209 503 1
209 505 1
210 146 1
210 155 1
210 182 1
210 189 1
210 210 1
210 219 1
210 246 1
210 253 1
210 407 1
210 410 1
210 435 1
210 444 1
210 472 1
210 473 1
210 501 1
210 510 1
211 151 1
211 154 1
211 179 1
211 188 1
211 215 1
211 218 1
211 243 1
211 252 1
211 406 1
211 415 1
211 434 1
211 448 1
211 468 1
211 480 1
211 497 1
211 511 1
212 148 1
212 160 1
212 177 1
212 191 1
212 212 1
212 224 1
212 241 1
212 255 1
212 408 1
212 409 1
212 437 1
212 446 1
212 471 1
212 474 1
212 499 1
212 508 1
213 152 1
213 153 1
213 181 1
213 190 1
213 216 1
213 217 1
213 245 1
213 254 1
213 401 1
213 413 1
213 436 1
213 443 1
213 466 1
213 475 1
213 502 1
213 509 1
214 150 1
214 159 1
214 178 1
214 192 1
214 214 1
214 223 1
214 242 1
214 256 1
214 403 1
214 414 1
214 439 1
214 441 1
214 469 1
214 476 1
214 504 1
214 506 1
215 147 1
215 158 1
215 183 1
215 185 1
215 211 1
215 222 1
215 247 1
215 249 1
215 402 1
215 411 1
215 438 1
215 445 1
215 465 1
215 477 1
215 500 1
215 507 1
216 149 1
216 156 1
216 184 1
216 186 1
216 213 1
216 220 1
216 248 1
216 250 1
216 404 1
216 416 1
216 433 1
216 447 1
216 470 1
216 479 1
216 498 1
216 512 1
217 165 1
217 174 1
217 180 1
217 187 1
217 229 1
217 238 1
217 244 1
217 251 1
217 420 1
217 427 1
217 440 1
217 442 1
217 486 1
217 493 1
217 503 1
217 505 1
218 163 1
218 172 1
218 182 1
218 189 1
218 227 1
218 236 1
218 246 1
218 253 1
218 418 1
218 432 1
218 435 1
218 444 1
218 481 1
218 495 1
218 501 1
218 510 1
219 162 1
219 176 1
219 179 1
219 188 1
219 226 1
219 240 1
219 243 1
219 252 1
219 423 1
219 425 1
219 434 1
219 448 1
219 488 1
219 490 1
219 497 1
219 511 1
220 168 1
220 170 1
220 177 1
220 191 1
220 232 1
220 234 1
220 241 1
220 255 1
220 417 1
220 431 1
220 437 1
220 446 1
220 482 1
220 496 1
220 499 1
220 508 1
221 161 1
221 175 1
221 181 1
221 190 1
221 225 1
221 239 1
221 245 1
221 254 1
221 421 1
221 430 1
221 436 1
221 443 1
221 483 1
221 492 1
221 502 1
221 509 1
222 167 1
222 169 1
222 178 1
222 192 1
222 231 1
222 233 1
222 242 1
222 256 1
222 422 1
222 429 1
222 439 1
222 441 1
222 484 1
222 491 1
222 504 1
222 506 1
223 166 1
223 173 1
223 183 1
223 185 1
223 230 1
223 237 1
223 247 1
223 249 1
223 419 1
223 428 1
223 438 1
223 445 1
223 485 1
223 494 1
223 500 1
223 507 1
224 164 1
224 171 1
224 184 1
224 186 1
224 228 1
224 235 1
224 248 1
224 250 1
224 424 1
224 426 1
224 433 1
224 447 1
224 487 1
224 489 1
224 498 1
224 512 1
225 259 1
225 281 1
225 303 1
225 309 1
225 325 1
225 346 1
225 368 1
225 371 1
225 391 1
225 412 1
225 427 1
225 440 1
225 456 1
225 478 1
225 493 1
225 503 1
226 264 1
226 286 1
226 301 1
226 311 1
226 327 1
226 348 1
226 363 1
226 376 1
226 389 1
226 410 1
226 432 1
226 435 1
226 451 1
226 473 1
226 495 1
226 501 1
227 257 1
227 283 1
227 300 1
227 310 1
227 322 1
227 349 1
227 366 1
227 372 1
227 388 1
227 415 1
227 425 1
227 434 1
227 454 1
227 480 1
227 490 1
227 497 1
228 263 1
228 284 1
228 299 1
228 312 1
228 328 1
228 350 1
228 365 1
228 375 1
228 387 1
228 409 1
228 431 1
228 437 1
228 453 1
228 474 1
228 496 1
228 499 1
229 262 1
229 288 1
229 298 1
229 305 1
229 324 1
229 351 1
229 361 1
229 370 1
229 386 1
229 413 1
229 430 1
229 436 1
229 449 1
229 475 1
229 492 1
229 502 1
230 261 1
230 282 1
230 304 1
230 307 1
230 323 1
230 345 1
230 367 1
230 373 1
230 392 1
230 414 1
230 429 1
230 439 1
230 455 1
230 476 1
230 491 1
230 504 1
231 260 1
231 287 1
231 297 1
231 306 1
231 326 1
231 352 1
231 362 1
231 369 1
231 385 1
231 411 1
231 428 1
231 438 1
231 450 1
231 477 1
231 494 1
231 500 1
232 258 1
232 285 1
232 302 1
232 308 1
232 321 1
232 347 1
232 364 1
232 374 1
232 390 1
232 416 1
232 426 1
232 433 1
232 452 1
232 479 1
232 489 1
232 498 1
233 267 1
233 281 1
233 303 1
233 318 1
233 333 1
233 346 1
233 368 1
233 380 1
233 399 1
233 412 1
233 427 1
233 442 1
233 464 1
233 478 1
233 493 1
233 505 1
234 272 1
234 286 1
234 301 1
234 313 1
234 335 1
234 348 1
234 363 1
234 378 1
234 397 1
234 410 1
234 432 1
234 444 1
234 459 1
234 473 1
234 495 1
234 510 1
235 265 1
235 283 1
235 300 1
235 317 1
235 330 1
235 349 1
235 366 1
235 379 1
235 396 1
235 415 1
235 425 1
235 448 1
235 462 1
235 480 1
235 490 1
235 511 1
236 271 1
236 284 1
236 299 1
236 314 1
236 336 1
236 350 1
236 365 1
236 377 1
236 395 1
236 409 1
236 431 1
236 446 1
236 461 1
236 474 1
236 496 1
236 508 1
237 270 1
237 288 1
237 298 1
237 319 1
237 332 1
237 351 1
237 361 1
237 384 1
237 394 1
237 413 1
237 430 1
237 443 1
237 457 1
237 475 1
237 492 1
237 509 1
238 269 1
238 282 1
238 304 1
238 316 1
238 331 1
238 345 1
238 367 1
238 382 1
238 400 1
238 414 1
238 429 1
238 441 1
238 463 1
238 476 1
238 491 1
238 506 1
239 268 1
239 287 1
239 297 1
239 320 1
239 334 1
239 352 1
239 362 1
239 383 1
239 393 1
239 411 1
239 428 1
239 445 1
239 458 1
239 477 1
239 494 1
239 507 1
240 266 1
240 285 1
240 302 1
240 315 1
240 329 1
240 347 1
240 364 1
240 381 1
240 398 1
240 416 1
240 426 1
240 447 1
240 460 1
240 479 1
240 489 1
240 512 1
241 280 1
241 281 1
241 309 1
241 318 1
241 343 1
241 346 1
241 371 1
241 380 1
241 405 1
241 412 1
241 440 1
241 442 1
241 467 1
241 478 1
241 503 1
241 505 1
242 275 1
242 286 1
242 311 1
242 313 1
242 341 1
242 348 1
242 376 1
242 378 1
242 407 1
242 410 1
242 435 1
242 444 1
242 472 1
242 473 1
242 501 1
242 510 1
243 274 1
243 283 1
243 310 1
243 317 1
243 337 1
243 349 1
243 372 1
243 379 1
243 406 1
243 415 1
243 434 1
243 448 1
243 468 1
243 480 1
243 497 1
243 511 1
244 277 1
244 284 1
244 312 1
244 314 1
244 339 1
244 350 1
244 375 1
244 377 1
244 408 1
244 409 1
244 437 1
244 446 1
244 471 1
244 474 1
244 499 1
244 508 1
245 276 1
245 288 1
245 305 1
245 319 1
245 342 1
245 351 1
245 370 1
245 384 1
245 401 1
245 413 1
245 436 1
245 443 1
245 466 1
245 475 1
245 502 1
245 509 1
246 279 1
246 282 1
246 307 1
246 316 1
246 344 1
246 345 1
246 373 1
246 382 1
246 403 1
246 414 1
246 439 1
246 441 1
246 469 1
246 476 1
246 504 1
246 506 1
247 278 1
247 287 1
247 306 1
247 320 1
247 340 1
247 352 1
247 369 1
247 383 1
247 402 1
247 411 1
247 438 1
247 445 1
247 465 1
247 477 1
247 500 1
247 507 1
248 273 1
248 285 1
248 308 1
248 315 1
248 338 1
248 347 1
248 374 1
248 381 1
248 404 1
248 416 1
248 433 1
248 447 1
248 470 1
248 479 1
248 498 1
248 512 1
249 289 1
249 303 1
249 309 1
249 318 1
249 354 1
249 368 1
249 371 1
249 380 1
249 420 1
249 427 1
249 440 1
249 442 1
249 486 1
249 493 1
249 503 1
249 505 1
250 294 1
250 301 1
250 311 1
250 313 1
250 356 1
250 363 1
250 376 1
250 378 1
250 418 1
250 432 1
250 435 1
250 444 1
250 481 1
250 495 1
250 501 1
250 510 1
251 291 1
251 300 1
251 310 1
251 317 1
251 357 1
251 366 1
251 372 1
251 379 1
251 423 1
251 425 1
251 434 1
251 448 1
251 488 1
251 490 1
251 497 1
251 511 1
252 292 1
252 299 1
252 312 1
252 314 1
252 358 1
252 365 1
252 375 1
252 377 1
252 417 1
252 431 1
252 437 1
252 446 1
252 482 1
252 496 1
252 499 1
252 508 1
253 296 1
253 298 1
253 305 1
253 319 1
253 359 1
253 361 1
253 370 1
253 384 1
253 421 1
253 430 1
253 436 1
253 443 1
253 483 1
253 492 1
253 502 1
253 509 1
254 290 1
254 304 1
254 307 1
254 316 1
254 353 1
254 367 1
254 373 1
254 382 1
254 422 1
254 429 1
254 439 1
254 441 1
254 484 1
254 491 1
254 504 1
254 506 1
255 295 1
255 297 1
255 306 1
255 320 1
255 360 1
255 362 1
255 369 1
255 383 1
255 419 1
255 428 1
255 438 1
255 445 1
255 485 1
255 494 1
255 500 1
255 507 1
256 293 1
256 302 1
256 308 1
256 315 1
256 355 1
256 364 1
256 374 1
256 381 1
256 424 1
256 426 1
256 433 1
256 447 1
256 487 1
256 489 1
256 498 1
256 512 1
