%%MatrixMarket matrix coordinate integer general
306 612 2754
1 1 1
1 18 1
1 75 1
1 307 1
1 324 1
1 381 1
1 409 1
1 426 1
1 483 1
2 2 1
2 19 1
2 76 1
2 308 1
2 325 1
2 382 1
2 410 1
2 427 1
2 484 1
3 3 1
3 20 1
3 77 1
3 309 1
3 326 1
3 383 1
3 411 1
3 428 1
3 485 1
4 4 1
4 21 1
4 78 1
4 310 1
4 327 1
4 384 1
4 412 1
4 429 1
4 486 1
5 5 1
5 22 1
5 79 1
5 311 1
5 328 1
5 385 1
5 413 1
5 430 1
5 487 1
6 6 1
6 23 1
6 80 1
6 312 1
6 329 1
6 386 1
6 414 1
6 431 1
6 488 1
7 7 1
7 24 1
7 81 1
7 313 1
7 330 1
7 387 1
7 415 1
7 432 1
7 489 1
8 8 1
8 25 1
8 82 1
8 314 1
8 331 1
8 388 1
8 416 1
8 433 1
8 490 1
9 9 1
9 26 1
9 83 1
9 315 1
9 332 1
9 389 1
9 417 1
9 434 1
9 491 1
10 10 1
10 27 1
10 84 1
10 316 1
10 333 1
10 390 1
10 418 1
10 435 1
10 492 1
11 11 1
11 28 1
11 85 1
11 317 1
11 334 1
11 391 1
11 419 1
11 436 1
11 493 1
12 12 1
12 29 1
12 69 1
12 318 1
12 335 1
12 375 1
12 420 1
12 437 1
12 477 1
13 13 1
13 30 1
13 70 1
13 319 1
13 336 1
13 376 1
13 421 1
13 438 1
13 478 1
14 14 1
14 31 1
14 71 1
14 320 1
14 337 1
14 377 1
14 422 1
14 439 1
14 479 1
15 15 1
15 32 1
15 72 1
15 321 1
15 338 1
15 378 1
15 423 1
15 440 1
15 480 1
16 16 1
16 33 1
16 73 1
16 322 1
16 339 1
16 379 1
16 424 1
16 441 1
16 481 1
17 17 1
17 34 1
17 74 1
17 323 1
17 340 1
17 380 1
17 425 1
17 442 1
17 482 1
18 1 1
18 63 1
18 89 1
18 307 1
18 369 1
18 395 1
18 409 1
18 471 1
18 497 1
19 2 1
19 64 1
19 90 1
19 308 1
19 370 1
19 396 1
19 410 1
19 472 1
19 498 1
20 3 1
20 65 1
20 91 1
20 309 1
20 371 1
20 397 1
20 411 1
20 473 1
20 499 1
21 4 1
21 66 1
21 92 1
21 310 1
21 372 1
21 398 1
21 412 1
21 474 1
21 500 1
22 5 1
22 67 1
22 93 1
22 311 1
22 373 1
22 399 1
22 413 1
22 475 1
22 501 1
23 6 1
23 68 1
23 94 1
23 312 1
23 374 1
23 400 1
23 414 1
23 476 1
23 502 1
24 7 1
24 52 1
24 95 1
24 313 1
24 358 1
24 401 1
24 415 1
24 460 1
24 503 1
25 8 1
25 53 1
25 96 1
25 314 1
25 359 1
25 402 1
25 416 1
25 461 1
25 504 1
26 9 1
26 54 1
26 97 1
26 315 1
26 360 1
26 403 1
26 417 1
26 462 1
26 505 1
27 10 1
27 55 1
27 98 1
27 316 1
27 361 1
27 404 1
27 418 1
27 463 1
27 506 1
28 11 1
28 56 1
28 99 1
28 317 1
28 362 1
28 405 1
28 419 1
28 464 1
28 507 1
29 12 1
29 57 1
29 100 1
29 318 1
29 363 1
29 406 1
29 420 1
29 465 1
29 508 1
30 13 1
30 58 1
30 101 1
30 319 1
30 364 1
30 407 1
30 421 1
30 466 1
30 509 1
31 14 1
31 59 1
31 102 1
31 320 1
31 365 1
31 408 1
31 422 1
31 467 1
31 510 1
32 15 1
32 60 1
32 86 1
32 321 1
32 366 1
32 392 1
32 423 1
32 468 1
32 494 1
33 16 1
33 61 1
33 87 1
33 322 1
33 367 1
33 393 1
33 424 1
33 469 1
33 495 1
34 17 1
34 62 1
34 88 1
34 323 1
34 368 1
34 394 1
34 425 1
34 470 1
34 496 1
35 18 1
35 49 1
35 89 1
35 324 1
35 355 1
35 395 1
35 426 1
35 457 1
35 497 1
36 19 1
36 50 1
36 90 1
36 325 1
36 356 1
36 396 1
36 427 1
36 458 1
36 498 1
37 20 1
37 51 1
37 91 1
37 326 1
37 357 1
37 397 1
37 428 1
37 459 1
37 499 1
38 21 1
38 35 1
38 92 1
38 327 1
38 341 1
38 398 1
38 429 1
38 443 1
38 500 1
39 22 1
39 36 1
39 93 1
39 328 1
39 342 1
39 399 1
39 430 1
39 444 1
39 501 1
40 23 1
40 37 1
40 94 1
40 329 1
40 343 1
40 400 1
40 431 1
40 445 1
40 502 1
41 24 1
41 38 1
41 95 1
41 330 1
41 344 1
41 401 1
41 432 1
41 446 1
41 503 1
42 25 1
42 39 1
42 96 1
42 331 1
42 345 1
42 402 1
42 433 1
42 447 1
42 504 1
43 26 1
43 40 1
43 97 1
43 332 1
43 346 1
43 403 1
43 434 1
43 448 1
43 505 1
44 27 1
44 41 1
44 98 1
44 333 1
44 347 1
44 404 1
44 435 1
44 449 1
44 506 1
45 28 1
45 42 1
45 99 1
45 334 1
45 348 1
45 405 1
45 436 1
45 450 1
45 507 1
46 29 1
46 43 1
46 100 1
46 335 1
46 349 1
46 406 1
46 437 1
46 451 1
46 508 1
47 30 1
47 44 1
47 101 1
47 336 1
47 350 1
47 407 1
47 438 1
47 452 1
47 509 1
48 31 1
48 45 1
48 102 1
48 337 1
48 351 1
48 408 1
48 439 1
48 453 1
48 510 1
49 32 1
49 46 1
49 86 1
49 338 1
49 352 1
49 392 1
49 440 1
49 454 1
49 494 1
50 33 1
50 47 1
50 87 1
50 339 1
50 353 1
50 393 1
50 441 1
50 455 1
50 495 1
51 34 1
51 48 1
51 88 1
51 340 1
51 354 1
51 394 1
51 442 1
51 456 1
51 496 1
52 103 1
52 120 1
52 177 1
52 307 1
52 324 1
52 381 1
52 511 1
52 528 1
52 585 1
53 104 1
53 121 1
53 178 1
53 308 1
53 325 1
53 382 1
53 512 1
53 529 1
53 586 1
54 105 1
54 122 1
54 179 1
54 309 1
54 326 1
54 383 1
54 513 1
54 530 1
54 587 1
55 106 1
55 123 1
55 180 1
55 310 1
55 327 1
55 384 1
55 514 1
55 531 1
55 588 1
56 107 1
56 124 1
56 181 1
56 311 1
56 328 1
56 385 1
56 515 1
56 532 1
56 589 1
57 108 1
57 125 1
57 182 1
57 312 1
57 329 1
57 386 1
57 516 1
57 533 1
57 590 1
58 109 1
58 126 1
58 183 1
58 313 1
58 330 1
58 387 1
58 517 1
58 534 1
58 591 1
59 110 1
59 127 1
59 184 1
59 314 1
59 331 1
59 388 1
59 518 1
59 535 1
59 592 1
60 111 1
60 128 1
60 185 1
60 315 1
60 332 1
60 389 1
60 519 1
60 536 1
60 593 1
61 112 1
61 129 1
61 186 1
61 316 1
61 333 1
61 390 1
61 520 1
61 537 1
61 594 1
62 113 1
62 130 1
62 187 1
62 317 1
62 334 1
62 391 1
62 521 1
62 538 1
62 595 1
63 114 1
63 131 1
63 171 1
63 318 1
63 335 1
63 375 1
63 522 1
63 539 1
63 579 1
64 115 1
64 132 1
64 172 1
64 319 1
64 336 1
64 376 1
64 523 1
64 540 1
64 580 1
65 116 1
65 133 1
65 173 1
65 320 1
65 337 1
65 377 1
65 524 1
65 541 1
65 581 1
66 117 1
66 134 1
66 174 1
66 321 1
66 338 1
66 378 1
66 525 1
66 542 1
66 582 1
67 118 1
67 135 1
67 175 1
67 322 1
67 339 1
67 379 1
67 526 1
67 543 1
67 583 1
68 119 1
68 136 1
68 176 1
68 323 1
68 340 1
68 380 1
68 527 1
68 544 1
68 584 1
69 103 1
69 165 1
69 191 1
69 307 1
69 369 1
69 395 1
69 511 1
69 573 1
69 599 1
70 104 1
70 166 1
70 192 1
70 308 1
70 370 1
70 396 1
70 512 1
70 574 1
70 600 1
71 105 1
71 167 1
71 193 1
71 309 1
71 371 1
71 397 1
71 513 1
71 575 1
71 601 1
72 106 1
72 168 1
72 194 1
72 310 1
72 372 1
72 398 1
72 514 1
72 576 1
72 602 1
73 107 1
73 169 1
73 195 1
73 311 1
73 373 1
73 399 1
73 515 1
73 577 1
73 603 1
74 108 1
74 170 1
74 196 1
74 312 1
74 374 1
74 400 1
74 516 1
74 578 1
74 604 1
75 109 1
75 154 1
75 197 1
75 313 1
75 358 1
75 401 1
75 517 1
75 562 1
75 605 1
76 110 1
76 155 1
76 198 1
76 314 1
76 359 1
76 402 1
76 518 1
76 563 1
76 606 1
77 111 1
77 156 1
77 199 1
77 315 1
77 360 1
77 403 1
77 519 1
77 564 1
77 607 1
78 112 1
78 157 1
78 200 1
78 316 1
78 361 1
78 404 1
78 520 1
78 565 1
78 608 1
79 113 1
79 158 1
79 201 1
79 317 1
79 362 1
79 405 1
79 521 1
79 566 1
79 609 1
80 114 1
80 159 1
80 202 1
80 318 1
80 363 1
80 406 1
80 522 1
80 567 1
80 610 1
81 115 1
81 160 1
81 203 1
81 319 1
81 364 1
81 407 1
81 523 1
81 568 1
81 611 1
82 116 1
82 161 1
82 204 1
82 320 1
82 365 1
82 408 1
82 524 1
82 569 1
82 612 1
83 117 1
83 162 1
83 188 1
83 321 1
83 366 1
83 392 1
83 525 1
83 570 1
83 596 1
84 118 1
84 163 1
84 189 1
84 322 1
84 367 1
84 393 1
84 526 1
84 571 1
84 597 1
85 119 1
85 164 1
85 190 1
85 323 1
85 368 1
85 394 1
85 527 1
85 572 1
85 598 1
86 120 1
86 151 1
86 191 1
86 324 1
86 355 1
86 395 1
86 528 1
86 559 1
86 599 1
87 121 1
87 152 1
87 192 1
87 325 1
87 356 1
87 396 1
87 529 1
87 560 1
87 600 1
88 122 1
88 153 1
88 193 1
88 326 1
88 357 1
88 397 1
88 530 1
88 561 1
88 601 1
89 123 1
89 137 1
89 194 1
89 327 1
89 341 1
89 398 1
89 531 1
89 545 1
89 602 1
90 124 1
90 138 1
90 195 1
90 328 1
90 342 1
90 399 1
90 532 1
90 546 1
90 603 1
91 125 1
91 139 1
91 196 1
91 329 1
91 343 1
91 400 1
91 533 1
91 547 1
91 604 1
92 126 1
92 140 1
92 197 1
92 330 1
92 344 1
92 401 1
92 534 1
92 548 1
92 605 1
93 127 1
93 141 1
93 198 1
93 331 1
93 345 1
93 402 1
93 535 1
93 549 1
93 606 1
94 128 1
94 142 1
94 199 1
94 332 1
94 346 1
94 403 1
94 536 1
94 550 1
94 607 1
95 129 1
95 143 1
95 200 1
95 333 1
95 347 1
95 404 1
95 537 1
95 551 1
95 608 1
96 130 1
96 144 1
96 201 1
96 334 1
96 348 1
96 405 1
96 538 1
96 552 1
96 609 1
97 131 1
97 145 1
97 202 1
97 335 1
97 349 1
97 406 1
97 539 1
97 553 1
97 610 1
98 132 1
98 146 1
98 203 1
98 336 1
98 350 1
98 407 1
98 540 1
98 554 1
98 611 1
99 133 1
99 147 1
99 204 1
99 337 1
99 351 1
99 408 1
99 541 1
99 555 1
99 612 1
100 134 1
100 148 1
100 188 1
100 338 1
100 352 1
100 392 1
100 542 1
100 556 1
100 596 1
101 135 1
101 149 1
101 189 1
101 339 1
101 353 1
101 393 1
101 543 1
101 557 1
101 597 1
102 136 1
102 150 1
102 190 1
102 340 1
102 354 1
102 394 1
102 544 1
102 558 1
102 598 1
103 205 1
103 222 1
103 279 1
103 409 1
103 426 1
103 483 1
103 511 1
103 528 1
103 585 1
104 206 1
104 223 1
104 280 1
104 410 1
104 427 1
104 484 1
104 512 1
104 529 1
104 586 1
105 207 1
105 224 1
105 281 1
105 411 1
105 428 1
105 485 1
105 513 1
105 530 1
105 587 1
106 208 1
106 225 1
106 282 1
106 412 1
106 429 1
106 486 1
106 514 1
106 531 1
106 588 1
107 209 1
107 226 1
107 283 1
107 413 1
107 430 1
107 487 1
107 515 1
107 532 1
107 589 1
108 210 1
108 227 1
108 284 1
108 414 1
108 431 1
108 488 1
108 516 1
108 533 1
108 590 1
109 211 1
109 228 1
109 285 1
109 415 1
109 432 1
109 489 1
109 517 1
109 534 1
109 591 1
110 212 1
110 229 1
110 286 1
110 416 1
110 433 1
110 490 1
110 518 1
110 535 1
110 592 1
111 213 1
111 230 1
111 287 1
111 417 1
111 434 1
111 491 1
111 519 1
111 536 1
111 593 1
112 214 1
112 231 1
112 288 1
112 418 1
112 435 1
112 492 1
112 520 1
112 537 1
112 594 1
113 215 1
113 232 1
113 289 1
113 419 1
113 436 1
113 493 1
113 521 1
113 538 1
113 595 1
114 216 1
114 233 1
114 273 1
114 420 1
114 437 1
114 477 1
114 522 1
114 539 1
114 579 1
115 217 1
115 234 1
115 274 1
115 421 1
115 438 1
115 478 1
115 523 1
115 540 1
115 580 1
116 218 1
116 235 1
116 275 1
116 422 1
116 439 1
116 479 1
116 524 1
116 541 1
116 581 1
117 219 1
117 236 1
117 276 1
117 423 1
117 440 1
117 480 1
117 525 1
117 542 1
117 582 1
118 220 1
118 237 1
118 277 1
118 424 1
118 441 1
118 481 1
118 526 1
118 543 1
118 583 1
119 221 1
119 238 1
119 278 1
119 425 1
119 442 1
119 482 1
119 527 1
119 544 1
119 584 1
120 205 1
120 267 1
120 293 1
120 409 1
120 471 1
120 497 1
120 511 1
120 573 1
120 599 1
121 206 1
121 268 1
121 294 1
121 410 1
121 472 1
121 498 1
121 512 1
121 574 1
121 600 1
122 207 1
122 269 1
122 295 1
122 411 1
122 473 1
122 499 1
122 513 1
122 575 1
122 601 1
123 208 1
123 270 1
123 296 1
123 412 1
123 474 1
123 500 1
123 514 1
123 576 1
123 602 1
124 209 1
124 271 1
124 297 1
124 413 1
124 475 1
124 501 1
124 515 1
124 577 1
124 603 1
125 210 1
125 272 1
125 298 1
125 414 1
125 476 1
125 502 1
125 516 1
125 578 1
125 604 1
126 211 1
126 256 1
126 299 1
126 415 1
126 460 1
126 503 1
126 517 1
126 562 1
126 605 1
127 212 1
127 257 1
127 300 1
127 416 1
127 461 1
127 504 1
127 518 1
127 563 1
127 606 1
128 213 1
128 258 1
128 301 1
128 417 1
128 462 1
128 505 1
128 519 1
128 564 1
128 607 1
129 214 1
129 259 1
129 302 1
129 418 1
129 463 1
129 506 1
129 520 1
129 565 1
129 608 1
130 215 1
130 260 1
130 303 1
130 419 1
130 464 1
130 507 1
130 521 1
130 566 1
130 609 1
131 216 1
131 261 1
131 304 1
131 420 1
131 465 1
131 508 1
131 522 1
131 567 1
131 610 1
132 217 1
132 262 1
132 305 1
132 421 1
132 466 1
132 509 1
132 523 1
132 568 1
132 611 1
133 218 1
133 263 1
133 306 1
133 422 1
133 467 1
133 510 1
133 524 1
133 569 1
133 612 1
134 219 1
134 264 1
134 290 1
134 423 1
134 468 1
134 494 1
134 525 1
134 570 1
134 596 1
135 220 1
135 265 1
135 291 1
135 424 1
135 469 1
135 495 1
135 526 1
135 571 1
135 597 1
136 221 1
136 266 1
136 292 1
136 425 1
136 470 1
136 496 1
136 527 1
136 572 1
136 598 1
137 222 1
137 253 1
137 293 1
137 426 1
137 457 1
137 497 1
137 528 1
137 559 1
137 599 1
138 223 1
138 254 1
138 294 1
138 427 1
138 458 1
138 498 1
138 529 1
138 560 1
138 600 1
139 224 1
139 255 1
139 295 1
139 428 1
139 459 1
139 499 1
139 530 1
139 561 1
139 601 1
140 225 1
140 239 1
140 296 1
140 429 1
140 443 1
140 500 1
140 531 1
140 545 1
140 602 1
141 226 1
141 240 1
141 297 1
141 430 1
141 444 1
141 501 1
141 532 1
141 546 1
141 603 1
142 227 1
142 241 1
142 298 1
142 431 1
142 445 1
142 502 1
142 533 1
142 547 1
142 604 1
143 228 1
143 242 1
143 299 1
143 432 1
143 446 1
143 503 1
143 534 1
143 548 1
143 605 1
144 229 1
144 243 1
144 300 1
144 433 1
144 447 1
144 504 1
144 535 1
144 549 1
144 606 1
145 230 1
145 244 1
145 301 1
145 434 1
145 448 1
145 505 1
145 536 1
145 550 1
145 607 1
146 231 1
146 245 1
146 302 1
146 435 1
146 449 1
146 506 1
146 537 1
146 551 1
146 608 1
147 232 1
147 246 1
147 303 1
147 436 1
147 450 1
147 507 1
147 538 1
147 552 1
147 609 1
148 233 1
148 247 1
148 304 1
148 437 1
148 451 1
148 508 1
148 539 1
148 553 1
148 610 1
149 234 1
149 248 1
149 305 1
149 438 1
149 452 1
149 509 1
149 540 1
149 554 1
149 611 1
150 235 1
150 249 1
150 306 1
150 439 1
150 453 1
150 510 1
150 541 1
150 555 1
150 612 1
151 236 1
151 250 1
151 290 1
151 440 1
151 454 1
151 494 1
151 542 1
151 556 1
151 596 1
152 237 1
152 251 1
152 291 1
152 441 1
152 455 1
152 495 1
152 543 1
152 557 1
152 597 1
153 238 1
153 252 1
153 292 1
153 442 1
153 456 1
153 496 1
153 544 1
153 558 1
153 598 1
154 1 1
154 18 1
154 52 1
154 310 1
154 327 1
154 361 1
154 416 1
154 433 1
154 467 1
155 2 1
155 19 1
155 53 1
155 311 1
155 328 1
155 362 1
155 417 1
155 434 1
155 468 1
156 3 1
156 20 1
156 54 1
156 312 1
156 329 1
156 363 1
156 418 1
156 435 1
156 469 1
157 4 1
157 21 1
157 55 1
157 313 1
157 330 1
157 364 1
157 419 1
157 436 1
157 470 1
158 5 1
158 22 1
158 56 1
158 314 1
158 331 1
158 365 1
158 420 1
158 437 1
158 471 1
159 6 1
159 23 1
159 57 1
159 315 1
159 332 1
159 366 1
159 421 1
159 438 1
159 472 1
160 7 1
160 24 1
160 58 1
160 316 1
160 333 1
160 367 1
160 422 1
160 439 1
160 473 1
161 8 1
161 25 1
161 59 1
161 317 1
161 334 1
161 368 1
161 423 1
161 440 1
161 474 1
162 9 1
162 26 1
162 60 1
162 318 1
162 335 1
162 369 1
162 424 1
162 441 1
162 475 1
163 10 1
163 27 1
163 61 1
163 319 1
163 336 1
163 370 1
163 425 1
163 442 1
163 476 1
164 11 1
164 28 1
164 62 1
164 320 1
164 337 1
164 371 1
164 409 1
164 426 1
164 460 1
165 12 1
165 29 1
165 63 1
165 321 1
165 338 1
165 372 1
165 410 1
165 427 1
165 461 1
166 13 1
166 30 1
166 64 1
166 322 1
166 339 1
166 373 1
166 411 1
166 428 1
166 462 1
167 14 1
167 31 1
167 65 1
167 323 1
167 340 1
167 374 1
167 412 1
167 429 1
167 463 1
168 15 1
168 32 1
168 66 1
168 307 1
168 324 1
168 358 1
168 413 1
168 430 1
168 464 1
169 16 1
169 33 1
169 67 1
169 308 1
169 325 1
169 359 1
169 414 1
169 431 1
169 465 1
170 17 1
170 34 1
170 68 1
170 309 1
170 326 1
170 360 1
170 415 1
170 432 1
170 466 1
171 1 1
171 35 1
171 69 1
171 310 1
171 344 1
171 378 1
171 416 1
171 450 1
171 484 1
172 2 1
172 36 1
172 70 1
172 311 1
172 345 1
172 379 1
172 417 1
172 451 1
172 485 1
173 3 1
173 37 1
173 71 1
173 312 1
173 346 1
173 380 1
173 418 1
173 452 1
173 486 1
174 4 1
174 38 1
174 72 1
174 313 1
174 347 1
174 381 1
174 419 1
174 453 1
174 487 1
175 5 1
175 39 1
175 73 1
175 314 1
175 348 1
175 382 1
175 420 1
175 454 1
175 488 1
176 6 1
176 40 1
176 74 1
176 315 1
176 349 1
176 383 1
176 421 1
176 455 1
176 489 1
177 7 1
177 41 1
177 75 1
177 316 1
177 350 1
177 384 1
177 422 1
177 456 1
177 490 1
178 8 1
178 42 1
178 76 1
178 317 1
178 351 1
178 385 1
178 423 1
178 457 1
178 491 1
179 9 1
179 43 1
179 77 1
179 318 1
179 352 1
179 386 1
179 424 1
179 458 1
179 492 1
180 10 1
180 44 1
180 78 1
180 319 1
180 353 1
180 387 1
180 425 1
180 459 1
180 493 1
181 11 1
181 45 1
181 79 1
181 320 1
181 354 1
181 388 1
181 409 1
181 443 1
181 477 1
182 12 1
182 46 1
182 80 1
182 321 1
182 355 1
182 389 1
182 410 1
182 444 1
182 478 1
183 13 1
183 47 1
183 81 1
183 322 1
183 356 1
183 390 1
183 411 1
183 445 1
183 479 1
184 14 1
184 48 1
184 82 1
184 323 1
184 357 1
184 391 1
184 412 1
184 446 1
184 480 1
185 15 1
185 49 1
185 83 1
185 307 1
185 341 1
185 375 1
185 413 1
185 447 1
185 481 1
186 16 1
186 50 1
186 84 1
186 308 1
186 342 1
186 376 1
186 414 1
186 448 1
186 482 1
187 17 1
187 51 1
187 85 1
187 309 1
187 343 1
187 377 1
187 415 1
187 449 1
187 483 1
188 18 1
188 35 1
188 86 1
188 327 1
188 344 1
188 395 1
188 433 1
188 450 1
188 501 1
189 19 1
189 36 1
189 87 1
189 328 1
189 345 1
189 396 1
189 434 1
189 451 1
189 502 1
190 20 1
190 37 1
190 88 1
190 329 1
190 346 1
190 397 1
190 435 1
190 452 1
190 503 1
191 21 1
191 38 1
191 89 1
191 330 1
191 347 1
191 398 1
191 436 1
191 453 1
191 504 1
192 22 1
192 39 1
192 90 1
192 331 1
192 348 1
192 399 1
192 437 1
192 454 1
192 505 1
193 23 1
193 40 1
193 91 1
193 332 1
193 349 1
193 400 1
193 438 1
193 455 1
193 506 1
194 24 1
194 41 1
194 92 1
194 333 1
194 350 1
194 401 1
194 439 1
194 456 1
194 507 1
195 25 1
195 42 1
195 93 1
195 334 1
195 351 1
195 402 1
195 440 1
195 457 1
195 508 1
196 26 1
196 43 1
196 94 1
196 335 1
196 352 1
196 403 1
196 441 1
196 458 1
196 509 1
197 27 1
197 44 1
197 95 1
197 336 1
197 353 1
197 404 1
197 442 1
197 459 1
197 510 1
198 28 1
198 45 1
198 96 1
198 337 1
198 354 1
198 405 1
198 426 1
198 443 1
198 494 1
199 29 1
199 46 1
199 97 1
199 338 1
199 355 1
199 406 1
199 427 1
199 444 1
199 495 1
200 30 1
200 47 1
200 98 1
200 339 1
200 356 1
200 407 1
200 428 1
200 445 1
200 496 1
201 31 1
201 48 1
201 99 1
201 340 1
201 357 1
201 408 1
201 429 1
201 446 1
201 497 1
202 32 1
202 49 1
202 100 1
202 324 1
202 341 1
202 392 1
202 430 1
202 447 1
202 498 1
203 33 1
203 50 1
203 101 1
203 325 1
203 342 1
203 393 1
203 431 1
203 448 1
203 499 1
204 34 1
204 51 1
204 102 1
204 326 1
204 343 1
204 394 1
204 432 1
204 449 1
204 500 1
205 104 1
205 121 1
205 155 1
205 310 1
205 327 1
205 361 1
205 525 1
205 542 1
205 576 1
206 105 1
206 122 1
206 156 1
206 311 1
206 328 1
206 362 1
206 526 1
206 543 1
206 577 1
207 106 1
207 123 1
207 157 1
207 312 1
207 329 1
207 363 1
207 527 1
207 544 1
207 578 1
208 107 1
208 124 1
208 158 1
208 313 1
208 330 1
208 364 1
208 511 1
208 528 1
208 562 1
209 108 1
209 125 1
209 159 1
209 314 1
209 331 1
209 365 1
209 512 1
209 529 1
209 563 1
210 109 1
210 126 1
210 160 1
210 315 1
210 332 1
210 366 1
210 513 1
210 530 1
210 564 1
211 110 1
211 127 1
211 161 1
211 316 1
211 333 1
211 367 1
211 514 1
211 531 1
211 565 1
212 111 1
212 128 1
212 162 1
212 317 1
212 334 1
212 368 1
212 515 1
212 532 1
212 566 1
213 112 1
213 129 1
213 163 1
213 318 1
213 335 1
213 369 1
213 516 1
213 533 1
213 567 1
214 113 1
214 130 1
214 164 1
214 319 1
214 336 1
214 370 1
214 517 1
214 534 1
214 568 1
215 114 1
215 131 1
215 165 1
215 320 1
215 337 1
215 371 1
215 518 1
215 535 1
215 569 1
216 115 1
216 132 1
216 166 1
216 321 1
216 338 1
216 372 1
216 519 1
216 536 1
216 570 1
217 116 1
217 133 1
217 167 1
217 322 1
217 339 1
217 373 1
217 520 1
217 537 1
217 571 1
218 117 1
218 134 1
218 168 1
218 323 1
218 340 1
218 374 1
218 521 1
218 538 1
218 572 1
219 118 1
219 135 1
219 169 1
219 307 1
219 324 1
219 358 1
219 522 1
219 539 1
219 573 1
220 119 1
220 136 1
220 170 1
220 308 1
220 325 1
220 359 1
220 523 1
220 540 1
220 574 1
221 103 1
221 120 1
221 154 1
221 309 1
221 326 1
221 360 1
221 524 1
221 541 1
221 575 1
222 104 1
222 138 1
222 172 1
222 310 1
222 344 1
222 378 1
222 525 1
222 559 1
222 593 1
223 105 1
223 139 1
223 173 1
223 311 1
223 345 1
223 379 1
223 526 1
223 560 1
223 594 1
224 106 1
224 140 1
224 174 1
224 312 1
224 346 1
224 380 1
224 527 1
224 561 1
224 595 1
225 107 1
225 141 1
225 175 1
225 313 1
225 347 1
225 381 1
225 511 1
225 545 1
225 579 1
226 108 1
226 142 1
226 176 1
226 314 1
226 348 1
226 382 1
226 512 1
226 546 1
226 580 1
227 109 1
227 143 1
227 177 1
227 315 1
227 349 1
227 383 1
227 513 1
227 547 1
227 581 1
228 110 1
228 144 1
228 178 1
228 316 1
228 350 1
228 384 1
228 514 1
228 548 1
228 582 1
229 111 1
229 145 1
229 179 1
229 317 1
229 351 1
229 385 1
229 515 1
229 549 1
229 583 1
230 112 1
230 146 1
230 180 1
230 318 1
230 352 1
230 386 1
230 516 1
230 550 1
230 584 1
231 113 1
231 147 1
231 181 1
231 319 1
231 353 1
231 387 1
231 517 1
231 551 1
231 585 1
232 114 1
232 148 1
232 182 1
232 320 1
232 354 1
232 388 1
232 518 1
232 552 1
232 586 1
233 115 1
233 149 1
233 183 1
233 321 1
233 355 1
233 389 1
233 519 1
233 553 1
233 587 1
234 116 1
234 150 1
234 184 1
234 322 1
234 356 1
234 390 1
234 520 1
234 554 1
234 588 1
235 117 1
235 151 1
235 185 1
235 323 1
235 357 1
235 391 1
235 521 1
235 555 1
235 589 1
236 118 1
236 152 1
236 186 1
236 307 1
236 341 1
236 375 1
236 522 1
236 556 1
236 590 1
237 119 1
237 153 1
237 187 1
237 308 1
237 342 1
237 376 1
237 523 1
237 557 1
237 591 1
238 103 1
238 137 1
238 171 1
238 309 1
238 343 1
238 377 1
238 524 1
238 558 1
238 592 1
239 121 1
239 138 1
239 189 1
239 327 1
239 344 1
239 395 1
239 542 1
239 559 1
239 610 1
240 122 1
240 139 1
240 190 1
240 328 1
240 345 1
240 396 1
240 543 1
240 560 1
240 611 1
241 123 1
241 140 1
241 191 1
241 329 1
241 346 1
241 397 1
241 544 1
241 561 1
241 612 1
242 124 1
242 141 1
242 192 1
242 330 1
242 347 1
242 398 1
242 528 1
242 545 1
242 596 1
243 125 1
243 142 1
243 193 1
243 331 1
243 348 1
243 399 1
243 529 1
243 546 1
243 597 1
244 126 1
244 143 1
244 194 1
244 332 1
244 349 1
244 400 1
244 530 1
244 547 1
244 598 1
245 127 1
245 144 1
245 195 1
245 333 1
245 350 1
245 401 1
245 531 1
245 548 1
245 599 1
246 128 1
246 145 1
246 196 1
246 334 1
246 351 1
246 402 1
246 532 1
246 549 1
246 600 1
247 129 1
247 146 1
247 197 1
247 335 1
247 352 1
247 403 1
247 533 1
247 550 1
247 601 1
248 130 1
248 147 1
248 198 1
248 336 1
248 353 1
248 404 1
248 534 1
248 551 1
248 602 1
249 131 1
249 148 1
249 199 1
249 337 1
249 354 1
249 405 1
249 535 1
249 552 1
249 603 1
250 132 1
250 149 1
250 200 1
250 338 1
250 355 1
250 406 1
250 536 1
250 553 1
250 604 1
251 133 1
251 150 1
251 201 1
251 339 1
251 356 1
251 407 1
251 537 1
251 554 1
251 605 1
252 134 1
252 151 1
252 202 1
252 340 1
252 357 1
252 408 1
252 538 1
252 555 1
252 606 1
253 135 1
253 152 1
253 203 1
253 324 1
253 341 1
253 392 1
253 539 1
253 556 1
253 607 1
254 136 1
254 153 1
254 204 1
254 325 1
254 342 1
254 393 1
254 540 1
254 557 1
254 608 1
255 120 1
255 137 1
255 188 1
255 326 1
255 343 1
255 394 1
255 541 1
255 558 1
255 609 1
256 208 1
256 225 1
256 259 1
256 416 1
256 433 1
256 467 1
256 525 1
256 542 1
256 576 1
257 209 1
257 226 1
257 260 1
257 417 1
257 434 1
257 468 1
257 526 1
257 543 1
257 577 1
258 210 1
258 227 1
258 261 1
258 418 1
258 435 1
258 469 1
258 527 1
258 544 1
258 578 1
259 211 1
259 228 1
259 262 1
259 419 1
259 436 1
259 470 1
259 511 1
259 528 1
259 562 1
260 212 1
260 229 1
260 263 1
260 420 1
260 437 1
260 471 1
260 512 1
260 529 1
260 563 1
261 213 1
261 230 1
261 264 1
261 421 1
261 438 1
261 472 1
261 513 1
261 530 1
261 564 1
262 214 1
262 231 1
262 265 1
262 422 1
262 439 1
262 473 1
262 514 1
262 531 1
262 565 1
263 215 1
263 232 1
263 266 1
263 423 1
263 440 1
263 474 1
263 515 1
263 532 1
263 566 1
264 216 1
264 233 1
264 267 1
264 424 1
264 441 1
264 475 1
264 516 1
264 533 1
264 567 1
265 217 1
265 234 1
265 268 1
265 425 1
265 442 1
265 476 1
265 517 1
265 534 1
265 568 1
266 218 1
266 235 1
266 269 1
266 409 1
266 426 1
266 460 1
266 518 1
266 535 1
266 569 1
267 219 1
267 236 1
267 270 1
267 410 1
267 427 1
267 461 1
267 519 1
267 536 1
267 570 1
268 220 1
268 237 1
268 271 1
268 411 1
268 428 1
268 462 1
268 520 1
268 537 1
268 571 1
269 221 1
269 238 1
269 272 1
269 412 1
269 429 1
269 463 1
269 521 1
269 538 1
269 572 1
270 205 1
270 222 1
270 256 1
270 413 1
270 430 1
270 464 1
270 522 1
270 539 1
270 573 1
271 206 1
271 223 1
271 257 1
271 414 1
271 431 1
271 465 1
271 523 1
271 540 1
271 574 1
272 207 1
272 224 1
272 258 1
272 415 1
272 432 1
272 466 1
272 524 1
272 541 1
272 575 1
273 208 1
273 242 1
273 276 1
273 416 1
273 450 1
273 484 1
273 525 1
273 559 1
273 593 1
274 209 1
274 243 1
274 277 1
274 417 1
274 451 1
274 485 1
274 526 1
274 560 1
274 594 1
275 210 1
275 244 1
275 278 1
275 418 1
275 452 1
275 486 1
275 527 1
275 561 1
275 595 1
276 211 1
276 245 1
276 279 1
276 419 1
276 453 1
276 487 1
276 511 1
276 545 1
276 579 1
277 212 1
277 246 1
277 280 1
277 420 1
277 454 1
277 488 1
277 512 1
277 546 1
277 580 1
278 213 1
278 247 1
278 281 1
278 421 1
278 455 1
278 489 1
278 513 1
278 547 1
278 581 1
279 214 1
279 248 1
279 282 1
279 422 1
279 456 1
279 490 1
279 514 1
279 548 1
279 582 1
280 215 1
280 249 1
280 283 1
280 423 1
280 457 1
280 491 1
280 515 1
280 549 1
280 583 1
281 216 1
281 250 1
281 284 1
281 424 1
281 458 1
281 492 1
281 516 1
281 550 1
281 584 1
282 217 1
282 251 1
282 285 1
282 425 1
282 459 1
282 493 1
282 517 1
282 551 1
282 585 1
283 218 1
283 252 1
283 286 1
283 409 1
283 443 1
283 477 1
283 518 1
283 552 1
283 586 1
284 219 1
284 253 1
284 287 1
284 410 1
284 444 1
284 478 1
284 519 1
284 553 1
284 587 1
285 220 1
285 254 1
285 288 1
285 411 1
285 445 1
285 479 1
285 520 1
285 554 1
285 588 1
286 221 1
286 255 1
286 289 1
286 412 1
286 446 1
286 480 1
286 521 1
286 555 1
286 589 1
287 205 1
287 239 1
287 273 1
287 413 1
287 447 1
287 481 1
287 522 1
287 556 1
287 590 1
288 206 1
288 240 1
288 274 1
288 414 1
288 448 1
288 482 1
288 523 1
288 557 1
288 591 1
289 207 1
289 241 1
289 275 1
289 415 1
289 449 1
289 483 1
289 524 1
289 558 1
289 592 1
290 225 1
290 242 1
290 293 1
290 433 1
290 450 1
290 501 1
290 542 1
290 559 1
290 610 1
291 226 1
291 243 1
291 294 1
291 434 1
291 451 1
291 502 1
291 543 1
291 560 1
291 611 1
292 227 1
292 244 1
292 295 1
292 435 1
292 452 1
292 503 1
292 544 1
292 561 1
292 612 1
293 228 1
293 245 1
293 296 1
293 436 1
293 453 1
293 504 1
293 528 1
293 545 1
293 596 1
294 229 1
294 246 1
294 297 1
294 437 1
294 454 1
294 505 1
294 529 1
294 546 1
294 597 1
295 230 1
295 247 1
295 298 1
295 438 1
295 455 1
295 506 1
295 530 1
295 547 1
295 598 1
296 231 1
296 248 1
296 299 1
296 439 1
296 456 1
296 507 1
296 531 1
296 548 1
296 599 1
297 232 1
297 249 1
297 300 1
297 440 1
297 457 1
297 508 1
297 532 1
297 549 1
297 600 1
298 233 1
298 250 1
298 301 1
298 441 1
298 458 1
298 509 1
298 533 1
298 550 1
298 601 1
299 234 1
299 251 1
299 302 1
299 442 1
299 459 1
299 510 1
299 534 1
299 551 1
299 602 1
300 235 1
300 252 1
300 303 1
300 426 1
300 443 1
300 494 1
300 535 1
300 552 1
300 603 1
301 236 1
301 253 1
301 304 1
301 427 1
301 444 1
301 495 1
301 536 1
301 553 1
301 604 1
302 237 1
302 254 1
302 305 1
302 428 1
302 445 1
302 496 1
302 537 1
302 554 1
302 605 1
303 238 1
303 255 1
303 306 1
303 429 1
303 446 1
303 497 1
303 538 1
303 555 1
303 606 1
304 222 1
304 239 1
304 290 1
304 430 1
304 447 1
304 498 1
304 539 1
304 556 1
304 607 1
305 223 1
305 240 1
305 291 1
305 431 1
305 448 1
305 499 1
305 540 1
305 557 1
305 608 1
306 224 1
306 241 1
306 292 1
306 432 1
306 449 1
306 500 1
306 541 1
306 558 1
306 609 1
