%%MatrixMarket matrix coordinate integer general
160 320 2560
1 1 1
1 21 1
1 26 1
1 31 1
1 161 1
1 181 1
1 186 1
1 191 1
1 201 1
1 221 1
1 226 1
1 231 1
1 241 1
1 261 1
1 266 1
1 271 1
2 2 1
2 22 1
2 27 1
2 32 1
2 162 1
2 182 1
2 187 1
2 192 1
2 202 1
2 222 1
2 227 1
2 232 1
2 242 1
2 262 1
2 267 1
2 272 1
3 3 1
3 23 1
3 28 1
3 33 1
3 163 1
3 183 1
3 188 1
3 193 1
3 203 1
3 223 1
3 228 1
3 233 1
3 243 1
3 263 1
3 268 1
3 273 1
4 4 1
4 24 1
4 29 1
4 34 1
4 164 1
4 184 1
4 189 1
4 194 1
4 204 1
4 224 1
4 229 1
4 234 1
4 244 1
4 264 1
4 269 1
4 274 1
5 5 1
5 25 1
5 30 1
5 35 1
5 165 1
5 185 1
5 190 1
5 195 1
5 205 1
5 225 1
5 230 1
5 235 1
5 245 1
5 265 1
5 270 1
5 275 1
6 6 1
6 21 1
6 26 1
6 36 1
6 166 1
6 181 1
6 186 1
6 196 1
6 206 1
6 221 1
6 226 1
6 236 1
6 246 1
6 261 1
6 266 1
6 276 1
7 7 1
7 22 1
7 27 1
7 37 1
7 167 1
7 182 1
7 187 1
7 197 1
7 207 1
7 222 1
7 227 1
7 237 1
7 247 1
7 262 1
7 267 1
7 277 1
8 8 1
8 23 1
8 28 1
8 38 1
8 168 1
8 183 1
8 188 1
8 198 1
8 208 1
8 223 1
8 228 1
8 238 1
8 248 1
8 263 1
8 268 1
8 278 1
9 9 1
9 24 1
9 29 1
9 39 1
9 169 1
9 184 1
9 189 1
9 199 1
9 209 1
9 224 1
9 229 1
9 239 1
9 249 1
9 264 1
9 269 1
9 279 1
10 10 1
10 25 1
10 30 1
10 40 1
10 170 1
10 185 1
10 190 1
10 200 1
10 210 1
10 225 1
10 230 1
10 240 1
10 250 1
10 265 1
10 270 1
10 280 1
11 11 1
11 21 1
11 31 1
11 36 1
11 171 1
11 181 1
11 191 1
11 196 1
11 211 1
11 221 1
11 231 1
11 236 1
11 251 1
11 261 1
11 271 1
11 276 1
12 12 1
12 22 1
12 32 1
12 37 1
12 172 1
12 182 1
12 192 1
12 197 1
12 212 1
12 222 1
12 232 1
12 237 1
12 252 1
12 262 1
12 272 1
12 277 1
13 13 1
13 23 1
13 33 1
13 38 1
13 173 1
13 183 1
13 193 1
13 198 1
13 213 1
13 223 1
13 233 1
13 238 1
13 253 1
13 263 1
13 273 1
13 278 1
14 14 1
14 24 1
14 34 1
14 39 1
14 174 1
14 184 1
14 194 1
14 199 1
14 214 1
14 224 1
14 234 1
14 239 1
14 254 1
14 264 1
14 274 1
14 279 1
15 15 1
15 25 1
15 35 1
15 40 1
15 175 1
15 185 1
15 195 1
15 200 1
15 215 1
15 225 1
15 235 1
15 240 1
15 255 1
15 265 1
15 275 1
15 280 1
16 16 1
16 26 1
16 31 1
16 36 1
16 176 1
16 186 1
16 191 1
16 196 1
16 216 1
16 226 1
16 231 1
16 236 1
16 256 1
16 266 1
16 271 1
16 276 1
17 17 1
17 27 1
17 32 1
17 37 1
17 177 1
17 187 1
17 192 1
17 197 1
17 217 1
17 227 1
17 232 1
17 237 1
17 257 1
17 267 1
17 272 1
17 277 1
18 18 1
18 28 1
18 33 1
18 38 1
18 178 1
18 188 1
18 193 1
18 198 1
18 218 1
18 228 1
18 233 1
18 238 1
18 258 1
18 268 1
18 273 1
18 278 1
19 19 1
19 29 1
19 34 1
19 39 1
19 179 1
19 189 1
19 194 1
19 199 1
19 219 1
19 229 1
19 234 1
19 239 1
19 259 1
19 269 1
19 274 1
19 279 1
20 20 1
20 30 1
20 35 1
20 40 1
20 180 1
20 190 1
20 195 1
20 200 1
20 220 1
20 230 1
20 235 1
20 240 1
20 260 1
20 270 1
20 275 1
20 280 1
21 41 1
21 61 1
21 66 1
21 71 1
21 161 1
21 181 1
21 186 1
21 191 1
21 201 1
21 221 1
21 226 1
21 231 1
21 281 1
21 301 1
21 306 1
21 311 1
22 42 1
22 62 1
22 67 1
22 72 1
22 162 1
22 182 1
22 187 1
22 192 1
22 202 1
22 222 1
22 227 1
22 232 1
22 282 1
22 302 1
22 307 1
22 312 1
23 43 1
23 63 1
23 68 1
23 73 1
23 163 1
23 183 1
23 188 1
23 193 1
23 203 1
23 223 1
23 228 1
23 233 1
23 283 1
23 303 1
23 308 1
23 313 1
24 44 1
24 64 1
24 69 1
24 74 1
24 164 1
24 184 1
24 189 1
24 194 1
24 204 1
24 224 1
24 229 1
24 234 1
24 284 1
24 304 1
24 309 1
24 314 1
25 45 1
25 65 1
25 70 1
25 75 1
25 165 1
25 185 1
25 190 1
25 195 1
25 205 1
25 225 1
25 230 1
25 235 1
25 285 1
25 305 1
25 310 1
25 315 1
26 46 1
26 61 1
26 66 1
26 76 1
26 166 1
26 181 1
26 186 1
26 196 1
26 206 1
26 221 1
26 226 1
26 236 1
26 286 1
26 301 1
26 306 1
26 316 1
27 47 1
27 62 1
27 67 1
27 77 1
27 167 1
27 182 1
27 187 1
27 197 1
27 207 1
27 222 1
27 227 1
27 237 1
27 287 1
27 302 1
27 307 1
27 317 1
28 48 1
28 63 1
28 68 1
28 78 1
28 168 1
28 183 1
28 188 1
28 198 1
28 208 1
28 223 1
28 228 1
28 238 1
28 288 1
28 303 1
28 308 1
28 318 1
29 49 1
29 64 1
29 69 1
29 79 1
29 169 1
29 184 1
29 189 1
29 199 1
29 209 1
29 224 1
29 229 1
29 239 1
29 289 1
29 304 1
29 309 1
29 319 1
30 50 1
30 65 1
30 70 1
30 80 1
30 170 1
30 185 1
30 190 1
30 200 1
30 210 1
30 225 1
30 230 1
30 240 1
30 290 1
30 305 1
30 310 1
30 320 1
31 51 1
31 61 1
31 71 1
31 76 1
31 171 1
31 181 1
31 191 1
31 196 1
31 211 1
31 221 1
31 231 1
31 236 1
31 291 1
31 301 1
31 311 1
31 316 1
32 52 1
32 62 1
32 72 1
32 77 1
32 172 1
32 182 1
32 192 1
32 197 1
32 212 1
32 222 1
32 232 1
32 237 1
32 292 1
32 302 1
32 312 1
32 317 1
33 53 1
33 63 1
33 73 1
33 78 1
33 173 1
33 183 1
33 193 1
33 198 1
33 213 1
33 223 1
33 233 1
33 238 1
33 293 1
33 303 1
33 313 1
33 318 1
34 54 1
34 64 1
34 74 1
34 79 1
34 174 1
34 184 1
34 194 1
34 199 1
34 214 1
34 224 1
34 234 1
34 239 1
34 294 1
34 304 1
34 314 1
34 319 1
35 55 1
35 65 1
35 75 1
35 80 1
35 175 1
35 185 1
35 195 1
35 200 1
35 215 1
35 225 1
35 235 1
35 240 1
35 295 1
35 305 1
35 315 1
35 320 1
36 56 1
36 66 1
36 71 1
36 76 1
36 176 1
36 186 1
36 191 1
36 196 1
36 216 1
36 226 1
36 231 1
36 236 1
36 296 1
36 306 1
36 311 1
36 316 1
37 57 1
37 67 1
37 72 1
37 77 1
37 177 1
37 187 1
37 192 1
37 197 1
37 217 1
37 227 1
37 232 1
37 237 1
37 297 1
37 307 1
37 312 1
37 317 1
38 58 1
38 68 1
38 73 1
38 78 1
38 178 1
38 188 1
38 193 1
38 198 1
38 218 1
38 228 1
38 233 1
38 238 1
38 298 1
38 308 1
38 313 1
38 318 1
39 59 1
39 69 1
39 74 1
39 79 1
39 179 1
39 189 1
39 194 1
39 199 1
39 219 1
39 229 1
39 234 1
39 239 1
39 299 1
39 309 1
39 314 1
39 319 1
40 60 1
40 70 1
40 75 1
40 80 1
40 180 1
40 190 1
40 195 1
40 200 1
40 220 1
40 230 1
40 235 1
40 240 1
40 300 1
40 310 1
40 315 1
40 320 1
41 81 1
41 101 1
41 106 1
41 111 1
41 161 1
41 181 1
41 186 1
41 191 1
41 241 1
41 261 1
41 266 1
41 271 1
41 281 1
41 301 1
41 306 1
41 311 1
42 82 1
42 102 1
42 107 1
42 112 1
42 162 1
42 182 1
42 187 1
42 192 1
42 242 1
42 262 1
42 267 1
42 272 1
42 282 1
42 302 1
42 307 1
42 312 1
43 83 1
43 103 1
43 108 1
43 113 1
43 163 1
43 183 1
43 188 1
43 193 1
43 243 1
43 263 1
43 268 1
43 273 1
43 283 1
43 303 1
43 308 1
43 313 1
44 84 1
44 104 1
44 109 1
44 114 1
44 164 1
44 184 1
44 189 1
44 194 1
44 244 1
44 264 1
44 269 1
44 274 1
44 284 1
44 304 1
44 309 1
44 314 1
45 85 1
45 105 1
45 110 1
45 115 1
45 165 1
45 185 1
45 190 1
45 195 1
45 245 1
45 265 1
45 270 1
45 275 1
45 285 1
45 305 1
45 310 1
45 315 1
46 86 1
46 101 1
46 106 1
46 116 1
46 166 1
46 181 1
46 186 1
46 196 1
46 246 1
46 261 1
46 266 1
46 276 1
46 286 1
46 301 1
46 306 1
46 316 1
47 87 1
47 102 1
47 107 1
47 117 1
47 167 1
47 182 1
47 187 1
47 197 1
47 247 1
47 262 1
47 267 1
47 277 1
47 287 1
47 302 1
47 307 1
47 317 1
48 88 1
48 103 1
48 108 1
48 118 1
48 168 1
48 183 1
48 188 1
48 198 1
48 248 1
48 263 1
48 268 1
48 278 1
48 288 1
48 303 1
48 308 1
48 318 1
49 89 1
49 104 1
49 109 1
49 119 1
49 169 1
49 184 1
49 189 1
49 199 1
49 249 1
49 264 1
49 269 1
49 279 1
49 289 1
49 304 1
49 309 1
49 319 1
50 90 1
50 105 1
50 110 1
50 120 1
50 170 1
50 185 1
50 190 1
50 200 1
50 250 1
50 265 1
50 270 1
50 280 1
50 290 1
50 305 1
50 310 1
50 320 1
51 91 1
51 101 1
51 111 1
51 116 1
51 171 1
51 181 1
51 191 1
51 196 1
51 251 1
51 261 1
51 271 1
51 276 1
51 291 1
51 301 1
51 311 1
51 316 1
52 92 1
52 102 1
52 112 1
52 117 1
52 172 1
52 182 1
52 192 1
52 197 1
52 252 1
52 262 1
52 272 1
52 277 1
52 292 1
52 302 1
52 312 1
52 317 1
53 93 1
53 103 1
53 113 1
53 118 1
53 173 1
53 183 1
53 193 1
53 198 1
53 253 1
53 263 1
53 273 1
53 278 1
53 293 1
53 303 1
53 313 1
53 318 1
54 94 1
54 104 1
54 114 1
54 119 1
54 174 1
54 184 1
54 194 1
54 199 1
54 254 1
54 264 1
54 274 1
54 279 1
54 294 1
54 304 1
54 314 1
54 319 1
55 95 1
55 105 1
55 115 1
55 120 1
55 175 1
55 185 1
55 195 1
55 200 1
55 255 1
55 265 1
55 275 1
55 280 1
55 295 1
55 305 1
55 315 1
55 320 1
56 96 1
56 106 1
56 111 1
56 116 1
56 176 1
56 186 1
56 191 1
56 196 1
56 256 1
56 266 1
56 271 1
56 276 1
56 296 1
56 306 1
56 311 1
56 316 1
57 97 1
57 107 1
57 112 1
57 117 1
57 177 1
57 187 1
57 192 1
57 197 1
57 257 1
57 267 1
57 272 1
57 277 1
57 297 1
57 307 1
57 312 1
57 317 1
58 98 1
58 108 1
58 113 1
58 118 1
58 178 1
58 188 1
58 193 1
58 198 1
58 258 1
58 268 1
58 273 1
58 278 1
58 298 1
58 308 1
58 313 1
58 318 1
59 99 1
59 109 1
59 114 1
59 119 1
59 179 1
59 189 1
59 194 1
59 199 1
59 259 1
59 269 1
59 274 1
59 279 1
59 299 1
59 309 1
59 314 1
59 319 1
60 100 1
60 110 1
60 115 1
60 120 1
60 180 1
60 190 1
60 195 1
60 200 1
60 260 1
60 270 1
60 275 1
60 280 1
60 300 1
60 310 1
60 315 1
60 320 1
61 121 1
61 141 1
61 146 1
61 151 1
61 201 1
61 221 1
61 226 1
61 231 1
61 241 1
61 261 1
61 266 1
61 271 1
61 281 1
61 301 1
61 306 1
61 311 1
62 122 1
62 142 1
62 147 1
62 152 1
62 202 1
62 222 1
62 227 1
62 232 1
62 242 1
62 262 1
62 267 1
62 272 1
62 282 1
62 302 1
62 307 1
62 312 1
63 123 1
63 143 1
63 148 1
63 153 1
63 203 1
63 223 1
63 228 1
63 233 1
63 243 1
63 263 1
63 268 1
63 273 1
63 283 1
63 303 1
63 308 1
63 313 1
64 124 1
64 144 1
64 149 1
64 154 1
64 204 1
64 224 1
64 229 1
64 234 1
64 244 1
64 264 1
64 269 1
64 274 1
64 284 1
64 304 1
64 309 1
64 314 1
65 125 1
65 145 1
65 150 1
65 155 1
65 205 1
65 225 1
65 230 1
65 235 1
65 245 1
65 265 1
65 270 1
65 275 1
65 285 1
65 305 1
65 310 1
65 315 1
66 126 1
66 141 1
66 146 1
66 156 1
66 206 1
66 221 1
66 226 1
66 236 1
66 246 1
66 261 1
66 266 1
66 276 1
66 286 1
66 301 1
66 306 1
66 316 1
67 127 1
67 142 1
67 147 1
67 157 1
67 207 1
67 222 1
67 227 1
67 237 1
67 247 1
67 262 1
67 267 1
67 277 1
67 287 1
67 302 1
67 307 1
67 317 1
68 128 1
68 143 1
68 148 1
68 158 1
68 208 1
68 223 1
68 228 1
68 238 1
68 248 1
68 263 1
68 268 1
68 278 1
68 288 1
68 303 1
68 308 1
68 318 1
69 129 1
69 144 1
69 149 1
69 159 1
69 209 1
69 224 1
69 229 1
69 239 1
69 249 1
69 264 1
69 269 1
69 279 1
69 289 1
69 304 1
69 309 1
69 319 1
70 130 1
70 145 1
70 150 1
70 160 1
70 210 1
70 225 1
70 230 1
70 240 1
70 250 1
70 265 1
70 270 1
70 280 1
70 290 1
70 305 1
70 310 1
70 320 1
71 131 1
71 141 1
71 151 1
71 156 1
71 211 1
71 221 1
71 231 1
71 236 1
71 251 1
71 261 1
71 271 1
71 276 1
71 291 1
71 301 1
71 311 1
71 316 1
72 132 1
72 142 1
72 152 1
72 157 1
72 212 1
72 222 1
72 232 1
72 237 1
72 252 1
72 262 1
72 272 1
72 277 1
72 292 1
72 302 1
72 312 1
72 317 1
73 133 1
73 143 1
73 153 1
73 158 1
73 213 1
73 223 1
73 233 1
73 238 1
73 253 1
73 263 1
73 273 1
73 278 1
73 293 1
73 303 1
73 313 1
73 318 1
74 134 1
74 144 1
74 154 1
74 159 1
74 214 1
74 224 1
74 234 1
74 239 1
74 254 1
74 264 1
74 274 1
74 279 1
74 294 1
74 304 1
74 314 1
74 319 1
75 135 1
75 145 1
75 155 1
75 160 1
75 215 1
75 225 1
75 235 1
75 240 1
75 255 1
75 265 1
75 275 1
75 280 1
75 295 1
75 305 1
75 315 1
75 320 1
76 136 1
76 146 1
76 151 1
76 156 1
76 216 1
76 226 1
76 231 1
76 236 1
76 256 1
76 266 1
76 271 1
76 276 1
76 296 1
76 306 1
76 311 1
76 316 1
77 137 1
77 147 1
77 152 1
77 157 1
77 217 1
77 227 1
77 232 1
77 237 1
77 257 1
77 267 1
77 272 1
77 277 1
77 297 1
77 307 1
77 312 1
77 317 1
78 138 1
78 148 1
78 153 1
78 158 1
78 218 1
78 228 1
78 233 1
78 238 1
78 258 1
78 268 1
78 273 1
78 278 1
78 298 1
78 308 1
78 313 1
78 318 1
79 139 1
79 149 1
79 154 1
79 159 1
79 219 1
79 229 1
79 234 1
79 239 1
79 259 1
79 269 1
79 274 1
79 279 1
79 299 1
79 309 1
79 314 1
79 319 1
80 140 1
80 150 1
80 155 1
80 160 1
80 220 1
80 230 1
80 235 1
80 240 1
80 260 1
80 270 1
80 275 1
80 280 1
80 300 1
80 310 1
80 315 1
80 320 1
81 1 1
81 21 1
81 26 1
81 40 1
81 161 1
81 181 1
81 186 1
81 200 1
81 201 1
81 221 1
81 226 1
81 240 1
81 282 1
81 302 1
81 307 1
81 316 1
82 2 1
82 22 1
82 27 1
82 36 1
82 162 1
82 182 1
82 187 1
82 196 1
82 202 1
82 222 1
82 227 1
82 236 1
82 283 1
82 303 1
82 308 1
82 317 1
83 3 1
83 23 1
83 28 1
83 37 1
83 163 1
83 183 1
83 188 1
83 197 1
83 203 1
83 223 1
83 228 1
83 237 1
83 284 1
83 304 1
83 309 1
83 318 1
84 4 1
84 24 1
84 29 1
84 38 1
84 164 1
84 184 1
84 189 1
84 198 1
84 204 1
84 224 1
84 229 1
84 238 1
84 285 1
84 305 1
84 310 1
84 319 1
85 5 1
85 25 1
85 30 1
85 39 1
85 165 1
85 185 1
85 190 1
85 199 1
85 205 1
85 225 1
85 230 1
85 239 1
85 281 1
85 301 1
85 306 1
85 320 1
86 6 1
86 21 1
86 31 1
86 40 1
86 166 1
86 181 1
86 191 1
86 200 1
86 206 1
86 221 1
86 231 1
86 240 1
86 287 1
86 302 1
86 312 1
86 316 1
87 7 1
87 22 1
87 32 1
87 36 1
87 167 1
87 182 1
87 192 1
87 196 1
87 207 1
87 222 1
87 232 1
87 236 1
87 288 1
87 303 1
87 313 1
87 317 1
88 8 1
88 23 1
88 33 1
88 37 1
88 168 1
88 183 1
88 193 1
88 197 1
88 208 1
88 223 1
88 233 1
88 237 1
88 289 1
88 304 1
88 314 1
88 318 1
89 9 1
89 24 1
89 34 1
89 38 1
89 169 1
89 184 1
89 194 1
89 198 1
89 209 1
89 224 1
89 234 1
89 238 1
89 290 1
89 305 1
89 315 1
89 319 1
90 10 1
90 25 1
90 35 1
90 39 1
90 170 1
90 185 1
90 195 1
90 199 1
90 210 1
90 225 1
90 235 1
90 239 1
90 286 1
90 301 1
90 311 1
90 320 1
91 11 1
91 26 1
91 31 1
91 40 1
91 171 1
91 186 1
91 191 1
91 200 1
91 211 1
91 226 1
91 231 1
91 240 1
91 292 1
91 307 1
91 312 1
91 316 1
92 12 1
92 27 1
92 32 1
92 36 1
92 172 1
92 187 1
92 192 1
92 196 1
92 212 1
92 227 1
92 232 1
92 236 1
92 293 1
92 308 1
92 313 1
92 317 1
93 13 1
93 28 1
93 33 1
93 37 1
93 173 1
93 188 1
93 193 1
93 197 1
93 213 1
93 228 1
93 233 1
93 237 1
93 294 1
93 309 1
93 314 1
93 318 1
94 14 1
94 29 1
94 34 1
94 38 1
94 174 1
94 189 1
94 194 1
94 198 1
94 214 1
94 229 1
94 234 1
94 238 1
94 295 1
94 310 1
94 315 1
94 319 1
95 15 1
95 30 1
95 35 1
95 39 1
95 175 1
95 190 1
95 195 1
95 199 1
95 215 1
95 230 1
95 235 1
95 239 1
95 291 1
95 306 1
95 311 1
95 320 1
96 16 1
96 21 1
96 26 1
96 31 1
96 176 1
96 181 1
96 186 1
96 191 1
96 216 1
96 221 1
96 226 1
96 231 1
96 297 1
96 302 1
96 307 1
96 312 1
97 17 1
97 22 1
97 27 1
97 32 1
97 177 1
97 182 1
97 187 1
97 192 1
97 217 1
97 222 1
97 227 1
97 232 1
97 298 1
97 303 1
97 308 1
97 313 1
98 18 1
98 23 1
98 28 1
98 33 1
98 178 1
98 183 1
98 188 1
98 193 1
98 218 1
98 223 1
98 228 1
98 233 1
98 299 1
98 304 1
98 309 1
98 314 1
99 19 1
99 24 1
99 29 1
99 34 1
99 179 1
99 184 1
99 189 1
99 194 1
99 219 1
99 224 1
99 229 1
99 234 1
99 300 1
99 305 1
99 310 1
99 315 1
100 20 1
100 25 1
100 30 1
100 35 1
100 180 1
100 185 1
100 190 1
100 195 1
100 220 1
100 225 1
100 230 1
100 235 1
100 296 1
100 301 1
100 306 1
100 311 1
101 41 1
101 61 1
101 66 1
101 80 1
101 161 1
101 181 1
101 186 1
101 200 1
101 241 1
101 261 1
101 266 1
101 280 1
101 282 1
101 302 1
101 307 1
101 316 1
102 42 1
102 62 1
102 67 1
102 76 1
102 162 1
102 182 1
102 187 1
102 196 1
102 242 1
102 262 1
102 267 1
102 276 1
102 283 1
102 303 1
102 308 1
102 317 1
103 43 1
103 63 1
103 68 1
103 77 1
103 163 1
103 183 1
103 188 1
103 197 1
103 243 1
103 263 1
103 268 1
103 277 1
103 284 1
103 304 1
103 309 1
103 318 1
104 44 1
104 64 1
104 69 1
104 78 1
104 164 1
104 184 1
104 189 1
104 198 1
104 244 1
104 264 1
104 269 1
104 278 1
104 285 1
104 305 1
104 310 1
104 319 1
105 45 1
105 65 1
105 70 1
105 79 1
105 165 1
105 185 1
105 190 1
105 199 1
105 245 1
105 265 1
105 270 1
105 279 1
105 281 1
105 301 1
105 306 1
105 320 1
106 46 1
106 61 1
106 71 1
106 80 1
106 166 1
106 181 1
106 191 1
106 200 1
106 246 1
106 261 1
106 271 1
106 280 1
106 287 1
106 302 1
106 312 1
106 316 1
107 47 1
107 62 1
107 72 1
107 76 1
107 167 1
107 182 1
107 192 1
107 196 1
107 247 1
107 262 1
107 272 1
107 276 1
107 288 1
107 303 1
107 313 1
107 317 1
108 48 1
108 63 1
108 73 1
108 77 1
108 168 1
108 183 1
108 193 1
108 197 1
108 248 1
108 263 1
108 273 1
108 277 1
108 289 1
108 304 1
108 314 1
108 318 1
109 49 1
109 64 1
109 74 1
109 78 1
109 169 1
109 184 1
109 194 1
109 198 1
109 249 1
109 264 1
109 274 1
109 278 1
109 290 1
109 305 1
109 315 1
109 319 1
110 50 1
110 65 1
110 75 1
110 79 1
110 170 1
110 185 1
110 195 1
110 199 1
110 250 1
110 265 1
110 275 1
110 279 1
110 286 1
110 301 1
110 311 1
110 320 1
111 51 1
111 66 1
111 71 1
111 80 1
111 171 1
111 186 1
111 191 1
111 200 1
111 251 1
111 266 1
111 271 1
111 280 1
111 292 1
111 307 1
111 312 1
111 316 1
112 52 1
112 67 1
112 72 1
112 76 1
112 172 1
112 187 1
112 192 1
112 196 1
112 252 1
112 267 1
112 272 1
112 276 1
112 293 1
112 308 1
112 313 1
112 317 1
113 53 1
113 68 1
113 73 1
113 77 1
113 173 1
113 188 1
113 193 1
113 197 1
113 253 1
113 268 1
113 273 1
113 277 1
113 294 1
113 309 1
113 314 1
113 318 1
114 54 1
114 69 1
114 74 1
114 78 1
114 174 1
114 189 1
114 194 1
114 198 1
114 254 1
114 269 1
114 274 1
114 278 1
114 295 1
114 310 1
114 315 1
114 319 1
115 55 1
115 70 1
115 75 1
115 79 1
115 175 1
115 190 1
115 195 1
115 199 1
115 255 1
115 270 1
115 275 1
115 279 1
115 291 1
115 306 1
115 311 1
115 320 1
116 56 1
116 61 1
116 66 1
116 71 1
116 176 1
116 181 1
116 186 1
116 191 1
116 256 1
116 261 1
116 266 1
116 271 1
116 297 1
116 302 1
116 307 1
116 312 1
117 57 1
117 62 1
117 67 1
117 72 1
117 177 1
117 182 1
117 187 1
117 192 1
117 257 1
117 262 1
117 267 1
117 272 1
117 298 1
117 303 1
117 308 1
117 313 1
118 58 1
118 63 1
118 68 1
118 73 1
118 178 1
118 183 1
118 188 1
118 193 1
118 258 1
118 263 1
118 268 1
118 273 1
118 299 1
118 304 1
118 309 1
118 314 1
119 59 1
119 64 1
119 69 1
119 74 1
119 179 1
119 184 1
119 189 1
119 194 1
119 259 1
119 264 1
119 269 1
119 274 1
119 300 1
119 305 1
119 310 1
119 315 1
120 60 1
120 65 1
120 70 1
120 75 1
120 180 1
120 185 1
120 190 1
120 195 1
120 260 1
120 265 1
120 270 1
120 275 1
120 296 1
120 301 1
120 306 1
120 311 1
121 81 1
121 101 1
121 106 1
121 120 1
121 201 1
121 221 1
121 226 1
121 240 1
121 241 1
121 261 1
121 266 1
121 280 1
121 282 1
121 302 1
121 307 1
121 316 1
122 82 1
122 102 1
122 107 1
122 116 1
122 202 1
122 222 1
122 227 1
122 236 1
122 242 1
122 262 1
122 267 1
122 276 1
122 283 1
122 303 1
122 308 1
122 317 1
123 83 1
123 103 1
123 108 1
123 117 1
123 203 1
123 223 1
123 228 1
123 237 1
123 243 1
123 263 1
123 268 1
123 277 1
123 284 1
123 304 1
123 309 1
123 318 1
124 84 1
124 104 1
124 109 1
124 118 1
124 204 1
124 224 1
124 229 1
124 238 1
124 244 1
124 264 1
124 269 1
124 278 1
124 285 1
124 305 1
124 310 1
124 319 1
125 85 1
125 105 1
125 110 1
125 119 1
125 205 1
125 225 1
125 230 1
125 239 1
125 245 1
125 265 1
125 270 1
125 279 1
125 281 1
125 301 1
125 306 1
125 320 1
126 86 1
126 101 1
126 111 1
126 120 1
126 206 1
126 221 1
126 231 1
126 240 1
126 246 1
126 261 1
126 271 1
126 280 1
126 287 1
126 302 1
126 312 1
126 316 1
127 87 1
127 102 1
127 112 1
127 116 1
127 207 1
127 222 1
127 232 1
127 236 1
127 247 1
127 262 1
127 272 1
127 276 1
127 288 1
127 303 1
127 313 1
127 317 1
128 88 1
128 103 1
128 113 1
128 117 1
128 208 1
128 223 1
128 233 1
128 237 1
128 248 1
128 263 1
128 273 1
128 277 1
128 289 1
128 304 1
128 314 1
128 318 1
129 89 1
129 104 1
129 114 1
129 118 1
129 209 1
129 224 1
129 234 1
129 238 1
129 249 1
129 264 1
129 274 1
129 278 1
129 290 1
129 305 1
129 315 1
129 319 1
130 90 1
130 105 1
130 115 1
130 119 1
130 210 1
130 225 1
130 235 1
130 239 1
130 250 1
130 265 1
130 275 1
130 279 1
130 286 1
130 301 1
130 311 1
130 320 1
131 91 1
131 106 1
131 111 1
131 120 1
131 211 1
131 226 1
131 231 1
131 240 1
131 251 1
131 266 1
131 271 1
131 280 1
131 292 1
131 307 1
131 312 1
131 316 1
132 92 1
132 107 1
132 112 1
132 116 1
132 212 1
132 227 1
132 232 1
132 236 1
132 252 1
132 267 1
132 272 1
132 276 1
132 293 1
132 308 1
132 313 1
132 317 1
133 93 1
133 108 1
133 113 1
133 117 1
133 213 1
133 228 1
133 233 1
133 237 1
133 253 1
133 268 1
133 273 1
133 277 1
133 294 1
133 309 1
133 314 1
133 318 1
134 94 1
134 109 1
134 114 1
134 118 1
134 214 1
134 229 1
134 234 1
134 238 1
134 254 1
134 269 1
134 274 1
134 278 1
134 295 1
134 310 1
134 315 1
134 319 1
135 95 1
135 110 1
135 115 1
135 119 1
135 215 1
135 230 1
135 235 1
135 239 1
135 255 1
135 270 1
135 275 1
135 279 1
135 291 1
135 306 1
135 311 1
135 320 1
136 96 1
136 101 1
136 106 1
136 111 1
136 216 1
136 221 1
136 226 1
136 231 1
136 256 1
136 261 1
136 266 1
136 271 1
136 297 1
136 302 1
136 307 1
136 312 1
137 97 1
137 102 1
137 107 1
137 112 1
137 217 1
137 222 1
137 227 1
137 232 1
137 257 1
137 262 1
137 267 1
137 272 1
137 298 1
137 303 1
137 308 1
137 313 1
138 98 1
138 103 1
138 108 1
138 113 1
138 218 1
138 223 1
138 228 1
138 233 1
138 258 1
138 263 1
138 268 1
138 273 1
138 299 1
138 304 1
138 309 1
138 314 1
139 99 1
139 104 1
139 109 1
139 114 1
139 219 1
139 224 1
139 229 1
139 234 1
139 259 1
139 264 1
139 269 1
139 274 1
139 300 1
139 305 1
139 310 1
139 315 1
140 100 1
140 105 1
140 110 1
140 115 1
140 220 1
140 225 1
140 230 1
140 235 1
140 260 1
140 265 1
140 270 1
140 275 1
140 296 1
140 301 1
140 306 1
140 311 1
141 121 1
141 141 1
141 146 1
141 160 1
141 161 1
141 181 1
141 186 1
141 200 1
141 201 1
141 221 1
141 226 1
141 240 1
141 241 1
141 261 1
141 266 1
141 280 1
142 122 1
142 142 1
142 147 1
142 156 1
142 162 1
142 182 1
142 187 1
142 196 1
142 202 1
142 222 1
142 227 1
142 236 1
142 242 1
142 262 1
142 267 1
142 276 1
143 123 1
143 143 1
143 148 1
143 157 1
143 163 1
143 183 1
143 188 1
143 197 1
143 203 1
143 223 1
143 228 1
143 237 1
143 243 1
143 263 1
143 268 1
143 277 1
144 124 1
144 144 1
144 149 1
144 158 1
144 164 1
144 184 1
144 189 1
144 198 1
144 204 1
144 224 1
144 229 1
144 238 1
144 244 1
144 264 1
144 269 1
144 278 1
145 125 1
145 145 1
145 150 1
145 159 1
145 165 1
145 185 1
145 190 1
145 199 1
145 205 1
145 225 1
145 230 1
145 239 1
145 245 1
145 265 1
145 270 1
145 279 1
146 126 1
146 141 1
146 151 1
146 160 1
146 166 1
146 181 1
146 191 1
146 200 1
146 206 1
146 221 1
146 231 1
146 240 1
146 246 1
146 261 1
146 271 1
146 280 1
147 127 1
147 142 1
147 152 1
147 156 1
147 167 1
147 182 1
147 192 1
147 196 1
147 207 1
147 222 1
147 232 1
147 236 1
147 247 1
147 262 1
147 272 1
147 276 1
148 128 1
148 143 1
148 153 1
148 157 1
148 168 1
148 183 1
148 193 1
148 197 1
148 208 1
148 223 1
148 233 1
148 237 1
148 248 1
148 263 1
148 273 1
148 277 1
149 129 1
149 144 1
149 154 1
149 158 1
149 169 1
149 184 1
149 194 1
149 198 1
149 209 1
149 224 1
149 234 1
149 238 1
149 249 1
149 264 1
149 274 1
149 278 1
150 130 1
150 145 1
150 155 1
150 159 1
150 170 1
150 185 1
150 195 1
150 199 1
150 210 1
150 225 1
150 235 1
150 239 1
150 250 1
150 265 1
150 275 1
150 279 1
151 131 1
151 146 1
151 151 1
151 160 1
151 171 1
151 186 1
151 191 1
151 200 1
151 211 1
151 226 1
151 231 1
151 240 1
151 251 1
151 266 1
151 271 1
151 280 1
152 132 1
152 147 1
152 152 1
152 156 1
152 172 1
152 187 1
152 192 1
152 196 1
152 212 1
152 227 1
152 232 1
152 236 1
152 252 1
152 267 1
152 272 1
152 276 1
153 133 1
153 148 1
153 153 1
153 157 1
153 173 1
153 188 1
153 193 1
153 197 1
153 213 1
153 228 1
153 233 1
153 237 1
153 253 1
153 268 1
153 273 1
153 277 1
154 134 1
154 149 1
154 154 1
154 158 1
154 174 1
154 189 1
154 194 1
154 198 1
154 214 1
154 229 1
154 234 1
154 238 1
154 254 1
154 269 1
154 274 1
154 278 1
155 135 1
155 150 1
155 155 1
155 159 1
155 175 1
155 190 1
155 195 1
155 199 1
155 215 1
155 230 1
155 235 1
155 239 1
155 255 1
155 270 1
155 275 1
155 279 1
156 136 1
156 141 1
156 146 1
156 151 1
156 176 1
156 181 1
156 186 1
156 191 1
156 216 1
156 221 1
156 226 1
156 231 1
156 256 1
156 261 1
156 266 1
156 271 1
157 137 1
157 142 1
157 147 1
157 152 1
157 177 1
157 182 1
157 187 1
157 192 1
157 217 1
157 222 1
157 227 1
157 232 1
157 257 1
157 262 1
157 267 1
157 272 1
158 138 1
158 143 1
158 148 1
158 153 1
158 178 1
158 183 1
158 188 1
158 193 1
158 218 1
158 223 1
158 228 1
158 233 1
158 258 1
158 263 1
158 268 1
158 273 1
159 139 1
159 144 1
159 149 1
159 154 1
159 179 1
159 184 1
159 189 1
159 194 1
159 219 1
159 224 1
159 229 1
159 234 1
159 259 1
159 264 1
159 269 1
159 274 1
160 140 1
160 145 1
160 150 1
160 155 1
160 180 1
160 185 1
160 190 1
160 195 1
160 220 1
160 225 1
160 230 1
160 235 1
160 260 1
160 265 1
160 270 1
160 275 1
