%%MatrixMarket matrix coordinate integer general
144 288 1296
1 1 1
1 14 1
1 26 1
1 145 1
1 158 1
1 170 1
1 193 1
1 206 1
1 218 1
2 2 1
2 9 1
2 28 1
2 146 1
2 153 1
2 172 1
2 194 1
2 201 1
2 220 1
3 3 1
3 13 1
3 32 1
3 147 1
3 157 1
3 176 1
3 195 1
3 205 1
3 224 1
4 4 1
4 10 1
4 30 1
4 148 1
4 154 1
4 174 1
4 196 1
4 202 1
4 222 1
5 5 1
5 15 1
5 27 1
5 149 1
5 159 1
5 171 1
5 197 1
5 207 1
5 219 1
6 6 1
6 12 1
6 25 1
6 150 1
6 156 1
6 169 1
6 198 1
6 204 1
6 217 1
7 7 1
7 16 1
7 29 1
7 151 1
7 160 1
7 173 1
7 199 1
7 208 1
7 221 1
8 8 1
8 11 1
8 31 1
8 152 1
8 155 1
8 175 1
8 200 1
8 203 1
8 223 1
9 1 1
9 23 1
9 35 1
9 145 1
9 167 1
9 179 1
9 193 1
9 215 1
9 227 1
10 2 1
10 24 1
10 37 1
10 146 1
10 168 1
10 181 1
10 194 1
10 216 1
10 229 1
11 3 1
11 17 1
11 36 1
11 147 1
11 161 1
11 180 1
11 195 1
11 209 1
11 228 1
12 4 1
12 19 1
12 39 1
12 148 1
12 163 1
12 183 1
12 196 1
12 211 1
12 231 1
13 5 1
13 18 1
13 38 1
13 149 1
13 162 1
13 182 1
13 197 1
13 210 1
13 230 1
14 6 1
14 21 1
14 40 1
14 150 1
14 165 1
14 184 1
14 198 1
14 213 1
14 232 1
15 7 1
15 20 1
15 33 1
15 151 1
15 164 1
15 177 1
15 199 1
15 212 1
15 225 1
16 8 1
16 22 1
16 34 1
16 152 1
16 166 1
16 178 1
16 200 1
16 214 1
16 226 1
17 14 1
17 35 1
17 45 1
17 158 1
17 179 1
17 189 1
17 206 1
17 227 1
17 237 1
18 9 1
18 37 1
18 47 1
18 153 1
18 181 1
18 191 1
18 201 1
18 229 1
18 239 1
19 13 1
19 36 1
19 42 1
19 157 1
19 180 1
19 186 1
19 205 1
19 228 1
19 234 1
20 10 1
20 39 1
20 48 1
20 154 1
20 183 1
20 192 1
20 202 1
20 231 1
20 240 1
21 15 1
21 38 1
21 44 1
21 159 1
21 182 1
21 188 1
21 207 1
21 230 1
21 236 1
22 12 1
22 40 1
22 43 1
22 156 1
22 184 1
22 187 1
22 204 1
22 232 1
22 235 1
23 16 1
23 33 1
23 46 1
23 160 1
23 177 1
23 190 1
23 208 1
23 225 1
23 238 1
24 11 1
24 34 1
24 41 1
24 155 1
24 178 1
24 185 1
24 203 1
24 226 1
24 233 1
25 49 1
25 62 1
25 74 1
25 145 1
25 158 1
25 170 1
25 241 1
25 254 1
25 266 1
26 50 1
26 57 1
26 76 1
26 146 1
26 153 1
26 172 1
26 242 1
26 249 1
26 268 1
27 51 1
27 61 1
27 80 1
27 147 1
27 157 1
27 176 1
27 243 1
27 253 1
27 272 1
28 52 1
28 58 1
28 78 1
28 148 1
28 154 1
28 174 1
28 244 1
28 250 1
28 270 1
29 53 1
29 63 1
29 75 1
29 149 1
29 159 1
29 171 1
29 245 1
29 255 1
29 267 1
30 54 1
30 60 1
30 73 1
30 150 1
30 156 1
30 169 1
30 246 1
30 252 1
30 265 1
31 55 1
31 64 1
31 77 1
31 151 1
31 160 1
31 173 1
31 247 1
31 256 1
31 269 1
32 56 1
32 59 1
32 79 1
32 152 1
32 155 1
32 175 1
32 248 1
32 251 1
32 271 1
33 49 1
33 71 1
33 83 1
33 145 1
33 167 1
33 179 1
33 241 1
33 263 1
33 275 1
34 50 1
34 72 1
34 85 1
34 146 1
34 168 1
34 181 1
34 242 1
34 264 1
34 277 1
35 51 1
35 65 1
35 84 1
35 147 1
35 161 1
35 180 1
35 243 1
35 257 1
35 276 1
36 52 1
36 67 1
36 87 1
36 148 1
36 163 1
36 183 1
36 244 1
36 259 1
36 279 1
37 53 1
37 66 1
37 86 1
37 149 1
37 162 1
37 182 1
37 245 1
37 258 1
37 278 1
38 54 1
38 69 1
38 88 1
38 150 1
38 165 1
38 184 1
38 246 1
38 261 1
38 280 1
39 55 1
39 68 1
39 81 1
39 151 1
39 164 1
39 177 1
39 247 1
39 260 1
39 273 1
40 56 1
40 70 1
40 82 1
40 152 1
40 166 1
40 178 1
40 248 1
40 262 1
40 274 1
41 62 1
41 83 1
41 93 1
41 158 1
41 179 1
41 189 1
41 254 1
41 275 1
41 285 1
42 57 1
42 85 1
42 95 1
42 153 1
42 181 1
42 191 1
42 249 1
42 277 1
42 287 1
43 61 1
43 84 1
43 90 1
43 157 1
43 180 1
43 186 1
43 253 1
43 276 1
43 282 1
44 58 1
44 87 1
44 96 1
44 154 1
44 183 1
44 192 1
44 250 1
44 279 1
44 288 1
45 63 1
45 86 1
45 92 1
45 159 1
45 182 1
45 188 1
45 255 1
45 278 1
45 284 1
46 60 1
46 88 1
46 91 1
46 156 1
46 184 1
46 187 1
46 252 1
46 280 1
46 283 1
47 64 1
47 81 1
47 94 1
47 160 1
47 177 1
47 190 1
47 256 1
47 273 1
47 286 1
48 59 1
48 82 1
48 89 1
48 155 1
48 178 1
48 185 1
48 251 1
48 274 1
48 281 1
49 97 1
49 110 1
49 122 1
49 193 1
49 206 1
49 218 1
49 241 1
49 254 1
49 266 1
50 98 1
50 105 1
50 124 1
50 194 1
50 201 1
50 220 1
50 242 1
50 249 1
50 268 1
51 99 1
51 109 1
51 128 1
51 195 1
51 205 1
51 224 1
51 243 1
51 253 1
51 272 1
52 100 1
52 106 1
52 126 1
52 196 1
52 202 1
52 222 1
52 244 1
52 250 1
52 270 1
53 101 1
53 111 1
53 123 1
53 197 1
53 207 1
53 219 1
53 245 1
53 255 1
53 267 1
54 102 1
54 108 1
54 121 1
54 198 1
54 204 1
54 217 1
54 246 1
54 252 1
54 265 1
55 103 1
55 112 1
55 125 1
55 199 1
55 208 1
55 221 1
55 247 1
55 256 1
55 269 1
56 104 1
56 107 1
56 127 1
56 200 1
56 203 1
56 223 1
56 248 1
56 251 1
56 271 1
57 97 1
57 119 1
57 131 1
57 193 1
57 215 1
57 227 1
57 241 1
57 263 1
57 275 1
58 98 1
58 120 1
58 133 1
58 194 1
58 216 1
58 229 1
58 242 1
58 264 1
58 277 1
59 99 1
59 113 1
59 132 1
59 195 1
59 209 1
59 228 1
59 243 1
59 257 1
59 276 1
60 100 1
60 115 1
60 135 1
60 196 1
60 211 1
60 231 1
60 244 1
60 259 1
60 279 1
61 101 1
61 114 1
61 134 1
61 197 1
61 210 1
61 230 1
61 245 1
61 258 1
61 278 1
62 102 1
62 117 1
62 136 1
62 198 1
62 213 1
62 232 1
62 246 1
62 261 1
62 280 1
63 103 1
63 116 1
63 129 1
63 199 1
63 212 1
63 225 1
63 247 1
63 260 1
63 273 1
64 104 1
64 118 1
64 130 1
64 200 1
64 214 1
64 226 1
64 248 1
64 262 1
64 274 1
65 110 1
65 131 1
65 141 1
65 206 1
65 227 1
65 237 1
65 254 1
65 275 1
65 285 1
66 105 1
66 133 1
66 143 1
66 201 1
66 229 1
66 239 1
66 249 1
66 277 1
66 287 1
67 109 1
67 132 1
67 138 1
67 205 1
67 228 1
67 234 1
67 253 1
67 276 1
67 282 1
68 106 1
68 135 1
68 144 1
68 202 1
68 231 1
68 240 1
68 250 1
68 279 1
68 288 1
69 111 1
69 134 1
69 140 1
69 207 1
69 230 1
69 236 1
69 255 1
69 278 1
69 284 1
70 108 1
70 136 1
70 139 1
70 204 1
70 232 1
70 235 1
70 252 1
70 280 1
70 283 1
71 112 1
71 129 1
71 142 1
71 208 1
71 225 1
71 238 1
71 256 1
71 273 1
71 286 1
72 107 1
72 130 1
72 137 1
72 203 1
72 226 1
72 233 1
72 251 1
72 274 1
72 281 1
73 1 1
73 9 1
73 25 1
73 147 1
73 155 1
73 171 1
73 196 1
73 204 1
73 220 1
74 2 1
74 10 1
74 26 1
74 152 1
74 160 1
74 176 1
74 198 1
74 206 1
74 222 1
75 3 1
75 11 1
75 27 1
75 148 1
75 156 1
75 172 1
75 199 1
75 207 1
75 223 1
76 4 1
76 12 1
76 28 1
76 151 1
76 159 1
76 175 1
76 193 1
76 201 1
76 217 1
77 5 1
77 13 1
77 29 1
77 146 1
77 154 1
77 170 1
77 200 1
77 208 1
77 224 1
78 6 1
78 14 1
78 30 1
78 149 1
78 157 1
78 173 1
78 194 1
78 202 1
78 218 1
79 7 1
79 15 1
79 31 1
79 145 1
79 153 1
79 169 1
79 195 1
79 203 1
79 219 1
80 8 1
80 16 1
80 32 1
80 150 1
80 158 1
80 174 1
80 197 1
80 205 1
80 221 1
81 1 1
81 17 1
81 33 1
81 147 1
81 163 1
81 179 1
81 196 1
81 212 1
81 228 1
82 2 1
82 18 1
82 34 1
82 152 1
82 168 1
82 184 1
82 198 1
82 214 1
82 230 1
83 3 1
83 19 1
83 35 1
83 148 1
83 164 1
83 180 1
83 199 1
83 215 1
83 231 1
84 4 1
84 20 1
84 36 1
84 151 1
84 167 1
84 183 1
84 193 1
84 209 1
84 225 1
85 5 1
85 21 1
85 37 1
85 146 1
85 162 1
85 178 1
85 200 1
85 216 1
85 232 1
86 6 1
86 22 1
86 38 1
86 149 1
86 165 1
86 181 1
86 194 1
86 210 1
86 226 1
87 7 1
87 23 1
87 39 1
87 145 1
87 161 1
87 177 1
87 195 1
87 211 1
87 227 1
88 8 1
88 24 1
88 40 1
88 150 1
88 166 1
88 182 1
88 197 1
88 213 1
88 229 1
89 9 1
89 17 1
89 41 1
89 155 1
89 163 1
89 187 1
89 204 1
89 212 1
89 236 1
90 10 1
90 18 1
90 42 1
90 160 1
90 168 1
90 192 1
90 206 1
90 214 1
90 238 1
91 11 1
91 19 1
91 43 1
91 156 1
91 164 1
91 188 1
91 207 1
91 215 1
91 239 1
92 12 1
92 20 1
92 44 1
92 159 1
92 167 1
92 191 1
92 201 1
92 209 1
92 233 1
93 13 1
93 21 1
93 45 1
93 154 1
93 162 1
93 186 1
93 208 1
93 216 1
93 240 1
94 14 1
94 22 1
94 46 1
94 157 1
94 165 1
94 189 1
94 202 1
94 210 1
94 234 1
95 15 1
95 23 1
95 47 1
95 153 1
95 161 1
95 185 1
95 203 1
95 211 1
95 235 1
96 16 1
96 24 1
96 48 1
96 158 1
96 166 1
96 190 1
96 205 1
96 213 1
96 237 1
97 50 1
97 58 1
97 74 1
97 147 1
97 155 1
97 171 1
97 246 1
97 254 1
97 270 1
98 52 1
98 60 1
98 76 1
98 152 1
98 160 1
98 176 1
98 241 1
98 249 1
98 265 1
99 53 1
99 61 1
99 77 1
99 148 1
99 156 1
99 172 1
99 248 1
99 256 1
99 272 1
100 54 1
100 62 1
100 78 1
100 151 1
100 159 1
100 175 1
100 242 1
100 250 1
100 266 1
101 55 1
101 63 1
101 79 1
101 146 1
101 154 1
101 170 1
101 243 1
101 251 1
101 267 1
102 49 1
102 57 1
102 73 1
102 149 1
102 157 1
102 173 1
102 244 1
102 252 1
102 268 1
103 56 1
103 64 1
103 80 1
103 145 1
103 153 1
103 169 1
103 245 1
103 253 1
103 269 1
104 51 1
104 59 1
104 75 1
104 150 1
104 158 1
104 174 1
104 247 1
104 255 1
104 271 1
105 50 1
105 66 1
105 82 1
105 147 1
105 163 1
105 179 1
105 246 1
105 262 1
105 278 1
106 52 1
106 68 1
106 84 1
106 152 1
106 168 1
106 184 1
106 241 1
106 257 1
106 273 1
107 53 1
107 69 1
107 85 1
107 148 1
107 164 1
107 180 1
107 248 1
107 264 1
107 280 1
108 54 1
108 70 1
108 86 1
108 151 1
108 167 1
108 183 1
108 242 1
108 258 1
108 274 1
109 55 1
109 71 1
109 87 1
109 146 1
109 162 1
109 178 1
109 243 1
109 259 1
109 275 1
110 49 1
110 65 1
110 81 1
110 149 1
110 165 1
110 181 1
110 244 1
110 260 1
110 276 1
111 56 1
111 72 1
111 88 1
111 145 1
111 161 1
111 177 1
111 245 1
111 261 1
111 277 1
112 51 1
112 67 1
112 83 1
112 150 1
112 166 1
112 182 1
112 247 1
112 263 1
112 279 1
113 58 1
113 66 1
113 90 1
113 155 1
113 163 1
113 187 1
113 254 1
113 262 1
113 286 1
114 60 1
114 68 1
114 92 1
114 160 1
114 168 1
114 192 1
114 249 1
114 257 1
114 281 1
115 61 1
115 69 1
115 93 1
115 156 1
115 164 1
115 188 1
115 256 1
115 264 1
115 288 1
116 62 1
116 70 1
116 94 1
116 159 1
116 167 1
116 191 1
116 250 1
116 258 1
116 282 1
117 63 1
117 71 1
117 95 1
117 154 1
117 162 1
117 186 1
117 251 1
117 259 1
117 283 1
118 57 1
118 65 1
118 89 1
118 157 1
118 165 1
118 189 1
118 252 1
118 260 1
118 284 1
119 64 1
119 72 1
119 96 1
119 153 1
119 161 1
119 185 1
119 253 1
119 261 1
119 285 1
120 59 1
120 67 1
120 91 1
120 158 1
120 166 1
120 190 1
120 255 1
120 263 1
120 287 1
121 99 1
121 107 1
121 123 1
121 196 1
121 204 1
121 220 1
121 246 1
121 254 1
121 270 1
122 104 1
122 112 1
122 128 1
122 198 1
122 206 1
122 222 1
122 241 1
122 249 1
122 265 1
123 100 1
123 108 1
123 124 1
123 199 1
123 207 1
123 223 1
123 248 1
123 256 1
123 272 1
124 103 1
124 111 1
124 127 1
124 193 1
124 201 1
124 217 1
124 242 1
124 250 1
124 266 1
125 98 1
125 106 1
125 122 1
125 200 1
125 208 1
125 224 1
125 243 1
125 251 1
125 267 1
126 101 1
126 109 1
126 125 1
126 194 1
126 202 1
126 218 1
126 244 1
126 252 1
126 268 1
127 97 1
127 105 1
127 121 1
127 195 1
127 203 1
127 219 1
127 245 1
127 253 1
127 269 1
128 102 1
128 110 1
128 126 1
128 197 1
128 205 1
128 221 1
128 247 1
128 255 1
128 271 1
129 99 1
129 115 1
129 131 1
129 196 1
129 212 1
129 228 1
129 246 1
129 262 1
129 278 1
130 104 1
130 120 1
130 136 1
130 198 1
130 214 1
130 230 1
130 241 1
130 257 1
130 273 1
131 100 1
131 116 1
131 132 1
131 199 1
131 215 1
131 231 1
131 248 1
131 264 1
131 280 1
132 103 1
132 119 1
132 135 1
132 193 1
132 209 1
132 225 1
132 242 1
132 258 1
132 274 1
133 98 1
133 114 1
133 130 1
133 200 1
133 216 1
133 232 1
133 243 1
133 259 1
133 275 1
134 101 1
134 117 1
134 133 1
134 194 1
134 210 1
134 226 1
134 244 1
134 260 1
134 276 1
135 97 1
135 113 1
135 129 1
135 195 1
135 211 1
135 227 1
135 245 1
135 261 1
135 277 1
136 102 1
136 118 1
136 134 1
136 197 1
136 213 1
136 229 1
136 247 1
136 263 1
136 279 1
137 107 1
137 115 1
137 139 1
137 204 1
137 212 1
137 236 1
137 254 1
137 262 1
137 286 1
138 112 1
138 120 1
138 144 1
138 206 1
138 214 1
138 238 1
138 249 1
138 257 1
138 281 1
139 108 1
139 116 1
139 140 1
139 207 1
139 215 1
139 239 1
139 256 1
139 264 1
139 288 1
140 111 1
140 119 1
140 143 1
140 201 1
140 209 1
140 233 1
140 250 1
140 258 1
140 282 1
141 106 1
141 114 1
141 138 1
141 208 1
141 216 1
141 240 1
141 251 1
141 259 1
141 283 1
142 109 1
142 117 1
142 141 1
142 202 1
142 210 1
142 234 1
142 252 1
142 260 1
142 284 1
143 105 1
143 113 1
143 137 1
143 203 1
143 211 1
143 235 1
143 253 1
143 261 1
143 285 1
144 110 1
144 118 1
144 142 1
144 205 1
144 213 1
144 237 1
144 255 1
144 263 1
144 287 1
