%%MatrixMarket matrix coordinate integer general
288 576 2592
1 1 1
1 29 1
1 42 1
1 289 1
1 317 1
1 330 1
1 385 1
1 413 1
1 426 1
2 2 1
2 27 1
2 45 1
2 290 1
2 315 1
2 333 1
2 386 1
2 411 1
2 429 1
3 3 1
3 30 1
3 43 1
3 291 1
3 318 1
3 331 1
3 387 1
3 414 1
3 427 1
4 4 1
4 32 1
4 47 1
4 292 1
4 320 1
4 335 1
4 388 1
4 416 1
4 431 1
5 5 1
5 22 1
5 35 1
5 293 1
5 310 1
5 323 1
5 389 1
5 406 1
5 419 1
6 6 1
6 31 1
6 46 1
6 294 1
6 319 1
6 334 1
6 390 1
6 415 1
6 430 1
7 7 1
7 17 1
7 48 1
7 295 1
7 305 1
7 336 1
7 391 1
7 401 1
7 432 1
8 8 1
8 20 1
8 38 1
8 296 1
8 308 1
8 326 1
8 392 1
8 404 1
8 422 1
9 9 1
9 18 1
9 33 1
9 297 1
9 306 1
9 321 1
9 393 1
9 402 1
9 417 1
10 10 1
10 23 1
10 36 1
10 298 1
10 311 1
10 324 1
10 394 1
10 407 1
10 420 1
11 11 1
11 28 1
11 41 1
11 299 1
11 316 1
11 329 1
11 395 1
11 412 1
11 425 1
12 12 1
12 19 1
12 34 1
12 300 1
12 307 1
12 322 1
12 396 1
12 403 1
12 418 1
13 13 1
13 25 1
13 39 1
13 301 1
13 313 1
13 327 1
13 397 1
13 409 1
13 423 1
14 14 1
14 21 1
14 44 1
14 302 1
14 309 1
14 332 1
14 398 1
14 405 1
14 428 1
15 15 1
15 24 1
15 37 1
15 303 1
15 312 1
15 325 1
15 399 1
15 408 1
15 421 1
16 16 1
16 26 1
16 40 1
16 304 1
16 314 1
16 328 1
16 400 1
16 410 1
16 424 1
17 1 1
17 72 1
17 83 1
17 289 1
17 360 1
17 371 1
17 385 1
17 456 1
17 467 1
18 2 1
18 74 1
18 86 1
18 290 1
18 362 1
18 374 1
18 386 1
18 458 1
18 470 1
19 3 1
19 77 1
19 84 1
19 291 1
19 365 1
19 372 1
19 387 1
19 461 1
19 468 1
20 4 1
20 78 1
20 89 1
20 292 1
20 366 1
20 377 1
20 388 1
20 462 1
20 473 1
21 5 1
21 66 1
21 90 1
21 293 1
21 354 1
21 378 1
21 389 1
21 450 1
21 474 1
22 6 1
22 75 1
22 87 1
22 294 1
22 363 1
22 375 1
22 390 1
22 459 1
22 471 1
23 7 1
23 79 1
23 92 1
23 295 1
23 367 1
23 380 1
23 391 1
23 463 1
23 476 1
24 8 1
24 67 1
24 93 1
24 296 1
24 355 1
24 381 1
24 392 1
24 451 1
24 477 1
25 9 1
25 80 1
25 85 1
25 297 1
25 368 1
25 373 1
25 393 1
25 464 1
25 469 1
26 10 1
26 70 1
26 91 1
26 298 1
26 358 1
26 379 1
26 394 1
26 454 1
26 475 1
27 11 1
27 71 1
27 95 1
27 299 1
27 359 1
27 383 1
27 395 1
27 455 1
27 479 1
28 12 1
28 65 1
28 88 1
28 300 1
28 353 1
28 376 1
28 396 1
28 449 1
28 472 1
29 13 1
29 68 1
29 94 1
29 301 1
29 356 1
29 382 1
29 397 1
29 452 1
29 478 1
30 14 1
30 73 1
30 96 1
30 302 1
30 361 1
30 384 1
30 398 1
30 457 1
30 480 1
31 15 1
31 76 1
31 81 1
31 303 1
31 364 1
31 369 1
31 399 1
31 460 1
31 465 1
32 16 1
32 69 1
32 82 1
32 304 1
32 357 1
32 370 1
32 400 1
32 453 1
32 466 1
33 29 1
33 52 1
33 83 1
33 317 1
33 340 1
33 371 1
33 413 1
33 436 1
33 467 1
34 27 1
34 55 1
34 86 1
34 315 1
34 343 1
34 374 1
34 411 1
34 439 1
34 470 1
35 30 1
35 57 1
35 84 1
35 318 1
35 345 1
35 372 1
35 414 1
35 441 1
35 468 1
36 32 1
36 53 1
36 89 1
36 320 1
36 341 1
36 377 1
36 416 1
36 437 1
36 473 1
37 22 1
37 59 1
37 90 1
37 310 1
37 347 1
37 378 1
37 406 1
37 443 1
37 474 1
38 31 1
38 60 1
38 87 1
38 319 1
38 348 1
38 375 1
38 415 1
38 444 1
38 471 1
39 17 1
39 56 1
39 92 1
39 305 1
39 344 1
39 380 1
39 401 1
39 440 1
39 476 1
40 20 1
40 62 1
40 93 1
40 308 1
40 350 1
40 381 1
40 404 1
40 446 1
40 477 1
41 18 1
41 58 1
41 85 1
41 306 1
41 346 1
41 373 1
41 402 1
41 442 1
41 469 1
42 23 1
42 63 1
42 91 1
42 311 1
42 351 1
42 379 1
42 407 1
42 447 1
42 475 1
43 28 1
43 49 1
43 95 1
43 316 1
43 337 1
43 383 1
43 412 1
43 433 1
43 479 1
44 19 1
44 61 1
44 88 1
44 307 1
44 349 1
44 376 1
44 403 1
44 445 1
44 472 1
45 25 1
45 64 1
45 94 1
45 313 1
45 352 1
45 382 1
45 409 1
45 448 1
45 478 1
46 21 1
46 50 1
46 96 1
46 309 1
46 338 1
46 384 1
46 405 1
46 434 1
46 480 1
47 24 1
47 51 1
47 81 1
47 312 1
47 339 1
47 369 1
47 408 1
47 435 1
47 465 1
48 26 1
48 54 1
48 82 1
48 314 1
48 342 1
48 370 1
48 410 1
48 438 1
48 466 1
49 97 1
49 125 1
49 138 1
49 289 1
49 317 1
49 330 1
49 481 1
49 509 1
49 522 1
50 98 1
50 123 1
50 141 1
50 290 1
50 315 1
50 333 1
50 482 1
50 507 1
50 525 1
51 99 1
51 126 1
51 139 1
51 291 1
51 318 1
51 331 1
51 483 1
51 510 1
51 523 1
52 100 1
52 128 1
52 143 1
52 292 1
52 320 1
52 335 1
52 484 1
52 512 1
52 527 1
53 101 1
53 118 1
53 131 1
53 293 1
53 310 1
53 323 1
53 485 1
53 502 1
53 515 1
54 102 1
54 127 1
54 142 1
54 294 1
54 319 1
54 334 1
54 486 1
54 511 1
54 526 1
55 103 1
55 113 1
55 144 1
55 295 1
55 305 1
55 336 1
55 487 1
55 497 1
55 528 1
56 104 1
56 116 1
56 134 1
56 296 1
56 308 1
56 326 1
56 488 1
56 500 1
56 518 1
57 105 1
57 114 1
57 129 1
57 297 1
57 306 1
57 321 1
57 489 1
57 498 1
57 513 1
58 106 1
58 119 1
58 132 1
58 298 1
58 311 1
58 324 1
58 490 1
58 503 1
58 516 1
59 107 1
59 124 1
59 137 1
59 299 1
59 316 1
59 329 1
59 491 1
59 508 1
59 521 1
60 108 1
60 115 1
60 130 1
60 300 1
60 307 1
60 322 1
60 492 1
60 499 1
60 514 1
61 109 1
61 121 1
61 135 1
61 301 1
61 313 1
61 327 1
61 493 1
61 505 1
61 519 1
62 110 1
62 117 1
62 140 1
62 302 1
62 309 1
62 332 1
62 494 1
62 501 1
62 524 1
63 111 1
63 120 1
63 133 1
63 303 1
63 312 1
63 325 1
63 495 1
63 504 1
63 517 1
64 112 1
64 122 1
64 136 1
64 304 1
64 314 1
64 328 1
64 496 1
64 506 1
64 520 1
65 97 1
65 168 1
65 179 1
65 289 1
65 360 1
65 371 1
65 481 1
65 552 1
65 563 1
66 98 1
66 170 1
66 182 1
66 290 1
66 362 1
66 374 1
66 482 1
66 554 1
66 566 1
67 99 1
67 173 1
67 180 1
67 291 1
67 365 1
67 372 1
67 483 1
67 557 1
67 564 1
68 100 1
68 174 1
68 185 1
68 292 1
68 366 1
68 377 1
68 484 1
68 558 1
68 569 1
69 101 1
69 162 1
69 186 1
69 293 1
69 354 1
69 378 1
69 485 1
69 546 1
69 570 1
70 102 1
70 171 1
70 183 1
70 294 1
70 363 1
70 375 1
70 486 1
70 555 1
70 567 1
71 103 1
71 175 1
71 188 1
71 295 1
71 367 1
71 380 1
71 487 1
71 559 1
71 572 1
72 104 1
72 163 1
72 189 1
72 296 1
72 355 1
72 381 1
72 488 1
72 547 1
72 573 1
73 105 1
73 176 1
73 181 1
73 297 1
73 368 1
73 373 1
73 489 1
73 560 1
73 565 1
74 106 1
74 166 1
74 187 1
74 298 1
74 358 1
74 379 1
74 490 1
74 550 1
74 571 1
75 107 1
75 167 1
75 191 1
75 299 1
75 359 1
75 383 1
75 491 1
75 551 1
75 575 1
76 108 1
76 161 1
76 184 1
76 300 1
76 353 1
76 376 1
76 492 1
76 545 1
76 568 1
77 109 1
77 164 1
77 190 1
77 301 1
77 356 1
77 382 1
77 493 1
77 548 1
77 574 1
78 110 1
78 169 1
78 192 1
78 302 1
78 361 1
78 384 1
78 494 1
78 553 1
78 576 1
79 111 1
79 172 1
79 177 1
79 303 1
79 364 1
79 369 1
79 495 1
79 556 1
79 561 1
80 112 1
80 165 1
80 178 1
80 304 1
80 357 1
80 370 1
80 496 1
80 549 1
80 562 1
81 125 1
81 148 1
81 179 1
81 317 1
81 340 1
81 371 1
81 509 1
81 532 1
81 563 1
82 123 1
82 151 1
82 182 1
82 315 1
82 343 1
82 374 1
82 507 1
82 535 1
82 566 1
83 126 1
83 153 1
83 180 1
83 318 1
83 345 1
83 372 1
83 510 1
83 537 1
83 564 1
84 128 1
84 149 1
84 185 1
84 320 1
84 341 1
84 377 1
84 512 1
84 533 1
84 569 1
85 118 1
85 155 1
85 186 1
85 310 1
85 347 1
85 378 1
85 502 1
85 539 1
85 570 1
86 127 1
86 156 1
86 183 1
86 319 1
86 348 1
86 375 1
86 511 1
86 540 1
86 567 1
87 113 1
87 152 1
87 188 1
87 305 1
87 344 1
87 380 1
87 497 1
87 536 1
87 572 1
88 116 1
88 158 1
88 189 1
88 308 1
88 350 1
88 381 1
88 500 1
88 542 1
88 573 1
89 114 1
89 154 1
89 181 1
89 306 1
89 346 1
89 373 1
89 498 1
89 538 1
89 565 1
90 119 1
90 159 1
90 187 1
90 311 1
90 351 1
90 379 1
90 503 1
90 543 1
90 571 1
91 124 1
91 145 1
91 191 1
91 316 1
91 337 1
91 383 1
91 508 1
91 529 1
91 575 1
92 115 1
92 157 1
92 184 1
92 307 1
92 349 1
92 376 1
92 499 1
92 541 1
92 568 1
93 121 1
93 160 1
93 190 1
93 313 1
93 352 1
93 382 1
93 505 1
93 544 1
93 574 1
94 117 1
94 146 1
94 192 1
94 309 1
94 338 1
94 384 1
94 501 1
94 530 1
94 576 1
95 120 1
95 147 1
95 177 1
95 312 1
95 339 1
95 369 1
95 504 1
95 531 1
95 561 1
96 122 1
96 150 1
96 178 1
96 314 1
96 342 1
96 370 1
96 506 1
96 534 1
96 562 1
97 193 1
97 221 1
97 234 1
97 385 1
97 413 1
97 426 1
97 481 1
97 509 1
97 522 1
98 194 1
98 219 1
98 237 1
98 386 1
98 411 1
98 429 1
98 482 1
98 507 1
98 525 1
99 195 1
99 222 1
99 235 1
99 387 1
99 414 1
99 427 1
99 483 1
99 510 1
99 523 1
100 196 1
100 224 1
100 239 1
100 388 1
100 416 1
100 431 1
100 484 1
100 512 1
100 527 1
101 197 1
101 214 1
101 227 1
101 389 1
101 406 1
101 419 1
101 485 1
101 502 1
101 515 1
102 198 1
102 223 1
102 238 1
102 390 1
102 415 1
102 430 1
102 486 1
102 511 1
102 526 1
103 199 1
103 209 1
103 240 1
103 391 1
103 401 1
103 432 1
103 487 1
103 497 1
103 528 1
104 200 1
104 212 1
104 230 1
104 392 1
104 404 1
104 422 1
104 488 1
104 500 1
104 518 1
105 201 1
105 210 1
105 225 1
105 393 1
105 402 1
105 417 1
105 489 1
105 498 1
105 513 1
106 202 1
106 215 1
106 228 1
106 394 1
106 407 1
106 420 1
106 490 1
106 503 1
106 516 1
107 203 1
107 220 1
107 233 1
107 395 1
107 412 1
107 425 1
107 491 1
107 508 1
107 521 1
108 204 1
108 211 1
108 226 1
108 396 1
108 403 1
108 418 1
108 492 1
108 499 1
108 514 1
109 205 1
109 217 1
109 231 1
109 397 1
109 409 1
109 423 1
109 493 1
109 505 1
109 519 1
110 206 1
110 213 1
110 236 1
110 398 1
110 405 1
110 428 1
110 494 1
110 501 1
110 524 1
111 207 1
111 216 1
111 229 1
111 399 1
111 408 1
111 421 1
111 495 1
111 504 1
111 517 1
112 208 1
112 218 1
112 232 1
112 400 1
112 410 1
112 424 1
112 496 1
112 506 1
112 520 1
113 193 1
113 264 1
113 275 1
113 385 1
113 456 1
113 467 1
113 481 1
113 552 1
113 563 1
114 194 1
114 266 1
114 278 1
114 386 1
114 458 1
114 470 1
114 482 1
114 554 1
114 566 1
115 195 1
115 269 1
115 276 1
115 387 1
115 461 1
115 468 1
115 483 1
115 557 1
115 564 1
116 196 1
116 270 1
116 281 1
116 388 1
116 462 1
116 473 1
116 484 1
116 558 1
116 569 1
117 197 1
117 258 1
117 282 1
117 389 1
117 450 1
117 474 1
117 485 1
117 546 1
117 570 1
118 198 1
118 267 1
118 279 1
118 390 1
118 459 1
118 471 1
118 486 1
118 555 1
118 567 1
119 199 1
119 271 1
119 284 1
119 391 1
119 463 1
119 476 1
119 487 1
119 559 1
119 572 1
120 200 1
120 259 1
120 285 1
120 392 1
120 451 1
120 477 1
120 488 1
120 547 1
120 573 1
121 201 1
121 272 1
121 277 1
121 393 1
121 464 1
121 469 1
121 489 1
121 560 1
121 565 1
122 202 1
122 262 1
122 283 1
122 394 1
122 454 1
122 475 1
122 490 1
122 550 1
122 571 1
123 203 1
123 263 1
123 287 1
123 395 1
123 455 1
123 479 1
123 491 1
123 551 1
123 575 1
124 204 1
124 257 1
124 280 1
124 396 1
124 449 1
124 472 1
124 492 1
124 545 1
124 568 1
125 205 1
125 260 1
125 286 1
125 397 1
125 452 1
125 478 1
125 493 1
125 548 1
125 574 1
126 206 1
126 265 1
126 288 1
126 398 1
126 457 1
126 480 1
126 494 1
126 553 1
126 576 1
127 207 1
127 268 1
127 273 1
127 399 1
127 460 1
127 465 1
127 495 1
127 556 1
127 561 1
128 208 1
128 261 1
128 274 1
128 400 1
128 453 1
128 466 1
128 496 1
128 549 1
128 562 1
129 221 1
129 244 1
129 275 1
129 413 1
129 436 1
129 467 1
129 509 1
129 532 1
129 563 1
130 219 1
130 247 1
130 278 1
130 411 1
130 439 1
130 470 1
130 507 1
130 535 1
130 566 1
131 222 1
131 249 1
131 276 1
131 414 1
131 441 1
131 468 1
131 510 1
131 537 1
131 564 1
132 224 1
132 245 1
132 281 1
132 416 1
132 437 1
132 473 1
132 512 1
132 533 1
132 569 1
133 214 1
133 251 1
133 282 1
133 406 1
133 443 1
133 474 1
133 502 1
133 539 1
133 570 1
134 223 1
134 252 1
134 279 1
134 415 1
134 444 1
134 471 1
134 511 1
134 540 1
134 567 1
135 209 1
135 248 1
135 284 1
135 401 1
135 440 1
135 476 1
135 497 1
135 536 1
135 572 1
136 212 1
136 254 1
136 285 1
136 404 1
136 446 1
136 477 1
136 500 1
136 542 1
136 573 1
137 210 1
137 250 1
137 277 1
137 402 1
137 442 1
137 469 1
137 498 1
137 538 1
137 565 1
138 215 1
138 255 1
138 283 1
138 407 1
138 447 1
138 475 1
138 503 1
138 543 1
138 571 1
139 220 1
139 241 1
139 287 1
139 412 1
139 433 1
139 479 1
139 508 1
139 529 1
139 575 1
140 211 1
140 253 1
140 280 1
140 403 1
140 445 1
140 472 1
140 499 1
140 541 1
140 568 1
141 217 1
141 256 1
141 286 1
141 409 1
141 448 1
141 478 1
141 505 1
141 544 1
141 574 1
142 213 1
142 242 1
142 288 1
142 405 1
142 434 1
142 480 1
142 501 1
142 530 1
142 576 1
143 216 1
143 243 1
143 273 1
143 408 1
143 435 1
143 465 1
143 504 1
143 531 1
143 561 1
144 218 1
144 246 1
144 274 1
144 410 1
144 438 1
144 466 1
144 506 1
144 534 1
144 562 1
145 1 1
145 17 1
145 49 1
145 399 1
145 415 1
145 447 1
145 496 1
145 512 1
145 544 1
146 2 1
146 18 1
146 50 1
146 400 1
146 416 1
146 448 1
146 481 1
146 497 1
146 529 1
147 3 1
147 19 1
147 51 1
147 385 1
147 401 1
147 433 1
147 482 1
147 498 1
147 530 1
148 4 1
148 20 1
148 52 1
148 387 1
148 403 1
148 435 1
148 486 1
148 502 1
148 534 1
149 5 1
149 21 1
149 53 1
149 393 1
149 409 1
149 441 1
149 492 1
149 508 1
149 540 1
150 6 1
150 22 1
150 54 1
150 386 1
150 402 1
150 434 1
150 483 1
150 499 1
150 531 1
151 7 1
151 23 1
151 55 1
151 390 1
151 406 1
151 438 1
151 484 1
151 500 1
151 532 1
152 8 1
152 24 1
152 56 1
152 396 1
152 412 1
152 444 1
152 485 1
152 501 1
152 533 1
153 9 1
153 25 1
153 57 1
153 388 1
153 404 1
153 436 1
153 487 1
153 503 1
153 535 1
154 10 1
154 26 1
154 58 1
154 389 1
154 405 1
154 437 1
154 488 1
154 504 1
154 536 1
155 11 1
155 27 1
155 59 1
155 394 1
155 410 1
155 442 1
155 493 1
155 509 1
155 541 1
156 12 1
156 28 1
156 60 1
156 391 1
156 407 1
156 439 1
156 489 1
156 505 1
156 537 1
157 13 1
157 29 1
157 61 1
157 392 1
157 408 1
157 440 1
157 490 1
157 506 1
157 538 1
158 14 1
158 30 1
158 62 1
158 397 1
158 413 1
158 445 1
158 491 1
158 507 1
158 539 1
159 15 1
159 31 1
159 63 1
159 395 1
159 411 1
159 443 1
159 494 1
159 510 1
159 542 1
160 16 1
160 32 1
160 64 1
160 398 1
160 414 1
160 446 1
160 495 1
160 511 1
160 543 1
161 1 1
161 33 1
161 65 1
161 399 1
161 431 1
161 463 1
161 496 1
161 528 1
161 560 1
162 2 1
162 34 1
162 66 1
162 400 1
162 432 1
162 464 1
162 481 1
162 513 1
162 545 1
163 3 1
163 35 1
163 67 1
163 385 1
163 417 1
163 449 1
163 482 1
163 514 1
163 546 1
164 4 1
164 36 1
164 68 1
164 387 1
164 419 1
164 451 1
164 486 1
164 518 1
164 550 1
165 5 1
165 37 1
165 69 1
165 393 1
165 425 1
165 457 1
165 492 1
165 524 1
165 556 1
166 6 1
166 38 1
166 70 1
166 386 1
166 418 1
166 450 1
166 483 1
166 515 1
166 547 1
167 7 1
167 39 1
167 71 1
167 390 1
167 422 1
167 454 1
167 484 1
167 516 1
167 548 1
168 8 1
168 40 1
168 72 1
168 396 1
168 428 1
168 460 1
168 485 1
168 517 1
168 549 1
169 9 1
169 41 1
169 73 1
169 388 1
169 420 1
169 452 1
169 487 1
169 519 1
169 551 1
170 10 1
170 42 1
170 74 1
170 389 1
170 421 1
170 453 1
170 488 1
170 520 1
170 552 1
171 11 1
171 43 1
171 75 1
171 394 1
171 426 1
171 458 1
171 493 1
171 525 1
171 557 1
172 12 1
172 44 1
172 76 1
172 391 1
172 423 1
172 455 1
172 489 1
172 521 1
172 553 1
173 13 1
173 45 1
173 77 1
173 392 1
173 424 1
173 456 1
173 490 1
173 522 1
173 554 1
174 14 1
174 46 1
174 78 1
174 397 1
174 429 1
174 461 1
174 491 1
174 523 1
174 555 1
175 15 1
175 47 1
175 79 1
175 395 1
175 427 1
175 459 1
175 494 1
175 526 1
175 558 1
176 16 1
176 48 1
176 80 1
176 398 1
176 430 1
176 462 1
176 495 1
176 527 1
176 559 1
177 17 1
177 33 1
177 81 1
177 415 1
177 431 1
177 479 1
177 512 1
177 528 1
177 576 1
178 18 1
178 34 1
178 82 1
178 416 1
178 432 1
178 480 1
178 497 1
178 513 1
178 561 1
179 19 1
179 35 1
179 83 1
179 401 1
179 417 1
179 465 1
179 498 1
179 514 1
179 562 1
180 20 1
180 36 1
180 84 1
180 403 1
180 419 1
180 467 1
180 502 1
180 518 1
180 566 1
181 21 1
181 37 1
181 85 1
181 409 1
181 425 1
181 473 1
181 508 1
181 524 1
181 572 1
182 22 1
182 38 1
182 86 1
182 402 1
182 418 1
182 466 1
182 499 1
182 515 1
182 563 1
183 23 1
183 39 1
183 87 1
183 406 1
183 422 1
183 470 1
183 500 1
183 516 1
183 564 1
184 24 1
184 40 1
184 88 1
184 412 1
184 428 1
184 476 1
184 501 1
184 517 1
184 565 1
185 25 1
185 41 1
185 89 1
185 404 1
185 420 1
185 468 1
185 503 1
185 519 1
185 567 1
186 26 1
186 42 1
186 90 1
186 405 1
186 421 1
186 469 1
186 504 1
186 520 1
186 568 1
187 27 1
187 43 1
187 91 1
187 410 1
187 426 1
187 474 1
187 509 1
187 525 1
187 573 1
188 28 1
188 44 1
188 92 1
188 407 1
188 423 1
188 471 1
188 505 1
188 521 1
188 569 1
189 29 1
189 45 1
189 93 1
189 408 1
189 424 1
189 472 1
189 506 1
189 522 1
189 570 1
190 30 1
190 46 1
190 94 1
190 413 1
190 429 1
190 477 1
190 507 1
190 523 1
190 571 1
191 31 1
191 47 1
191 95 1
191 411 1
191 427 1
191 475 1
191 510 1
191 526 1
191 574 1
192 32 1
192 48 1
192 96 1
192 414 1
192 430 1
192 478 1
192 511 1
192 527 1
192 575 1
193 97 1
193 113 1
193 145 1
193 194 1
193 210 1
193 242 1
193 496 1
193 512 1
193 544 1
194 98 1
194 114 1
194 146 1
194 195 1
194 211 1
194 243 1
194 481 1
194 497 1
194 529 1
195 99 1
195 115 1
195 147 1
195 198 1
195 214 1
195 246 1
195 482 1
195 498 1
195 530 1
196 100 1
196 116 1
196 148 1
196 199 1
196 215 1
196 247 1
196 486 1
196 502 1
196 534 1
197 101 1
197 117 1
197 149 1
197 200 1
197 216 1
197 248 1
197 492 1
197 508 1
197 540 1
198 102 1
198 118 1
198 150 1
198 196 1
198 212 1
198 244 1
198 483 1
198 499 1
198 531 1
199 103 1
199 119 1
199 151 1
199 201 1
199 217 1
199 249 1
199 484 1
199 500 1
199 532 1
200 104 1
200 120 1
200 152 1
200 202 1
200 218 1
200 250 1
200 485 1
200 501 1
200 533 1
201 105 1
201 121 1
201 153 1
201 204 1
201 220 1
201 252 1
201 487 1
201 503 1
201 535 1
202 106 1
202 122 1
202 154 1
202 205 1
202 221 1
202 253 1
202 488 1
202 504 1
202 536 1
203 107 1
203 123 1
203 155 1
203 206 1
203 222 1
203 254 1
203 493 1
203 509 1
203 541 1
204 108 1
204 124 1
204 156 1
204 197 1
204 213 1
204 245 1
204 489 1
204 505 1
204 537 1
205 109 1
205 125 1
205 157 1
205 203 1
205 219 1
205 251 1
205 490 1
205 506 1
205 538 1
206 110 1
206 126 1
206 158 1
206 207 1
206 223 1
206 255 1
206 491 1
206 507 1
206 539 1
207 111 1
207 127 1
207 159 1
207 208 1
207 224 1
207 256 1
207 494 1
207 510 1
207 542 1
208 112 1
208 128 1
208 160 1
208 193 1
208 209 1
208 241 1
208 495 1
208 511 1
208 543 1
209 97 1
209 129 1
209 161 1
209 194 1
209 226 1
209 258 1
209 496 1
209 528 1
209 560 1
210 98 1
210 130 1
210 162 1
210 195 1
210 227 1
210 259 1
210 481 1
210 513 1
210 545 1
211 99 1
211 131 1
211 163 1
211 198 1
211 230 1
211 262 1
211 482 1
211 514 1
211 546 1
212 100 1
212 132 1
212 164 1
212 199 1
212 231 1
212 263 1
212 486 1
212 518 1
212 550 1
213 101 1
213 133 1
213 165 1
213 200 1
213 232 1
213 264 1
213 492 1
213 524 1
213 556 1
214 102 1
214 134 1
214 166 1
214 196 1
214 228 1
214 260 1
214 483 1
214 515 1
214 547 1
215 103 1
215 135 1
215 167 1
215 201 1
215 233 1
215 265 1
215 484 1
215 516 1
215 548 1
216 104 1
216 136 1
216 168 1
216 202 1
216 234 1
216 266 1
216 485 1
216 517 1
216 549 1
217 105 1
217 137 1
217 169 1
217 204 1
217 236 1
217 268 1
217 487 1
217 519 1
217 551 1
218 106 1
218 138 1
218 170 1
218 205 1
218 237 1
218 269 1
218 488 1
218 520 1
218 552 1
219 107 1
219 139 1
219 171 1
219 206 1
219 238 1
219 270 1
219 493 1
219 525 1
219 557 1
220 108 1
220 140 1
220 172 1
220 197 1
220 229 1
220 261 1
220 489 1
220 521 1
220 553 1
221 109 1
221 141 1
221 173 1
221 203 1
221 235 1
221 267 1
221 490 1
221 522 1
221 554 1
222 110 1
222 142 1
222 174 1
222 207 1
222 239 1
222 271 1
222 491 1
222 523 1
222 555 1
223 111 1
223 143 1
223 175 1
223 208 1
223 240 1
223 272 1
223 494 1
223 526 1
223 558 1
224 112 1
224 144 1
224 176 1
224 193 1
224 225 1
224 257 1
224 495 1
224 527 1
224 559 1
225 113 1
225 129 1
225 177 1
225 210 1
225 226 1
225 274 1
225 512 1
225 528 1
225 576 1
226 114 1
226 130 1
226 178 1
226 211 1
226 227 1
226 275 1
226 497 1
226 513 1
226 561 1
227 115 1
227 131 1
227 179 1
227 214 1
227 230 1
227 278 1
227 498 1
227 514 1
227 562 1
228 116 1
228 132 1
228 180 1
228 215 1
228 231 1
228 279 1
228 502 1
228 518 1
228 566 1
229 117 1
229 133 1
229 181 1
229 216 1
229 232 1
229 280 1
229 508 1
229 524 1
229 572 1
230 118 1
230 134 1
230 182 1
230 212 1
230 228 1
230 276 1
230 499 1
230 515 1
230 563 1
231 119 1
231 135 1
231 183 1
231 217 1
231 233 1
231 281 1
231 500 1
231 516 1
231 564 1
232 120 1
232 136 1
232 184 1
232 218 1
232 234 1
232 282 1
232 501 1
232 517 1
232 565 1
233 121 1
233 137 1
233 185 1
233 220 1
233 236 1
233 284 1
233 503 1
233 519 1
233 567 1
234 122 1
234 138 1
234 186 1
234 221 1
234 237 1
234 285 1
234 504 1
234 520 1
234 568 1
235 123 1
235 139 1
235 187 1
235 222 1
235 238 1
235 286 1
235 509 1
235 525 1
235 573 1
236 124 1
236 140 1
236 188 1
236 213 1
236 229 1
236 277 1
236 505 1
236 521 1
236 569 1
237 125 1
237 141 1
237 189 1
237 219 1
237 235 1
237 283 1
237 506 1
237 522 1
237 570 1
238 126 1
238 142 1
238 190 1
238 223 1
238 239 1
238 287 1
238 507 1
238 523 1
238 571 1
239 127 1
239 143 1
239 191 1
239 224 1
239 240 1
239 288 1
239 510 1
239 526 1
239 574 1
240 128 1
240 144 1
240 192 1
240 209 1
240 225 1
240 273 1
240 511 1
240 527 1
240 575 1
241 194 1
241 210 1
241 242 1
241 299 1
241 315 1
241 347 1
241 399 1
241 415 1
241 447 1
242 195 1
242 211 1
242 243 1
242 302 1
242 318 1
242 350 1
242 400 1
242 416 1
242 448 1
243 198 1
243 214 1
243 246 1
243 303 1
243 319 1
243 351 1
243 385 1
243 401 1
243 433 1
244 199 1
244 215 1
244 247 1
244 289 1
244 305 1
244 337 1
244 387 1
244 403 1
244 435 1
245 200 1
245 216 1
245 248 1
245 292 1
245 308 1
245 340 1
245 393 1
245 409 1
245 441 1
246 196 1
246 212 1
246 244 1
246 304 1
246 320 1
246 352 1
246 386 1
246 402 1
246 434 1
247 201 1
247 217 1
247 249 1
247 290 1
247 306 1
247 338 1
247 390 1
247 406 1
247 438 1
248 202 1
248 218 1
248 250 1
248 295 1
248 311 1
248 343 1
248 396 1
248 412 1
248 444 1
249 204 1
249 220 1
249 252 1
249 291 1
249 307 1
249 339 1
249 388 1
249 404 1
249 436 1
250 205 1
250 221 1
250 253 1
250 297 1
250 313 1
250 345 1
250 389 1
250 405 1
250 437 1
251 206 1
251 222 1
251 254 1
251 293 1
251 309 1
251 341 1
251 394 1
251 410 1
251 442 1
252 197 1
252 213 1
252 245 1
252 294 1
252 310 1
252 342 1
252 391 1
252 407 1
252 439 1
253 203 1
253 219 1
253 251 1
253 300 1
253 316 1
253 348 1
253 392 1
253 408 1
253 440 1
254 207 1
254 223 1
254 255 1
254 296 1
254 312 1
254 344 1
254 397 1
254 413 1
254 445 1
255 208 1
255 224 1
255 256 1
255 298 1
255 314 1
255 346 1
255 395 1
255 411 1
255 443 1
256 193 1
256 209 1
256 241 1
256 301 1
256 317 1
256 349 1
256 398 1
256 414 1
256 446 1
257 194 1
257 226 1
257 258 1
257 299 1
257 331 1
257 363 1
257 399 1
257 431 1
257 463 1
258 195 1
258 227 1
258 259 1
258 302 1
258 334 1
258 366 1
258 400 1
258 432 1
258 464 1
259 198 1
259 230 1
259 262 1
259 303 1
259 335 1
259 367 1
259 385 1
259 417 1
259 449 1
260 199 1
260 231 1
260 263 1
260 289 1
260 321 1
260 353 1
260 387 1
260 419 1
260 451 1
261 200 1
261 232 1
261 264 1
261 292 1
261 324 1
261 356 1
261 393 1
261 425 1
261 457 1
262 196 1
262 228 1
262 260 1
262 304 1
262 336 1
262 368 1
262 386 1
262 418 1
262 450 1
263 201 1
263 233 1
263 265 1
263 290 1
263 322 1
263 354 1
263 390 1
263 422 1
263 454 1
264 202 1
264 234 1
264 266 1
264 295 1
264 327 1
264 359 1
264 396 1
264 428 1
264 460 1
265 204 1
265 236 1
265 268 1
265 291 1
265 323 1
265 355 1
265 388 1
265 420 1
265 452 1
266 205 1
266 237 1
266 269 1
266 297 1
266 329 1
266 361 1
266 389 1
266 421 1
266 453 1
267 206 1
267 238 1
267 270 1
267 293 1
267 325 1
267 357 1
267 394 1
267 426 1
267 458 1
268 197 1
268 229 1
268 261 1
268 294 1
268 326 1
268 358 1
268 391 1
268 423 1
268 455 1
269 203 1
269 235 1
269 267 1
269 300 1
269 332 1
269 364 1
269 392 1
269 424 1
269 456 1
270 207 1
270 239 1
270 271 1
270 296 1
270 328 1
270 360 1
270 397 1
270 429 1
270 461 1
271 208 1
271 240 1
271 272 1
271 298 1
271 330 1
271 362 1
271 395 1
271 427 1
271 459 1
272 193 1
272 225 1
272 257 1
272 301 1
272 333 1
272 365 1
272 398 1
272 430 1
272 462 1
273 210 1
273 226 1
273 274 1
273 315 1
273 331 1
273 379 1
273 415 1
273 431 1
273 479 1
274 211 1
274 227 1
274 275 1
274 318 1
274 334 1
274 382 1
274 416 1
274 432 1
274 480 1
275 214 1
275 230 1
275 278 1
275 319 1
275 335 1
275 383 1
275 401 1
275 417 1
275 465 1
276 215 1
276 231 1
276 279 1
276 305 1
276 321 1
276 369 1
276 403 1
276 419 1
276 467 1
277 216 1
277 232 1
277 280 1
277 308 1
277 324 1
277 372 1
277 409 1
277 425 1
277 473 1
278 212 1
278 228 1
278 276 1
278 320 1
278 336 1
278 384 1
278 402 1
278 418 1
278 466 1
279 217 1
279 233 1
279 281 1
279 306 1
279 322 1
279 370 1
279 406 1
279 422 1
279 470 1
280 218 1
280 234 1
280 282 1
280 311 1
280 327 1
280 375 1
280 412 1
280 428 1
280 476 1
281 220 1
281 236 1
281 284 1
281 307 1
281 323 1
281 371 1
281 404 1
281 420 1
281 468 1
282 221 1
282 237 1
282 285 1
282 313 1
282 329 1
282 377 1
282 405 1
282 421 1
282 469 1
283 222 1
283 238 1
283 286 1
283 309 1
283 325 1
283 373 1
283 410 1
283 426 1
283 474 1
284 213 1
284 229 1
284 277 1
284 310 1
284 326 1
284 374 1
284 407 1
284 423 1
284 471 1
285 219 1
285 235 1
285 283 1
285 316 1
285 332 1
285 380 1
285 408 1
285 424 1
285 472 1
286 223 1
286 239 1
286 287 1
286 312 1
286 328 1
286 376 1
286 413 1
286 429 1
286 477 1
287 224 1
287 240 1
287 288 1
287 314 1
287 330 1
287 378 1
287 411 1
287 427 1
287 475 1
288 209 1
288 225 1
288 273 1
288 317 1
288 333 1
288 381 1
288 414 1
288 430 1
288 478 1
