%%MatrixMarket matrix coordinate integer general
288 576 2592
1 1 1
1 29 1
1 51 1
1 289 1
1 317 1
1 339 1
1 385 1
1 413 1
1 435 1
2 2 1
2 19 1
2 54 1
2 290 1
2 307 1
2 342 1
2 386 1
2 403 1
2 438 1
3 3 1
3 24 1
3 52 1
3 291 1
3 312 1
3 340 1
3 387 1
3 408 1
3 436 1
4 4 1
4 32 1
4 57 1
4 292 1
4 320 1
4 345 1
4 388 1
4 416 1
4 441 1
5 5 1
5 22 1
5 58 1
5 293 1
5 310 1
5 346 1
5 389 1
5 406 1
5 442 1
6 6 1
6 17 1
6 55 1
6 294 1
6 305 1
6 343 1
6 390 1
6 401 1
6 439 1
7 7 1
7 25 1
7 60 1
7 295 1
7 313 1
7 348 1
7 391 1
7 409 1
7 444 1
8 8 1
8 26 1
8 61 1
8 296 1
8 314 1
8 349 1
8 392 1
8 410 1
8 445 1
9 9 1
9 30 1
9 49 1
9 297 1
9 318 1
9 337 1
9 393 1
9 414 1
9 433 1
10 10 1
10 18 1
10 59 1
10 298 1
10 306 1
10 347 1
10 394 1
10 402 1
10 443 1
11 11 1
11 28 1
11 63 1
11 299 1
11 316 1
11 351 1
11 395 1
11 412 1
11 447 1
12 12 1
12 20 1
12 50 1
12 300 1
12 308 1
12 338 1
12 396 1
12 404 1
12 434 1
13 13 1
13 21 1
13 62 1
13 301 1
13 309 1
13 350 1
13 397 1
13 405 1
13 446 1
14 14 1
14 31 1
14 64 1
14 302 1
14 319 1
14 352 1
14 398 1
14 415 1
14 448 1
15 15 1
15 23 1
15 53 1
15 303 1
15 311 1
15 341 1
15 399 1
15 407 1
15 437 1
16 16 1
16 27 1
16 56 1
16 304 1
16 315 1
16 344 1
16 400 1
16 411 1
16 440 1
17 1 1
17 35 1
17 75 1
17 289 1
17 323 1
17 363 1
17 385 1
17 419 1
17 459 1
18 2 1
18 38 1
18 78 1
18 290 1
18 326 1
18 366 1
18 386 1
18 422 1
18 462 1
19 3 1
19 36 1
19 79 1
19 291 1
19 324 1
19 367 1
19 387 1
19 420 1
19 463 1
20 4 1
20 41 1
20 69 1
20 292 1
20 329 1
20 357 1
20 388 1
20 425 1
20 453 1
21 5 1
21 42 1
21 68 1
21 293 1
21 330 1
21 356 1
21 389 1
21 426 1
21 452 1
22 6 1
22 39 1
22 80 1
22 294 1
22 327 1
22 368 1
22 390 1
22 423 1
22 464 1
23 7 1
23 44 1
23 72 1
23 295 1
23 332 1
23 360 1
23 391 1
23 428 1
23 456 1
24 8 1
24 45 1
24 71 1
24 296 1
24 333 1
24 359 1
24 392 1
24 429 1
24 455 1
25 9 1
25 33 1
25 74 1
25 297 1
25 321 1
25 362 1
25 393 1
25 417 1
25 458 1
26 10 1
26 43 1
26 73 1
26 298 1
26 331 1
26 361 1
26 394 1
26 427 1
26 457 1
27 11 1
27 47 1
27 65 1
27 299 1
27 335 1
27 353 1
27 395 1
27 431 1
27 449 1
28 12 1
28 34 1
28 77 1
28 300 1
28 322 1
28 365 1
28 396 1
28 418 1
28 461 1
29 13 1
29 46 1
29 76 1
29 301 1
29 334 1
29 364 1
29 397 1
29 430 1
29 460 1
30 14 1
30 48 1
30 66 1
30 302 1
30 336 1
30 354 1
30 398 1
30 432 1
30 450 1
31 15 1
31 37 1
31 67 1
31 303 1
31 325 1
31 355 1
31 399 1
31 421 1
31 451 1
32 16 1
32 40 1
32 70 1
32 304 1
32 328 1
32 358 1
32 400 1
32 424 1
32 454 1
33 29 1
33 35 1
33 96 1
33 317 1
33 323 1
33 384 1
33 413 1
33 419 1
33 480 1
34 19 1
34 38 1
34 89 1
34 307 1
34 326 1
34 377 1
34 403 1
34 422 1
34 473 1
35 24 1
35 36 1
35 94 1
35 312 1
35 324 1
35 382 1
35 408 1
35 420 1
35 478 1
36 32 1
36 41 1
36 93 1
36 320 1
36 329 1
36 381 1
36 416 1
36 425 1
36 477 1
37 22 1
37 42 1
37 92 1
37 310 1
37 330 1
37 380 1
37 406 1
37 426 1
37 476 1
38 17 1
38 39 1
38 84 1
38 305 1
38 327 1
38 372 1
38 401 1
38 423 1
38 468 1
39 25 1
39 44 1
39 83 1
39 313 1
39 332 1
39 371 1
39 409 1
39 428 1
39 467 1
40 26 1
40 45 1
40 95 1
40 314 1
40 333 1
40 383 1
40 410 1
40 429 1
40 479 1
41 30 1
41 33 1
41 88 1
41 318 1
41 321 1
41 376 1
41 414 1
41 417 1
41 472 1
42 18 1
42 43 1
42 87 1
42 306 1
42 331 1
42 375 1
42 402 1
42 427 1
42 471 1
43 28 1
43 47 1
43 86 1
43 316 1
43 335 1
43 374 1
43 412 1
43 431 1
43 470 1
44 20 1
44 34 1
44 81 1
44 308 1
44 322 1
44 369 1
44 404 1
44 418 1
44 465 1
45 21 1
45 46 1
45 91 1
45 309 1
45 334 1
45 379 1
45 405 1
45 430 1
45 475 1
46 31 1
46 48 1
46 90 1
46 319 1
46 336 1
46 378 1
46 415 1
46 432 1
46 474 1
47 23 1
47 37 1
47 82 1
47 311 1
47 325 1
47 370 1
47 407 1
47 421 1
47 466 1
48 27 1
48 40 1
48 85 1
48 315 1
48 328 1
48 373 1
48 411 1
48 424 1
48 469 1
49 97 1
49 125 1
49 147 1
49 289 1
49 317 1
49 339 1
49 481 1
49 509 1
49 531 1
50 98 1
50 115 1
50 150 1
50 290 1
50 307 1
50 342 1
50 482 1
50 499 1
50 534 1
51 99 1
51 120 1
51 148 1
51 291 1
51 312 1
51 340 1
51 483 1
51 504 1
51 532 1
52 100 1
52 128 1
52 153 1
52 292 1
52 320 1
52 345 1
52 484 1
52 512 1
52 537 1
53 101 1
53 118 1
53 154 1
53 293 1
53 310 1
53 346 1
53 485 1
53 502 1
53 538 1
54 102 1
54 113 1
54 151 1
54 294 1
54 305 1
54 343 1
54 486 1
54 497 1
54 535 1
55 103 1
55 121 1
55 156 1
55 295 1
55 313 1
55 348 1
55 487 1
55 505 1
55 540 1
56 104 1
56 122 1
56 157 1
56 296 1
56 314 1
56 349 1
56 488 1
56 506 1
56 541 1
57 105 1
57 126 1
57 145 1
57 297 1
57 318 1
57 337 1
57 489 1
57 510 1
57 529 1
58 106 1
58 114 1
58 155 1
58 298 1
58 306 1
58 347 1
58 490 1
58 498 1
58 539 1
59 107 1
59 124 1
59 159 1
59 299 1
59 316 1
59 351 1
59 491 1
59 508 1
59 543 1
60 108 1
60 116 1
60 146 1
60 300 1
60 308 1
60 338 1
60 492 1
60 500 1
60 530 1
61 109 1
61 117 1
61 158 1
61 301 1
61 309 1
61 350 1
61 493 1
61 501 1
61 542 1
62 110 1
62 127 1
62 160 1
62 302 1
62 319 1
62 352 1
62 494 1
62 511 1
62 544 1
63 111 1
63 119 1
63 149 1
63 303 1
63 311 1
63 341 1
63 495 1
63 503 1
63 533 1
64 112 1
64 123 1
64 152 1
64 304 1
64 315 1
64 344 1
64 496 1
64 507 1
64 536 1
65 97 1
65 131 1
65 171 1
65 289 1
65 323 1
65 363 1
65 481 1
65 515 1
65 555 1
66 98 1
66 134 1
66 174 1
66 290 1
66 326 1
66 366 1
66 482 1
66 518 1
66 558 1
67 99 1
67 132 1
67 175 1
67 291 1
67 324 1
67 367 1
67 483 1
67 516 1
67 559 1
68 100 1
68 137 1
68 165 1
68 292 1
68 329 1
68 357 1
68 484 1
68 521 1
68 549 1
69 101 1
69 138 1
69 164 1
69 293 1
69 330 1
69 356 1
69 485 1
69 522 1
69 548 1
70 102 1
70 135 1
70 176 1
70 294 1
70 327 1
70 368 1
70 486 1
70 519 1
70 560 1
71 103 1
71 140 1
71 168 1
71 295 1
71 332 1
71 360 1
71 487 1
71 524 1
71 552 1
72 104 1
72 141 1
72 167 1
72 296 1
72 333 1
72 359 1
72 488 1
72 525 1
72 551 1
73 105 1
73 129 1
73 170 1
73 297 1
73 321 1
73 362 1
73 489 1
73 513 1
73 554 1
74 106 1
74 139 1
74 169 1
74 298 1
74 331 1
74 361 1
74 490 1
74 523 1
74 553 1
75 107 1
75 143 1
75 161 1
75 299 1
75 335 1
75 353 1
75 491 1
75 527 1
75 545 1
76 108 1
76 130 1
76 173 1
76 300 1
76 322 1
76 365 1
76 492 1
76 514 1
76 557 1
77 109 1
77 142 1
77 172 1
77 301 1
77 334 1
77 364 1
77 493 1
77 526 1
77 556 1
78 110 1
78 144 1
78 162 1
78 302 1
78 336 1
78 354 1
78 494 1
78 528 1
78 546 1
79 111 1
79 133 1
79 163 1
79 303 1
79 325 1
79 355 1
79 495 1
79 517 1
79 547 1
80 112 1
80 136 1
80 166 1
80 304 1
80 328 1
80 358 1
80 496 1
80 520 1
80 550 1
81 125 1
81 131 1
81 192 1
81 317 1
81 323 1
81 384 1
81 509 1
81 515 1
81 576 1
82 115 1
82 134 1
82 185 1
82 307 1
82 326 1
82 377 1
82 499 1
82 518 1
82 569 1
83 120 1
83 132 1
83 190 1
83 312 1
83 324 1
83 382 1
83 504 1
83 516 1
83 574 1
84 128 1
84 137 1
84 189 1
84 320 1
84 329 1
84 381 1
84 512 1
84 521 1
84 573 1
85 118 1
85 138 1
85 188 1
85 310 1
85 330 1
85 380 1
85 502 1
85 522 1
85 572 1
86 113 1
86 135 1
86 180 1
86 305 1
86 327 1
86 372 1
86 497 1
86 519 1
86 564 1
87 121 1
87 140 1
87 179 1
87 313 1
87 332 1
87 371 1
87 505 1
87 524 1
87 563 1
88 122 1
88 141 1
88 191 1
88 314 1
88 333 1
88 383 1
88 506 1
88 525 1
88 575 1
89 126 1
89 129 1
89 184 1
89 318 1
89 321 1
89 376 1
89 510 1
89 513 1
89 568 1
90 114 1
90 139 1
90 183 1
90 306 1
90 331 1
90 375 1
90 498 1
90 523 1
90 567 1
91 124 1
91 143 1
91 182 1
91 316 1
91 335 1
91 374 1
91 508 1
91 527 1
91 566 1
92 116 1
92 130 1
92 177 1
92 308 1
92 322 1
92 369 1
92 500 1
92 514 1
92 561 1
93 117 1
93 142 1
93 187 1
93 309 1
93 334 1
93 379 1
93 501 1
93 526 1
93 571 1
94 127 1
94 144 1
94 186 1
94 319 1
94 336 1
94 378 1
94 511 1
94 528 1
94 570 1
95 119 1
95 133 1
95 178 1
95 311 1
95 325 1
95 370 1
95 503 1
95 517 1
95 562 1
96 123 1
96 136 1
96 181 1
96 315 1
96 328 1
96 373 1
96 507 1
96 520 1
96 565 1
97 193 1
97 221 1
97 243 1
97 385 1
97 413 1
97 435 1
97 481 1
97 509 1
97 531 1
98 194 1
98 211 1
98 246 1
98 386 1
98 403 1
98 438 1
98 482 1
98 499 1
98 534 1
99 195 1
99 216 1
99 244 1
99 387 1
99 408 1
99 436 1
99 483 1
99 504 1
99 532 1
100 196 1
100 224 1
100 249 1
100 388 1
100 416 1
100 441 1
100 484 1
100 512 1
100 537 1
101 197 1
101 214 1
101 250 1
101 389 1
101 406 1
101 442 1
101 485 1
101 502 1
101 538 1
102 198 1
102 209 1
102 247 1
102 390 1
102 401 1
102 439 1
102 486 1
102 497 1
102 535 1
103 199 1
103 217 1
103 252 1
103 391 1
103 409 1
103 444 1
103 487 1
103 505 1
103 540 1
104 200 1
104 218 1
104 253 1
104 392 1
104 410 1
104 445 1
104 488 1
104 506 1
104 541 1
105 201 1
105 222 1
105 241 1
105 393 1
105 414 1
105 433 1
105 489 1
105 510 1
105 529 1
106 202 1
106 210 1
106 251 1
106 394 1
106 402 1
106 443 1
106 490 1
106 498 1
106 539 1
107 203 1
107 220 1
107 255 1
107 395 1
107 412 1
107 447 1
107 491 1
107 508 1
107 543 1
108 204 1
108 212 1
108 242 1
108 396 1
108 404 1
108 434 1
108 492 1
108 500 1
108 530 1
109 205 1
109 213 1
109 254 1
109 397 1
109 405 1
109 446 1
109 493 1
109 501 1
109 542 1
110 206 1
110 223 1
110 256 1
110 398 1
110 415 1
110 448 1
110 494 1
110 511 1
110 544 1
111 207 1
111 215 1
111 245 1
111 399 1
111 407 1
111 437 1
111 495 1
111 503 1
111 533 1
112 208 1
112 219 1
112 248 1
112 400 1
112 411 1
112 440 1
112 496 1
112 507 1
112 536 1
113 193 1
113 227 1
113 267 1
113 385 1
113 419 1
113 459 1
113 481 1
113 515 1
113 555 1
114 194 1
114 230 1
114 270 1
114 386 1
114 422 1
114 462 1
114 482 1
114 518 1
114 558 1
115 195 1
115 228 1
115 271 1
115 387 1
115 420 1
115 463 1
115 483 1
115 516 1
115 559 1
116 196 1
116 233 1
116 261 1
116 388 1
116 425 1
116 453 1
116 484 1
116 521 1
116 549 1
117 197 1
117 234 1
117 260 1
117 389 1
117 426 1
117 452 1
117 485 1
117 522 1
117 548 1
118 198 1
118 231 1
118 272 1
118 390 1
118 423 1
118 464 1
118 486 1
118 519 1
118 560 1
119 199 1
119 236 1
119 264 1
119 391 1
119 428 1
119 456 1
119 487 1
119 524 1
119 552 1
120 200 1
120 237 1
120 263 1
120 392 1
120 429 1
120 455 1
120 488 1
120 525 1
120 551 1
121 201 1
121 225 1
121 266 1
121 393 1
121 417 1
121 458 1
121 489 1
121 513 1
121 554 1
122 202 1
122 235 1
122 265 1
122 394 1
122 427 1
122 457 1
122 490 1
122 523 1
122 553 1
123 203 1
123 239 1
123 257 1
123 395 1
123 431 1
123 449 1
123 491 1
123 527 1
123 545 1
124 204 1
124 226 1
124 269 1
124 396 1
124 418 1
124 461 1
124 492 1
124 514 1
124 557 1
125 205 1
125 238 1
125 268 1
125 397 1
125 430 1
125 460 1
125 493 1
125 526 1
125 556 1
126 206 1
126 240 1
126 258 1
126 398 1
126 432 1
126 450 1
126 494 1
126 528 1
126 546 1
127 207 1
127 229 1
127 259 1
127 399 1
127 421 1
127 451 1
127 495 1
127 517 1
127 547 1
128 208 1
128 232 1
128 262 1
128 400 1
128 424 1
128 454 1
128 496 1
128 520 1
128 550 1
129 221 1
129 227 1
129 288 1
129 413 1
129 419 1
129 480 1
129 509 1
129 515 1
129 576 1
130 211 1
130 230 1
130 281 1
130 403 1
130 422 1
130 473 1
130 499 1
130 518 1
130 569 1
131 216 1
131 228 1
131 286 1
131 408 1
131 420 1
131 478 1
131 504 1
131 516 1
131 574 1
132 224 1
132 233 1
132 285 1
132 416 1
132 425 1
132 477 1
132 512 1
132 521 1
132 573 1
133 214 1
133 234 1
133 284 1
133 406 1
133 426 1
133 476 1
133 502 1
133 522 1
133 572 1
134 209 1
134 231 1
134 276 1
134 401 1
134 423 1
134 468 1
134 497 1
134 519 1
134 564 1
135 217 1
135 236 1
135 275 1
135 409 1
135 428 1
135 467 1
135 505 1
135 524 1
135 563 1
136 218 1
136 237 1
136 287 1
136 410 1
136 429 1
136 479 1
136 506 1
136 525 1
136 575 1
137 222 1
137 225 1
137 280 1
137 414 1
137 417 1
137 472 1
137 510 1
137 513 1
137 568 1
138 210 1
138 235 1
138 279 1
138 402 1
138 427 1
138 471 1
138 498 1
138 523 1
138 567 1
139 220 1
139 239 1
139 278 1
139 412 1
139 431 1
139 470 1
139 508 1
139 527 1
139 566 1
140 212 1
140 226 1
140 273 1
140 404 1
140 418 1
140 465 1
140 500 1
140 514 1
140 561 1
141 213 1
141 238 1
141 283 1
141 405 1
141 430 1
141 475 1
141 501 1
141 526 1
141 571 1
142 223 1
142 240 1
142 282 1
142 415 1
142 432 1
142 474 1
142 511 1
142 528 1
142 570 1
143 215 1
143 229 1
143 274 1
143 407 1
143 421 1
143 466 1
143 503 1
143 517 1
143 562 1
144 219 1
144 232 1
144 277 1
144 411 1
144 424 1
144 469 1
144 507 1
144 520 1
144 565 1
145 1 1
145 17 1
145 49 1
145 395 1
145 411 1
145 443 1
145 494 1
145 510 1
145 542 1
146 2 1
146 18 1
146 50 1
146 398 1
146 414 1
146 446 1
146 484 1
146 500 1
146 532 1
147 3 1
147 19 1
147 51 1
147 399 1
147 415 1
147 447 1
147 496 1
147 512 1
147 544 1
148 4 1
148 20 1
148 52 1
148 389 1
148 405 1
148 437 1
148 488 1
148 504 1
148 536 1
149 5 1
149 21 1
149 53 1
149 388 1
149 404 1
149 436 1
149 487 1
149 503 1
149 535 1
150 6 1
150 22 1
150 54 1
150 400 1
150 416 1
150 448 1
150 489 1
150 505 1
150 537 1
151 7 1
151 23 1
151 55 1
151 392 1
151 408 1
151 440 1
151 481 1
151 497 1
151 529 1
152 8 1
152 24 1
152 56 1
152 391 1
152 407 1
152 439 1
152 491 1
152 507 1
152 539 1
153 9 1
153 25 1
153 57 1
153 394 1
153 410 1
153 442 1
153 493 1
153 509 1
153 541 1
154 10 1
154 26 1
154 58 1
154 393 1
154 409 1
154 441 1
154 492 1
154 508 1
154 540 1
155 11 1
155 27 1
155 59 1
155 385 1
155 401 1
155 433 1
155 482 1
155 498 1
155 530 1
156 12 1
156 28 1
156 60 1
156 397 1
156 413 1
156 445 1
156 483 1
156 499 1
156 531 1
157 13 1
157 29 1
157 61 1
157 396 1
157 412 1
157 444 1
157 495 1
157 511 1
157 543 1
158 14 1
158 30 1
158 62 1
158 386 1
158 402 1
158 434 1
158 485 1
158 501 1
158 533 1
159 15 1
159 31 1
159 63 1
159 387 1
159 403 1
159 435 1
159 486 1
159 502 1
159 534 1
160 16 1
160 32 1
160 64 1
160 390 1
160 406 1
160 438 1
160 490 1
160 506 1
160 538 1
161 1 1
161 33 1
161 65 1
161 395 1
161 427 1
161 459 1
161 494 1
161 526 1
161 558 1
162 2 1
162 34 1
162 66 1
162 398 1
162 430 1
162 462 1
162 484 1
162 516 1
162 548 1
163 3 1
163 35 1
163 67 1
163 399 1
163 431 1
163 463 1
163 496 1
163 528 1
163 560 1
164 4 1
164 36 1
164 68 1
164 389 1
164 421 1
164 453 1
164 488 1
164 520 1
164 552 1
165 5 1
165 37 1
165 69 1
165 388 1
165 420 1
165 452 1
165 487 1
165 519 1
165 551 1
166 6 1
166 38 1
166 70 1
166 400 1
166 432 1
166 464 1
166 489 1
166 521 1
166 553 1
167 7 1
167 39 1
167 71 1
167 392 1
167 424 1
167 456 1
167 481 1
167 513 1
167 545 1
168 8 1
168 40 1
168 72 1
168 391 1
168 423 1
168 455 1
168 491 1
168 523 1
168 555 1
169 9 1
169 41 1
169 73 1
169 394 1
169 426 1
169 458 1
169 493 1
169 525 1
169 557 1
170 10 1
170 42 1
170 74 1
170 393 1
170 425 1
170 457 1
170 492 1
170 524 1
170 556 1
171 11 1
171 43 1
171 75 1
171 385 1
171 417 1
171 449 1
171 482 1
171 514 1
171 546 1
172 12 1
172 44 1
172 76 1
172 397 1
172 429 1
172 461 1
172 483 1
172 515 1
172 547 1
173 13 1
173 45 1
173 77 1
173 396 1
173 428 1
173 460 1
173 495 1
173 527 1
173 559 1
174 14 1
174 46 1
174 78 1
174 386 1
174 418 1
174 450 1
174 485 1
174 517 1
174 549 1
175 15 1
175 47 1
175 79 1
175 387 1
175 419 1
175 451 1
175 486 1
175 518 1
175 550 1
176 16 1
176 48 1
176 80 1
176 390 1
176 422 1
176 454 1
176 490 1
176 522 1
176 554 1
177 17 1
177 33 1
177 81 1
177 411 1
177 427 1
177 475 1
177 510 1
177 526 1
177 574 1
178 18 1
178 34 1
178 82 1
178 414 1
178 430 1
178 478 1
178 500 1
178 516 1
178 564 1
179 19 1
179 35 1
179 83 1
179 415 1
179 431 1
179 479 1
179 512 1
179 528 1
179 576 1
180 20 1
180 36 1
180 84 1
180 405 1
180 421 1
180 469 1
180 504 1
180 520 1
180 568 1
181 21 1
181 37 1
181 85 1
181 404 1
181 420 1
181 468 1
181 503 1
181 519 1
181 567 1
182 22 1
182 38 1
182 86 1
182 416 1
182 432 1
182 480 1
182 505 1
182 521 1
182 569 1
183 23 1
183 39 1
183 87 1
183 408 1
183 424 1
183 472 1
183 497 1
183 513 1
183 561 1
184 24 1
184 40 1
184 88 1
184 407 1
184 423 1
184 471 1
184 507 1
184 523 1
184 571 1
185 25 1
185 41 1
185 89 1
185 410 1
185 426 1
185 474 1
185 509 1
185 525 1
185 573 1
186 26 1
186 42 1
186 90 1
186 409 1
186 425 1
186 473 1
186 508 1
186 524 1
186 572 1
187 27 1
187 43 1
187 91 1
187 401 1
187 417 1
187 465 1
187 498 1
187 514 1
187 562 1
188 28 1
188 44 1
188 92 1
188 413 1
188 429 1
188 477 1
188 499 1
188 515 1
188 563 1
189 29 1
189 45 1
189 93 1
189 412 1
189 428 1
189 476 1
189 511 1
189 527 1
189 575 1
190 30 1
190 46 1
190 94 1
190 402 1
190 418 1
190 466 1
190 501 1
190 517 1
190 565 1
191 31 1
191 47 1
191 95 1
191 403 1
191 419 1
191 467 1
191 502 1
191 518 1
191 566 1
192 32 1
192 48 1
192 96 1
192 406 1
192 422 1
192 470 1
192 506 1
192 522 1
192 570 1
193 101 1
193 117 1
193 149 1
193 198 1
193 214 1
193 246 1
193 494 1
193 510 1
193 542 1
194 104 1
194 120 1
194 152 1
194 207 1
194 223 1
194 255 1
194 484 1
194 500 1
194 532 1
195 106 1
195 122 1
195 154 1
195 199 1
195 215 1
195 247 1
195 496 1
195 512 1
195 544 1
196 107 1
196 123 1
196 155 1
196 204 1
196 220 1
196 252 1
196 488 1
196 504 1
196 536 1
197 97 1
197 113 1
197 145 1
197 205 1
197 221 1
197 253 1
197 487 1
197 503 1
197 535 1
198 109 1
198 125 1
198 157 1
198 197 1
198 213 1
198 245 1
198 489 1
198 505 1
198 537 1
199 110 1
199 126 1
199 158 1
199 202 1
199 218 1
199 250 1
199 481 1
199 497 1
199 529 1
200 98 1
200 114 1
200 146 1
200 201 1
200 217 1
200 249 1
200 491 1
200 507 1
200 539 1
201 111 1
201 127 1
201 159 1
201 194 1
201 210 1
201 242 1
201 493 1
201 509 1
201 541 1
202 99 1
202 115 1
202 147 1
202 206 1
202 222 1
202 254 1
202 492 1
202 508 1
202 540 1
203 100 1
203 116 1
203 148 1
203 208 1
203 224 1
203 256 1
203 482 1
203 498 1
203 530 1
204 112 1
204 128 1
204 160 1
204 203 1
204 219 1
204 251 1
204 483 1
204 499 1
204 531 1
205 102 1
205 118 1
205 150 1
205 193 1
205 209 1
205 241 1
205 495 1
205 511 1
205 543 1
206 103 1
206 119 1
206 151 1
206 195 1
206 211 1
206 243 1
206 485 1
206 501 1
206 533 1
207 105 1
207 121 1
207 153 1
207 200 1
207 216 1
207 248 1
207 486 1
207 502 1
207 534 1
208 108 1
208 124 1
208 156 1
208 196 1
208 212 1
208 244 1
208 490 1
208 506 1
208 538 1
209 101 1
209 133 1
209 165 1
209 198 1
209 230 1
209 262 1
209 494 1
209 526 1
209 558 1
210 104 1
210 136 1
210 168 1
210 207 1
210 239 1
210 271 1
210 484 1
210 516 1
210 548 1
211 106 1
211 138 1
211 170 1
211 199 1
211 231 1
211 263 1
211 496 1
211 528 1
211 560 1
212 107 1
212 139 1
212 171 1
212 204 1
212 236 1
212 268 1
212 488 1
212 520 1
212 552 1
213 97 1
213 129 1
213 161 1
213 205 1
213 237 1
213 269 1
213 487 1
213 519 1
213 551 1
214 109 1
214 141 1
214 173 1
214 197 1
214 229 1
214 261 1
214 489 1
214 521 1
214 553 1
215 110 1
215 142 1
215 174 1
215 202 1
215 234 1
215 266 1
215 481 1
215 513 1
215 545 1
216 98 1
216 130 1
216 162 1
216 201 1
216 233 1
216 265 1
216 491 1
216 523 1
216 555 1
217 111 1
217 143 1
217 175 1
217 194 1
217 226 1
217 258 1
217 493 1
217 525 1
217 557 1
218 99 1
218 131 1
218 163 1
218 206 1
218 238 1
218 270 1
218 492 1
218 524 1
218 556 1
219 100 1
219 132 1
219 164 1
219 208 1
219 240 1
219 272 1
219 482 1
219 514 1
219 546 1
220 112 1
220 144 1
220 176 1
220 203 1
220 235 1
220 267 1
220 483 1
220 515 1
220 547 1
221 102 1
221 134 1
221 166 1
221 193 1
221 225 1
221 257 1
221 495 1
221 527 1
221 559 1
222 103 1
222 135 1
222 167 1
222 195 1
222 227 1
222 259 1
222 485 1
222 517 1
222 549 1
223 105 1
223 137 1
223 169 1
223 200 1
223 232 1
223 264 1
223 486 1
223 518 1
223 550 1
224 108 1
224 140 1
224 172 1
224 196 1
224 228 1
224 260 1
224 490 1
224 522 1
224 554 1
225 117 1
225 133 1
225 181 1
225 214 1
225 230 1
225 278 1
225 510 1
225 526 1
225 574 1
226 120 1
226 136 1
226 184 1
226 223 1
226 239 1
226 287 1
226 500 1
226 516 1
226 564 1
227 122 1
227 138 1
227 186 1
227 215 1
227 231 1
227 279 1
227 512 1
227 528 1
227 576 1
228 123 1
228 139 1
228 187 1
228 220 1
228 236 1
228 284 1
228 504 1
228 520 1
228 568 1
229 113 1
229 129 1
229 177 1
229 221 1
229 237 1
229 285 1
229 503 1
229 519 1
229 567 1
230 125 1
230 141 1
230 189 1
230 213 1
230 229 1
230 277 1
230 505 1
230 521 1
230 569 1
231 126 1
231 142 1
231 190 1
231 218 1
231 234 1
231 282 1
231 497 1
231 513 1
231 561 1
232 114 1
232 130 1
232 178 1
232 217 1
232 233 1
232 281 1
232 507 1
232 523 1
232 571 1
233 127 1
233 143 1
233 191 1
233 210 1
233 226 1
233 274 1
233 509 1
233 525 1
233 573 1
234 115 1
234 131 1
234 179 1
234 222 1
234 238 1
234 286 1
234 508 1
234 524 1
234 572 1
235 116 1
235 132 1
235 180 1
235 224 1
235 240 1
235 288 1
235 498 1
235 514 1
235 562 1
236 128 1
236 144 1
236 192 1
236 219 1
236 235 1
236 283 1
236 499 1
236 515 1
236 563 1
237 118 1
237 134 1
237 182 1
237 209 1
237 225 1
237 273 1
237 511 1
237 527 1
237 575 1
238 119 1
238 135 1
238 183 1
238 211 1
238 227 1
238 275 1
238 501 1
238 517 1
238 565 1
239 121 1
239 137 1
239 185 1
239 216 1
239 232 1
239 280 1
239 502 1
239 518 1
239 566 1
240 124 1
240 140 1
240 188 1
240 212 1
240 228 1
240 276 1
240 506 1
240 522 1
240 570 1
241 198 1
241 214 1
241 246 1
241 297 1
241 313 1
241 345 1
241 395 1
241 411 1
241 443 1
242 207 1
242 223 1
242 255 1
242 294 1
242 310 1
242 342 1
242 398 1
242 414 1
242 446 1
243 199 1
243 215 1
243 247 1
243 289 1
243 305 1
243 337 1
243 399 1
243 415 1
243 447 1
244 204 1
244 220 1
244 252 1
244 291 1
244 307 1
244 339 1
244 389 1
244 405 1
244 437 1
245 205 1
245 221 1
245 253 1
245 303 1
245 319 1
245 351 1
245 388 1
245 404 1
245 436 1
246 197 1
246 213 1
246 245 1
246 295 1
246 311 1
246 343 1
246 400 1
246 416 1
246 448 1
247 202 1
247 218 1
247 250 1
247 300 1
247 316 1
247 348 1
247 392 1
247 408 1
247 440 1
248 201 1
248 217 1
248 249 1
248 301 1
248 317 1
248 349 1
248 391 1
248 407 1
248 439 1
249 194 1
249 210 1
249 242 1
249 292 1
249 308 1
249 340 1
249 394 1
249 410 1
249 442 1
250 206 1
250 222 1
250 254 1
250 293 1
250 309 1
250 341 1
250 393 1
250 409 1
250 441 1
251 208 1
251 224 1
251 256 1
251 298 1
251 314 1
251 346 1
251 385 1
251 401 1
251 433 1
252 203 1
252 219 1
252 251 1
252 290 1
252 306 1
252 338 1
252 397 1
252 413 1
252 445 1
253 193 1
253 209 1
253 241 1
253 302 1
253 318 1
253 350 1
253 396 1
253 412 1
253 444 1
254 195 1
254 211 1
254 243 1
254 304 1
254 320 1
254 352 1
254 386 1
254 402 1
254 434 1
255 200 1
255 216 1
255 248 1
255 299 1
255 315 1
255 347 1
255 387 1
255 403 1
255 435 1
256 196 1
256 212 1
256 244 1
256 296 1
256 312 1
256 344 1
256 390 1
256 406 1
256 438 1
257 198 1
257 230 1
257 262 1
257 297 1
257 329 1
257 361 1
257 395 1
257 427 1
257 459 1
258 207 1
258 239 1
258 271 1
258 294 1
258 326 1
258 358 1
258 398 1
258 430 1
258 462 1
259 199 1
259 231 1
259 263 1
259 289 1
259 321 1
259 353 1
259 399 1
259 431 1
259 463 1
260 204 1
260 236 1
260 268 1
260 291 1
260 323 1
260 355 1
260 389 1
260 421 1
260 453 1
261 205 1
261 237 1
261 269 1
261 303 1
261 335 1
261 367 1
261 388 1
261 420 1
261 452 1
262 197 1
262 229 1
262 261 1
262 295 1
262 327 1
262 359 1
262 400 1
262 432 1
262 464 1
263 202 1
263 234 1
263 266 1
263 300 1
263 332 1
263 364 1
263 392 1
263 424 1
263 456 1
264 201 1
264 233 1
264 265 1
264 301 1
264 333 1
264 365 1
264 391 1
264 423 1
264 455 1
265 194 1
265 226 1
265 258 1
265 292 1
265 324 1
265 356 1
265 394 1
265 426 1
265 458 1
266 206 1
266 238 1
266 270 1
266 293 1
266 325 1
266 357 1
266 393 1
266 425 1
266 457 1
267 208 1
267 240 1
267 272 1
267 298 1
267 330 1
267 362 1
267 385 1
267 417 1
267 449 1
268 203 1
268 235 1
268 267 1
268 290 1
268 322 1
268 354 1
268 397 1
268 429 1
268 461 1
269 193 1
269 225 1
269 257 1
269 302 1
269 334 1
269 366 1
269 396 1
269 428 1
269 460 1
270 195 1
270 227 1
270 259 1
270 304 1
270 336 1
270 368 1
270 386 1
270 418 1
270 450 1
271 200 1
271 232 1
271 264 1
271 299 1
271 331 1
271 363 1
271 387 1
271 419 1
271 451 1
272 196 1
272 228 1
272 260 1
272 296 1
272 328 1
272 360 1
272 390 1
272 422 1
272 454 1
273 214 1
273 230 1
273 278 1
273 313 1
273 329 1
273 377 1
273 411 1
273 427 1
273 475 1
274 223 1
274 239 1
274 287 1
274 310 1
274 326 1
274 374 1
274 414 1
274 430 1
274 478 1
275 215 1
275 231 1
275 279 1
275 305 1
275 321 1
275 369 1
275 415 1
275 431 1
275 479 1
276 220 1
276 236 1
276 284 1
276 307 1
276 323 1
276 371 1
276 405 1
276 421 1
276 469 1
277 221 1
277 237 1
277 285 1
277 319 1
277 335 1
277 383 1
277 404 1
277 420 1
277 468 1
278 213 1
278 229 1
278 277 1
278 311 1
278 327 1
278 375 1
278 416 1
278 432 1
278 480 1
279 218 1
279 234 1
279 282 1
279 316 1
279 332 1
279 380 1
279 408 1
279 424 1
279 472 1
280 217 1
280 233 1
280 281 1
280 317 1
280 333 1
280 381 1
280 407 1
280 423 1
280 471 1
281 210 1
281 226 1
281 274 1
281 308 1
281 324 1
281 372 1
281 410 1
281 426 1
281 474 1
282 222 1
282 238 1
282 286 1
282 309 1
282 325 1
282 373 1
282 409 1
282 425 1
282 473 1
283 224 1
283 240 1
283 288 1
283 314 1
283 330 1
283 378 1
283 401 1
283 417 1
283 465 1
284 219 1
284 235 1
284 283 1
284 306 1
284 322 1
284 370 1
284 413 1
284 429 1
284 477 1
285 209 1
285 225 1
285 273 1
285 318 1
285 334 1
285 382 1
285 412 1
285 428 1
285 476 1
286 211 1
286 227 1
286 275 1
286 320 1
286 336 1
286 384 1
286 402 1
286 418 1
286 466 1
287 216 1
287 232 1
287 280 1
287 315 1
287 331 1
287 379 1
287 403 1
287 419 1
287 467 1
288 212 1
288 228 1
288 276 1
288 312 1
288 328 1
288 376 1
288 406 1
288 422 1
288 470 1
