%%MatrixMarket matrix coordinate integer general
288 576 2592
1 1 1
1 32 1
1 46 1
1 289 1
1 320 1
1 334 1
1 385 1
1 416 1
1 430 1
2 2 1
2 17 1
2 47 1
2 290 1
2 305 1
2 335 1
2 386 1
2 401 1
2 431 1
3 3 1
3 18 1
3 48 1
3 291 1
3 306 1
3 336 1
3 387 1
3 402 1
3 432 1
4 4 1
4 22 1
4 34 1
4 292 1
4 310 1
4 322 1
4 388 1
4 406 1
4 418 1
5 5 1
5 28 1
5 39 1
5 293 1
5 316 1
5 327 1
5 389 1
5 412 1
5 423 1
6 6 1
6 19 1
6 33 1
6 294 1
6 307 1
6 321 1
6 390 1
6 403 1
6 417 1
7 7 1
7 20 1
7 35 1
7 295 1
7 308 1
7 323 1
7 391 1
7 404 1
7 419 1
8 8 1
8 21 1
8 41 1
8 296 1
8 309 1
8 329 1
8 392 1
8 405 1
8 425 1
9 9 1
9 23 1
9 38 1
9 297 1
9 311 1
9 326 1
9 393 1
9 407 1
9 422 1
10 10 1
10 24 1
10 44 1
10 298 1
10 312 1
10 332 1
10 394 1
10 408 1
10 428 1
11 11 1
11 29 1
11 40 1
11 299 1
11 317 1
11 328 1
11 395 1
11 413 1
11 424 1
12 12 1
12 25 1
12 36 1
12 300 1
12 313 1
12 324 1
12 396 1
12 409 1
12 420 1
13 13 1
13 26 1
13 37 1
13 301 1
13 314 1
13 325 1
13 397 1
13 410 1
13 421 1
14 14 1
14 27 1
14 42 1
14 302 1
14 315 1
14 330 1
14 398 1
14 411 1
14 426 1
15 15 1
15 30 1
15 45 1
15 303 1
15 318 1
15 333 1
15 399 1
15 414 1
15 429 1
16 16 1
16 31 1
16 43 1
16 304 1
16 319 1
16 331 1
16 400 1
16 415 1
16 427 1
17 1 1
17 61 1
17 77 1
17 289 1
17 349 1
17 365 1
17 385 1
17 445 1
17 461 1
18 2 1
18 59 1
18 75 1
18 290 1
18 347 1
18 363 1
18 386 1
18 443 1
18 459 1
19 3 1
19 62 1
19 78 1
19 291 1
19 350 1
19 366 1
19 387 1
19 446 1
19 462 1
20 4 1
20 64 1
20 80 1
20 292 1
20 352 1
20 368 1
20 388 1
20 448 1
20 464 1
21 5 1
21 54 1
21 70 1
21 293 1
21 342 1
21 358 1
21 389 1
21 438 1
21 454 1
22 6 1
22 63 1
22 79 1
22 294 1
22 351 1
22 367 1
22 390 1
22 447 1
22 463 1
23 7 1
23 49 1
23 65 1
23 295 1
23 337 1
23 353 1
23 391 1
23 433 1
23 449 1
24 8 1
24 52 1
24 68 1
24 296 1
24 340 1
24 356 1
24 392 1
24 436 1
24 452 1
25 9 1
25 50 1
25 66 1
25 297 1
25 338 1
25 354 1
25 393 1
25 434 1
25 450 1
26 10 1
26 55 1
26 71 1
26 298 1
26 343 1
26 359 1
26 394 1
26 439 1
26 455 1
27 11 1
27 60 1
27 76 1
27 299 1
27 348 1
27 364 1
27 395 1
27 444 1
27 460 1
28 12 1
28 51 1
28 67 1
28 300 1
28 339 1
28 355 1
28 396 1
28 435 1
28 451 1
29 13 1
29 57 1
29 73 1
29 301 1
29 345 1
29 361 1
29 397 1
29 441 1
29 457 1
30 14 1
30 53 1
30 69 1
30 302 1
30 341 1
30 357 1
30 398 1
30 437 1
30 453 1
31 15 1
31 56 1
31 72 1
31 303 1
31 344 1
31 360 1
31 399 1
31 440 1
31 456 1
32 16 1
32 58 1
32 74 1
32 304 1
32 346 1
32 362 1
32 400 1
32 442 1
32 458 1
33 32 1
33 61 1
33 82 1
33 320 1
33 349 1
33 370 1
33 416 1
33 445 1
33 466 1
34 17 1
34 59 1
34 83 1
34 305 1
34 347 1
34 371 1
34 401 1
34 443 1
34 467 1
35 18 1
35 62 1
35 86 1
35 306 1
35 350 1
35 374 1
35 402 1
35 446 1
35 470 1
36 22 1
36 64 1
36 87 1
36 310 1
36 352 1
36 375 1
36 406 1
36 448 1
36 471 1
37 28 1
37 54 1
37 88 1
37 316 1
37 342 1
37 376 1
37 412 1
37 438 1
37 472 1
38 19 1
38 63 1
38 84 1
38 307 1
38 351 1
38 372 1
38 403 1
38 447 1
38 468 1
39 20 1
39 49 1
39 89 1
39 308 1
39 337 1
39 377 1
39 404 1
39 433 1
39 473 1
40 21 1
40 52 1
40 90 1
40 309 1
40 340 1
40 378 1
40 405 1
40 436 1
40 474 1
41 23 1
41 50 1
41 92 1
41 311 1
41 338 1
41 380 1
41 407 1
41 434 1
41 476 1
42 24 1
42 55 1
42 93 1
42 312 1
42 343 1
42 381 1
42 408 1
42 439 1
42 477 1
43 29 1
43 60 1
43 94 1
43 317 1
43 348 1
43 382 1
43 413 1
43 444 1
43 478 1
44 25 1
44 51 1
44 85 1
44 313 1
44 339 1
44 373 1
44 409 1
44 435 1
44 469 1
45 26 1
45 57 1
45 91 1
45 314 1
45 345 1
45 379 1
45 410 1
45 441 1
45 475 1
46 27 1
46 53 1
46 95 1
46 315 1
46 341 1
46 383 1
46 411 1
46 437 1
46 479 1
47 30 1
47 56 1
47 96 1
47 318 1
47 344 1
47 384 1
47 414 1
47 440 1
47 480 1
48 31 1
48 58 1
48 81 1
48 319 1
48 346 1
48 369 1
48 415 1
48 442 1
48 465 1
49 97 1
49 128 1
49 142 1
49 289 1
49 320 1
49 334 1
49 481 1
49 512 1
49 526 1
50 98 1
50 113 1
50 143 1
50 290 1
50 305 1
50 335 1
50 482 1
50 497 1
50 527 1
51 99 1
51 114 1
51 144 1
51 291 1
51 306 1
51 336 1
51 483 1
51 498 1
51 528 1
52 100 1
52 118 1
52 130 1
52 292 1
52 310 1
52 322 1
52 484 1
52 502 1
52 514 1
53 101 1
53 124 1
53 135 1
53 293 1
53 316 1
53 327 1
53 485 1
53 508 1
53 519 1
54 102 1
54 115 1
54 129 1
54 294 1
54 307 1
54 321 1
54 486 1
54 499 1
54 513 1
55 103 1
55 116 1
55 131 1
55 295 1
55 308 1
55 323 1
55 487 1
55 500 1
55 515 1
56 104 1
56 117 1
56 137 1
56 296 1
56 309 1
56 329 1
56 488 1
56 501 1
56 521 1
57 105 1
57 119 1
57 134 1
57 297 1
57 311 1
57 326 1
57 489 1
57 503 1
57 518 1
58 106 1
58 120 1
58 140 1
58 298 1
58 312 1
58 332 1
58 490 1
58 504 1
58 524 1
59 107 1
59 125 1
59 136 1
59 299 1
59 317 1
59 328 1
59 491 1
59 509 1
59 520 1
60 108 1
60 121 1
60 132 1
60 300 1
60 313 1
60 324 1
60 492 1
60 505 1
60 516 1
61 109 1
61 122 1
61 133 1
61 301 1
61 314 1
61 325 1
61 493 1
61 506 1
61 517 1
62 110 1
62 123 1
62 138 1
62 302 1
62 315 1
62 330 1
62 494 1
62 507 1
62 522 1
63 111 1
63 126 1
63 141 1
63 303 1
63 318 1
63 333 1
63 495 1
63 510 1
63 525 1
64 112 1
64 127 1
64 139 1
64 304 1
64 319 1
64 331 1
64 496 1
64 511 1
64 523 1
65 97 1
65 157 1
65 173 1
65 289 1
65 349 1
65 365 1
65 481 1
65 541 1
65 557 1
66 98 1
66 155 1
66 171 1
66 290 1
66 347 1
66 363 1
66 482 1
66 539 1
66 555 1
67 99 1
67 158 1
67 174 1
67 291 1
67 350 1
67 366 1
67 483 1
67 542 1
67 558 1
68 100 1
68 160 1
68 176 1
68 292 1
68 352 1
68 368 1
68 484 1
68 544 1
68 560 1
69 101 1
69 150 1
69 166 1
69 293 1
69 342 1
69 358 1
69 485 1
69 534 1
69 550 1
70 102 1
70 159 1
70 175 1
70 294 1
70 351 1
70 367 1
70 486 1
70 543 1
70 559 1
71 103 1
71 145 1
71 161 1
71 295 1
71 337 1
71 353 1
71 487 1
71 529 1
71 545 1
72 104 1
72 148 1
72 164 1
72 296 1
72 340 1
72 356 1
72 488 1
72 532 1
72 548 1
73 105 1
73 146 1
73 162 1
73 297 1
73 338 1
73 354 1
73 489 1
73 530 1
73 546 1
74 106 1
74 151 1
74 167 1
74 298 1
74 343 1
74 359 1
74 490 1
74 535 1
74 551 1
75 107 1
75 156 1
75 172 1
75 299 1
75 348 1
75 364 1
75 491 1
75 540 1
75 556 1
76 108 1
76 147 1
76 163 1
76 300 1
76 339 1
76 355 1
76 492 1
76 531 1
76 547 1
77 109 1
77 153 1
77 169 1
77 301 1
77 345 1
77 361 1
77 493 1
77 537 1
77 553 1
78 110 1
78 149 1
78 165 1
78 302 1
78 341 1
78 357 1
78 494 1
78 533 1
78 549 1
79 111 1
79 152 1
79 168 1
79 303 1
79 344 1
79 360 1
79 495 1
79 536 1
79 552 1
80 112 1
80 154 1
80 170 1
80 304 1
80 346 1
80 362 1
80 496 1
80 538 1
80 554 1
81 128 1
81 157 1
81 178 1
81 320 1
81 349 1
81 370 1
81 512 1
81 541 1
81 562 1
82 113 1
82 155 1
82 179 1
82 305 1
82 347 1
82 371 1
82 497 1
82 539 1
82 563 1
83 114 1
83 158 1
83 182 1
83 306 1
83 350 1
83 374 1
83 498 1
83 542 1
83 566 1
84 118 1
84 160 1
84 183 1
84 310 1
84 352 1
84 375 1
84 502 1
84 544 1
84 567 1
85 124 1
85 150 1
85 184 1
85 316 1
85 342 1
85 376 1
85 508 1
85 534 1
85 568 1
86 115 1
86 159 1
86 180 1
86 307 1
86 351 1
86 372 1
86 499 1
86 543 1
86 564 1
87 116 1
87 145 1
87 185 1
87 308 1
87 337 1
87 377 1
87 500 1
87 529 1
87 569 1
88 117 1
88 148 1
88 186 1
88 309 1
88 340 1
88 378 1
88 501 1
88 532 1
88 570 1
89 119 1
89 146 1
89 188 1
89 311 1
89 338 1
89 380 1
89 503 1
89 530 1
89 572 1
90 120 1
90 151 1
90 189 1
90 312 1
90 343 1
90 381 1
90 504 1
90 535 1
90 573 1
91 125 1
91 156 1
91 190 1
91 317 1
91 348 1
91 382 1
91 509 1
91 540 1
91 574 1
92 121 1
92 147 1
92 181 1
92 313 1
92 339 1
92 373 1
92 505 1
92 531 1
92 565 1
93 122 1
93 153 1
93 187 1
93 314 1
93 345 1
93 379 1
93 506 1
93 537 1
93 571 1
94 123 1
94 149 1
94 191 1
94 315 1
94 341 1
94 383 1
94 507 1
94 533 1
94 575 1
95 126 1
95 152 1
95 192 1
95 318 1
95 344 1
95 384 1
95 510 1
95 536 1
95 576 1
96 127 1
96 154 1
96 177 1
96 319 1
96 346 1
96 369 1
96 511 1
96 538 1
96 561 1
97 193 1
97 224 1
97 238 1
97 385 1
97 416 1
97 430 1
97 481 1
97 512 1
97 526 1
98 194 1
98 209 1
98 239 1
98 386 1
98 401 1
98 431 1
98 482 1
98 497 1
98 527 1
99 195 1
99 210 1
99 240 1
99 387 1
99 402 1
99 432 1
99 483 1
99 498 1
99 528 1
100 196 1
100 214 1
100 226 1
100 388 1
100 406 1
100 418 1
100 484 1
100 502 1
100 514 1
101 197 1
101 220 1
101 231 1
101 389 1
101 412 1
101 423 1
101 485 1
101 508 1
101 519 1
102 198 1
102 211 1
102 225 1
102 390 1
102 403 1
102 417 1
102 486 1
102 499 1
102 513 1
103 199 1
103 212 1
103 227 1
103 391 1
103 404 1
103 419 1
103 487 1
103 500 1
103 515 1
104 200 1
104 213 1
104 233 1
104 392 1
104 405 1
104 425 1
104 488 1
104 501 1
104 521 1
105 201 1
105 215 1
105 230 1
105 393 1
105 407 1
105 422 1
105 489 1
105 503 1
105 518 1
106 202 1
106 216 1
106 236 1
106 394 1
106 408 1
106 428 1
106 490 1
106 504 1
106 524 1
107 203 1
107 221 1
107 232 1
107 395 1
107 413 1
107 424 1
107 491 1
107 509 1
107 520 1
108 204 1
108 217 1
108 228 1
108 396 1
108 409 1
108 420 1
108 492 1
108 505 1
108 516 1
109 205 1
109 218 1
109 229 1
109 397 1
109 410 1
109 421 1
109 493 1
109 506 1
109 517 1
110 206 1
110 219 1
110 234 1
110 398 1
110 411 1
110 426 1
110 494 1
110 507 1
110 522 1
111 207 1
111 222 1
111 237 1
111 399 1
111 414 1
111 429 1
111 495 1
111 510 1
111 525 1
112 208 1
112 223 1
112 235 1
112 400 1
112 415 1
112 427 1
112 496 1
112 511 1
112 523 1
113 193 1
113 253 1
113 269 1
113 385 1
113 445 1
113 461 1
113 481 1
113 541 1
113 557 1
114 194 1
114 251 1
114 267 1
114 386 1
114 443 1
114 459 1
114 482 1
114 539 1
114 555 1
115 195 1
115 254 1
115 270 1
115 387 1
115 446 1
115 462 1
115 483 1
115 542 1
115 558 1
116 196 1
116 256 1
116 272 1
116 388 1
116 448 1
116 464 1
116 484 1
116 544 1
116 560 1
117 197 1
117 246 1
117 262 1
117 389 1
117 438 1
117 454 1
117 485 1
117 534 1
117 550 1
118 198 1
118 255 1
118 271 1
118 390 1
118 447 1
118 463 1
118 486 1
118 543 1
118 559 1
119 199 1
119 241 1
119 257 1
119 391 1
119 433 1
119 449 1
119 487 1
119 529 1
119 545 1
120 200 1
120 244 1
120 260 1
120 392 1
120 436 1
120 452 1
120 488 1
120 532 1
120 548 1
121 201 1
121 242 1
121 258 1
121 393 1
121 434 1
121 450 1
121 489 1
121 530 1
121 546 1
122 202 1
122 247 1
122 263 1
122 394 1
122 439 1
122 455 1
122 490 1
122 535 1
122 551 1
123 203 1
123 252 1
123 268 1
123 395 1
123 444 1
123 460 1
123 491 1
123 540 1
123 556 1
124 204 1
124 243 1
124 259 1
124 396 1
124 435 1
124 451 1
124 492 1
124 531 1
124 547 1
125 205 1
125 249 1
125 265 1
125 397 1
125 441 1
125 457 1
125 493 1
125 537 1
125 553 1
126 206 1
126 245 1
126 261 1
126 398 1
126 437 1
126 453 1
126 494 1
126 533 1
126 549 1
127 207 1
127 248 1
127 264 1
127 399 1
127 440 1
127 456 1
127 495 1
127 536 1
127 552 1
128 208 1
128 250 1
128 266 1
128 400 1
128 442 1
128 458 1
128 496 1
128 538 1
128 554 1
129 224 1
129 253 1
129 274 1
129 416 1
129 445 1
129 466 1
129 512 1
129 541 1
129 562 1
130 209 1
130 251 1
130 275 1
130 401 1
130 443 1
130 467 1
130 497 1
130 539 1
130 563 1
131 210 1
131 254 1
131 278 1
131 402 1
131 446 1
131 470 1
131 498 1
131 542 1
131 566 1
132 214 1
132 256 1
132 279 1
132 406 1
132 448 1
132 471 1
132 502 1
132 544 1
132 567 1
133 220 1
133 246 1
133 280 1
133 412 1
133 438 1
133 472 1
133 508 1
133 534 1
133 568 1
134 211 1
134 255 1
134 276 1
134 403 1
134 447 1
134 468 1
134 499 1
134 543 1
134 564 1
135 212 1
135 241 1
135 281 1
135 404 1
135 433 1
135 473 1
135 500 1
135 529 1
135 569 1
136 213 1
136 244 1
136 282 1
136 405 1
136 436 1
136 474 1
136 501 1
136 532 1
136 570 1
137 215 1
137 242 1
137 284 1
137 407 1
137 434 1
137 476 1
137 503 1
137 530 1
137 572 1
138 216 1
138 247 1
138 285 1
138 408 1
138 439 1
138 477 1
138 504 1
138 535 1
138 573 1
139 221 1
139 252 1
139 286 1
139 413 1
139 444 1
139 478 1
139 509 1
139 540 1
139 574 1
140 217 1
140 243 1
140 277 1
140 409 1
140 435 1
140 469 1
140 505 1
140 531 1
140 565 1
141 218 1
141 249 1
141 283 1
141 410 1
141 441 1
141 475 1
141 506 1
141 537 1
141 571 1
142 219 1
142 245 1
142 287 1
142 411 1
142 437 1
142 479 1
142 507 1
142 533 1
142 575 1
143 222 1
143 248 1
143 288 1
143 414 1
143 440 1
143 480 1
143 510 1
143 536 1
143 576 1
144 223 1
144 250 1
144 273 1
144 415 1
144 442 1
144 465 1
144 511 1
144 538 1
144 561 1
145 1 1
145 17 1
145 49 1
145 394 1
145 410 1
145 442 1
145 492 1
145 508 1
145 540 1
146 2 1
146 18 1
146 50 1
146 397 1
146 413 1
146 445 1
146 485 1
146 501 1
146 533 1
147 3 1
147 19 1
147 51 1
147 395 1
147 411 1
147 443 1
147 488 1
147 504 1
147 536 1
148 4 1
148 20 1
148 52 1
148 399 1
148 415 1
148 447 1
148 493 1
148 509 1
148 541 1
149 5 1
149 21 1
149 53 1
149 387 1
149 403 1
149 435 1
149 496 1
149 512 1
149 544 1
150 6 1
150 22 1
150 54 1
150 398 1
150 414 1
150 446 1
150 490 1
150 506 1
150 538 1
151 7 1
151 23 1
151 55 1
151 400 1
151 416 1
151 448 1
151 491 1
151 507 1
151 539 1
152 8 1
152 24 1
152 56 1
152 390 1
152 406 1
152 438 1
152 481 1
152 497 1
152 529 1
153 9 1
153 25 1
153 57 1
153 385 1
153 401 1
153 433 1
153 494 1
153 510 1
153 542 1
154 10 1
154 26 1
154 58 1
154 388 1
154 404 1
154 436 1
154 482 1
154 498 1
154 530 1
155 11 1
155 27 1
155 59 1
155 393 1
155 409 1
155 441 1
155 486 1
155 502 1
155 534 1
156 12 1
156 28 1
156 60 1
156 386 1
156 402 1
156 434 1
156 495 1
156 511 1
156 543 1
157 13 1
157 29 1
157 61 1
157 391 1
157 407 1
157 439 1
157 483 1
157 499 1
157 531 1
158 14 1
158 30 1
158 62 1
158 396 1
158 412 1
158 444 1
158 484 1
158 500 1
158 532 1
159 15 1
159 31 1
159 63 1
159 389 1
159 405 1
159 437 1
159 487 1
159 503 1
159 535 1
160 16 1
160 32 1
160 64 1
160 392 1
160 408 1
160 440 1
160 489 1
160 505 1
160 537 1
161 1 1
161 33 1
161 65 1
161 394 1
161 426 1
161 458 1
161 492 1
161 524 1
161 556 1
162 2 1
162 34 1
162 66 1
162 397 1
162 429 1
162 461 1
162 485 1
162 517 1
162 549 1
163 3 1
163 35 1
163 67 1
163 395 1
163 427 1
163 459 1
163 488 1
163 520 1
163 552 1
164 4 1
164 36 1
164 68 1
164 399 1
164 431 1
164 463 1
164 493 1
164 525 1
164 557 1
165 5 1
165 37 1
165 69 1
165 387 1
165 419 1
165 451 1
165 496 1
165 528 1
165 560 1
166 6 1
166 38 1
166 70 1
166 398 1
166 430 1
166 462 1
166 490 1
166 522 1
166 554 1
167 7 1
167 39 1
167 71 1
167 400 1
167 432 1
167 464 1
167 491 1
167 523 1
167 555 1
168 8 1
168 40 1
168 72 1
168 390 1
168 422 1
168 454 1
168 481 1
168 513 1
168 545 1
169 9 1
169 41 1
169 73 1
169 385 1
169 417 1
169 449 1
169 494 1
169 526 1
169 558 1
170 10 1
170 42 1
170 74 1
170 388 1
170 420 1
170 452 1
170 482 1
170 514 1
170 546 1
171 11 1
171 43 1
171 75 1
171 393 1
171 425 1
171 457 1
171 486 1
171 518 1
171 550 1
172 12 1
172 44 1
172 76 1
172 386 1
172 418 1
172 450 1
172 495 1
172 527 1
172 559 1
173 13 1
173 45 1
173 77 1
173 391 1
173 423 1
173 455 1
173 483 1
173 515 1
173 547 1
174 14 1
174 46 1
174 78 1
174 396 1
174 428 1
174 460 1
174 484 1
174 516 1
174 548 1
175 15 1
175 47 1
175 79 1
175 389 1
175 421 1
175 453 1
175 487 1
175 519 1
175 551 1
176 16 1
176 48 1
176 80 1
176 392 1
176 424 1
176 456 1
176 489 1
176 521 1
176 553 1
177 17 1
177 33 1
177 81 1
177 410 1
177 426 1
177 474 1
177 508 1
177 524 1
177 572 1
178 18 1
178 34 1
178 82 1
178 413 1
178 429 1
178 477 1
178 501 1
178 517 1
178 565 1
179 19 1
179 35 1
179 83 1
179 411 1
179 427 1
179 475 1
179 504 1
179 520 1
179 568 1
180 20 1
180 36 1
180 84 1
180 415 1
180 431 1
180 479 1
180 509 1
180 525 1
180 573 1
181 21 1
181 37 1
181 85 1
181 403 1
181 419 1
181 467 1
181 512 1
181 528 1
181 576 1
182 22 1
182 38 1
182 86 1
182 414 1
182 430 1
182 478 1
182 506 1
182 522 1
182 570 1
183 23 1
183 39 1
183 87 1
183 416 1
183 432 1
183 480 1
183 507 1
183 523 1
183 571 1
184 24 1
184 40 1
184 88 1
184 406 1
184 422 1
184 470 1
184 497 1
184 513 1
184 561 1
185 25 1
185 41 1
185 89 1
185 401 1
185 417 1
185 465 1
185 510 1
185 526 1
185 574 1
186 26 1
186 42 1
186 90 1
186 404 1
186 420 1
186 468 1
186 498 1
186 514 1
186 562 1
187 27 1
187 43 1
187 91 1
187 409 1
187 425 1
187 473 1
187 502 1
187 518 1
187 566 1
188 28 1
188 44 1
188 92 1
188 402 1
188 418 1
188 466 1
188 511 1
188 527 1
188 575 1
189 29 1
189 45 1
189 93 1
189 407 1
189 423 1
189 471 1
189 499 1
189 515 1
189 563 1
190 30 1
190 46 1
190 94 1
190 412 1
190 428 1
190 476 1
190 500 1
190 516 1
190 564 1
191 31 1
191 47 1
191 95 1
191 405 1
191 421 1
191 469 1
191 503 1
191 519 1
191 567 1
192 32 1
192 48 1
192 96 1
192 408 1
192 424 1
192 472 1
192 505 1
192 521 1
192 569 1
193 99 1
193 115 1
193 147 1
193 198 1
193 214 1
193 246 1
193 492 1
193 508 1
193 540 1
194 102 1
194 118 1
194 150 1
194 196 1
194 212 1
194 244 1
194 485 1
194 501 1
194 533 1
195 100 1
195 116 1
195 148 1
195 199 1
195 215 1
195 247 1
195 488 1
195 504 1
195 536 1
196 105 1
196 121 1
196 153 1
196 204 1
196 220 1
196 252 1
196 493 1
196 509 1
196 541 1
197 106 1
197 122 1
197 154 1
197 205 1
197 221 1
197 253 1
197 496 1
197 512 1
197 544 1
198 103 1
198 119 1
198 151 1
198 201 1
198 217 1
198 249 1
198 490 1
198 506 1
198 538 1
199 108 1
199 124 1
199 156 1
199 197 1
199 213 1
199 245 1
199 491 1
199 507 1
199 539 1
200 109 1
200 125 1
200 157 1
200 203 1
200 219 1
200 251 1
200 481 1
200 497 1
200 529 1
201 101 1
201 117 1
201 149 1
201 200 1
201 216 1
201 248 1
201 494 1
201 510 1
201 542 1
202 107 1
202 123 1
202 155 1
202 206 1
202 222 1
202 254 1
202 482 1
202 498 1
202 530 1
203 111 1
203 127 1
203 159 1
203 208 1
203 224 1
203 256 1
203 486 1
203 502 1
203 534 1
204 104 1
204 120 1
204 152 1
204 202 1
204 218 1
204 250 1
204 495 1
204 511 1
204 543 1
205 110 1
205 126 1
205 158 1
205 207 1
205 223 1
205 255 1
205 483 1
205 499 1
205 531 1
206 112 1
206 128 1
206 160 1
206 193 1
206 209 1
206 241 1
206 484 1
206 500 1
206 532 1
207 97 1
207 113 1
207 145 1
207 194 1
207 210 1
207 242 1
207 487 1
207 503 1
207 535 1
208 98 1
208 114 1
208 146 1
208 195 1
208 211 1
208 243 1
208 489 1
208 505 1
208 537 1
209 99 1
209 131 1
209 163 1
209 198 1
209 230 1
209 262 1
209 492 1
209 524 1
209 556 1
210 102 1
210 134 1
210 166 1
210 196 1
210 228 1
210 260 1
210 485 1
210 517 1
210 549 1
211 100 1
211 132 1
211 164 1
211 199 1
211 231 1
211 263 1
211 488 1
211 520 1
211 552 1
212 105 1
212 137 1
212 169 1
212 204 1
212 236 1
212 268 1
212 493 1
212 525 1
212 557 1
213 106 1
213 138 1
213 170 1
213 205 1
213 237 1
213 269 1
213 496 1
213 528 1
213 560 1
214 103 1
214 135 1
214 167 1
214 201 1
214 233 1
214 265 1
214 490 1
214 522 1
214 554 1
215 108 1
215 140 1
215 172 1
215 197 1
215 229 1
215 261 1
215 491 1
215 523 1
215 555 1
216 109 1
216 141 1
216 173 1
216 203 1
216 235 1
216 267 1
216 481 1
216 513 1
216 545 1
217 101 1
217 133 1
217 165 1
217 200 1
217 232 1
217 264 1
217 494 1
217 526 1
217 558 1
218 107 1
218 139 1
218 171 1
218 206 1
218 238 1
218 270 1
218 482 1
218 514 1
218 546 1
219 111 1
219 143 1
219 175 1
219 208 1
219 240 1
219 272 1
219 486 1
219 518 1
219 550 1
220 104 1
220 136 1
220 168 1
220 202 1
220 234 1
220 266 1
220 495 1
220 527 1
220 559 1
221 110 1
221 142 1
221 174 1
221 207 1
221 239 1
221 271 1
221 483 1
221 515 1
221 547 1
222 112 1
222 144 1
222 176 1
222 193 1
222 225 1
222 257 1
222 484 1
222 516 1
222 548 1
223 97 1
223 129 1
223 161 1
223 194 1
223 226 1
223 258 1
223 487 1
223 519 1
223 551 1
224 98 1
224 130 1
224 162 1
224 195 1
224 227 1
224 259 1
224 489 1
224 521 1
224 553 1
225 115 1
225 131 1
225 179 1
225 214 1
225 230 1
225 278 1
225 508 1
225 524 1
225 572 1
226 118 1
226 134 1
226 182 1
226 212 1
226 228 1
226 276 1
226 501 1
226 517 1
226 565 1
227 116 1
227 132 1
227 180 1
227 215 1
227 231 1
227 279 1
227 504 1
227 520 1
227 568 1
228 121 1
228 137 1
228 185 1
228 220 1
228 236 1
228 284 1
228 509 1
228 525 1
228 573 1
229 122 1
229 138 1
229 186 1
229 221 1
229 237 1
229 285 1
229 512 1
229 528 1
229 576 1
230 119 1
230 135 1
230 183 1
230 217 1
230 233 1
230 281 1
230 506 1
230 522 1
230 570 1
231 124 1
231 140 1
231 188 1
231 213 1
231 229 1
231 277 1
231 507 1
231 523 1
231 571 1
232 125 1
232 141 1
232 189 1
232 219 1
232 235 1
232 283 1
232 497 1
232 513 1
232 561 1
233 117 1
233 133 1
233 181 1
233 216 1
233 232 1
233 280 1
233 510 1
233 526 1
233 574 1
234 123 1
234 139 1
234 187 1
234 222 1
234 238 1
234 286 1
234 498 1
234 514 1
234 562 1
235 127 1
235 143 1
235 191 1
235 224 1
235 240 1
235 288 1
235 502 1
235 518 1
235 566 1
236 120 1
236 136 1
236 184 1
236 218 1
236 234 1
236 282 1
236 511 1
236 527 1
236 575 1
237 126 1
237 142 1
237 190 1
237 223 1
237 239 1
237 287 1
237 499 1
237 515 1
237 563 1
238 128 1
238 144 1
238 192 1
238 209 1
238 225 1
238 273 1
238 500 1
238 516 1
238 564 1
239 113 1
239 129 1
239 177 1
239 210 1
239 226 1
239 274 1
239 503 1
239 519 1
239 567 1
240 114 1
240 130 1
240 178 1
240 211 1
240 227 1
240 275 1
240 505 1
240 521 1
240 569 1
241 198 1
241 214 1
241 246 1
241 297 1
241 313 1
241 345 1
241 394 1
241 410 1
241 442 1
242 196 1
242 212 1
242 244 1
242 300 1
242 316 1
242 348 1
242 397 1
242 413 1
242 445 1
243 199 1
243 215 1
243 247 1
243 293 1
243 309 1
243 341 1
243 395 1
243 411 1
243 443 1
244 204 1
244 220 1
244 252 1
244 298 1
244 314 1
244 346 1
244 399 1
244 415 1
244 447 1
245 205 1
245 221 1
245 253 1
245 303 1
245 319 1
245 351 1
245 387 1
245 403 1
245 435 1
246 201 1
246 217 1
246 249 1
246 296 1
246 312 1
246 344 1
246 398 1
246 414 1
246 446 1
247 197 1
247 213 1
247 245 1
247 301 1
247 317 1
247 349 1
247 400 1
247 416 1
247 448 1
248 203 1
248 219 1
248 251 1
248 304 1
248 320 1
248 352 1
248 390 1
248 406 1
248 438 1
249 200 1
249 216 1
249 248 1
249 299 1
249 315 1
249 347 1
249 385 1
249 401 1
249 433 1
250 206 1
250 222 1
250 254 1
250 289 1
250 305 1
250 337 1
250 388 1
250 404 1
250 436 1
251 208 1
251 224 1
251 256 1
251 291 1
251 307 1
251 339 1
251 393 1
251 409 1
251 441 1
252 202 1
252 218 1
252 250 1
252 302 1
252 318 1
252 350 1
252 386 1
252 402 1
252 434 1
253 207 1
253 223 1
253 255 1
253 290 1
253 306 1
253 338 1
253 391 1
253 407 1
253 439 1
254 193 1
254 209 1
254 241 1
254 294 1
254 310 1
254 342 1
254 396 1
254 412 1
254 444 1
255 194 1
255 210 1
255 242 1
255 292 1
255 308 1
255 340 1
255 389 1
255 405 1
255 437 1
256 195 1
256 211 1
256 243 1
256 295 1
256 311 1
256 343 1
256 392 1
256 408 1
256 440 1
257 198 1
257 230 1
257 262 1
257 297 1
257 329 1
257 361 1
257 394 1
257 426 1
257 458 1
258 196 1
258 228 1
258 260 1
258 300 1
258 332 1
258 364 1
258 397 1
258 429 1
258 461 1
259 199 1
259 231 1
259 263 1
259 293 1
259 325 1
259 357 1
259 395 1
259 427 1
259 459 1
260 204 1
260 236 1
260 268 1
260 298 1
260 330 1
260 362 1
260 399 1
260 431 1
260 463 1
261 205 1
261 237 1
261 269 1
261 303 1
261 335 1
261 367 1
261 387 1
261 419 1
261 451 1
262 201 1
262 233 1
262 265 1
262 296 1
262 328 1
262 360 1
262 398 1
262 430 1
262 462 1
263 197 1
263 229 1
263 261 1
263 301 1
263 333 1
263 365 1
263 400 1
263 432 1
263 464 1
264 203 1
264 235 1
264 267 1
264 304 1
264 336 1
264 368 1
264 390 1
264 422 1
264 454 1
265 200 1
265 232 1
265 264 1
265 299 1
265 331 1
265 363 1
265 385 1
265 417 1
265 449 1
266 206 1
266 238 1
266 270 1
266 289 1
266 321 1
266 353 1
266 388 1
266 420 1
266 452 1
267 208 1
267 240 1
267 272 1
267 291 1
267 323 1
267 355 1
267 393 1
267 425 1
267 457 1
268 202 1
268 234 1
268 266 1
268 302 1
268 334 1
268 366 1
268 386 1
268 418 1
268 450 1
269 207 1
269 239 1
269 271 1
269 290 1
269 322 1
269 354 1
269 391 1
269 423 1
269 455 1
270 193 1
270 225 1
270 257 1
270 294 1
270 326 1
270 358 1
270 396 1
270 428 1
270 460 1
271 194 1
271 226 1
271 258 1
271 292 1
271 324 1
271 356 1
271 389 1
271 421 1
271 453 1
272 195 1
272 227 1
272 259 1
272 295 1
272 327 1
272 359 1
272 392 1
272 424 1
272 456 1
273 214 1
273 230 1
273 278 1
273 313 1
273 329 1
273 377 1
273 410 1
273 426 1
273 474 1
274 212 1
274 228 1
274 276 1
274 316 1
274 332 1
274 380 1
274 413 1
274 429 1
274 477 1
275 215 1
275 231 1
275 279 1
275 309 1
275 325 1
275 373 1
275 411 1
275 427 1
275 475 1
276 220 1
276 236 1
276 284 1
276 314 1
276 330 1
276 378 1
276 415 1
276 431 1
276 479 1
277 221 1
277 237 1
277 285 1
277 319 1
277 335 1
277 383 1
277 403 1
277 419 1
277 467 1
278 217 1
278 233 1
278 281 1
278 312 1
278 328 1
278 376 1
278 414 1
278 430 1
278 478 1
279 213 1
279 229 1
279 277 1
279 317 1
279 333 1
279 381 1
279 416 1
279 432 1
279 480 1
280 219 1
280 235 1
280 283 1
280 320 1
280 336 1
280 384 1
280 406 1
280 422 1
280 470 1
281 216 1
281 232 1
281 280 1
281 315 1
281 331 1
281 379 1
281 401 1
281 417 1
281 465 1
282 222 1
282 238 1
282 286 1
282 305 1
282 321 1
282 369 1
282 404 1
282 420 1
282 468 1
283 224 1
283 240 1
283 288 1
283 307 1
283 323 1
283 371 1
283 409 1
283 425 1
283 473 1
284 218 1
284 234 1
284 282 1
284 318 1
284 334 1
284 382 1
284 402 1
284 418 1
284 466 1
285 223 1
285 239 1
285 287 1
285 306 1
285 322 1
285 370 1
285 407 1
285 423 1
285 471 1
286 209 1
286 225 1
286 273 1
286 310 1
286 326 1
286 374 1
286 412 1
286 428 1
286 476 1
287 210 1
287 226 1
287 274 1
287 308 1
287 324 1
287 372 1
287 405 1
287 421 1
287 469 1
288 211 1
288 227 1
288 275 1
288 311 1
288 327 1
288 375 1
288 408 1
288 424 1
288 472 1
