%%MatrixMarket matrix coordinate integer general
256 512 4096
1 1 1
1 33 1
1 41 1
1 49 1
1 257 1
1 289 1
1 297 1
1 305 1
1 321 1
1 353 1
1 361 1
1 369 1
1 385 1
1 417 1
1 425 1
1 433 1
2 2 1
2 34 1
2 42 1
2 50 1
2 258 1
2 290 1
2 298 1
2 306 1
2 322 1
2 354 1
2 362 1
2 370 1
2 386 1
2 418 1
2 426 1
2 434 1
3 3 1
3 35 1
3 43 1
3 51 1
3 259 1
3 291 1
3 299 1
3 307 1
3 323 1
3 355 1
3 363 1
3 371 1
3 387 1
3 419 1
3 427 1
3 435 1
4 4 1
4 36 1
4 44 1
4 52 1
4 260 1
4 292 1
4 300 1
4 308 1
4 324 1
4 356 1
4 364 1
4 372 1
4 388 1
4 420 1
4 428 1
4 436 1
5 5 1
5 37 1
5 45 1
5 53 1
5 261 1
5 293 1
5 301 1
5 309 1
5 325 1
5 357 1
5 365 1
5 373 1
5 389 1
5 421 1
5 429 1
5 437 1
6 6 1
6 38 1
6 46 1
6 54 1
6 262 1
6 294 1
6 302 1
6 310 1
6 326 1
6 358 1
6 366 1
6 374 1
6 390 1
6 422 1
6 430 1
6 438 1
7 7 1
7 39 1
7 47 1
7 55 1
7 263 1
7 295 1
7 303 1
7 311 1
7 327 1
7 359 1
7 367 1
7 375 1
7 391 1
7 423 1
7 431 1
7 439 1
8 8 1
8 40 1
8 48 1
8 56 1
8 264 1
8 296 1
8 304 1
8 312 1
8 328 1
8 360 1
8 368 1
8 376 1
8 392 1
8 424 1
8 432 1
8 440 1
9 9 1
9 33 1
9 41 1
9 57 1
9 265 1
9 289 1
9 297 1
9 313 1
9 329 1
9 353 1
9 361 1
9 377 1
9 393 1
9 417 1
9 425 1
9 441 1
10 10 1
10 34 1
10 42 1
10 58 1
10 266 1
10 290 1
10 298 1
10 314 1
10 330 1
10 354 1
10 362 1
10 378 1
10 394 1
10 418 1
10 426 1
10 442 1
11 11 1
11 35 1
11 43 1
11 59 1
11 267 1
11 291 1
11 299 1
11 315 1
11 331 1
11 355 1
11 363 1
11 379 1
11 395 1
11 419 1
11 427 1
11 443 1
12 12 1
12 36 1
12 44 1
12 60 1
12 268 1
12 292 1
12 300 1
12 316 1
12 332 1
12 356 1
12 364 1
12 380 1
12 396 1
12 420 1
12 428 1
12 444 1
13 13 1
13 37 1
13 45 1
13 61 1
13 269 1
13 293 1
13 301 1
13 317 1
13 333 1
13 357 1
13 365 1
13 381 1
13 397 1
13 421 1
13 429 1
13 445 1
14 14 1
14 38 1
14 46 1
14 62 1
14 270 1
14 294 1
14 302 1
14 318 1
14 334 1
14 358 1
14 366 1
14 382 1
14 398 1
14 422 1
14 430 1
14 446 1
15 15 1
15 39 1
15 47 1
15 63 1
15 271 1
15 295 1
15 303 1
15 319 1
15 335 1
15 359 1
15 367 1
15 383 1
15 399 1
15 423 1
15 431 1
15 447 1
16 16 1
16 40 1
16 48 1
16 64 1
16 272 1
16 296 1
16 304 1
16 320 1
16 336 1
16 360 1
16 368 1
16 384 1
16 400 1
16 424 1
16 432 1
16 448 1
17 17 1
17 33 1
17 49 1
17 57 1
17 273 1
17 289 1
17 305 1
17 313 1
17 337 1
17 353 1
17 369 1
17 377 1
17 401 1
17 417 1
17 433 1
17 441 1
18 18 1
18 34 1
18 50 1
18 58 1
18 274 1
18 290 1
18 306 1
18 314 1
18 338 1
18 354 1
18 370 1
18 378 1
18 402 1
18 418 1
18 434 1
18 442 1
19 19 1
19 35 1
19 51 1
19 59 1
19 275 1
19 291 1
19 307 1
19 315 1
19 339 1
19 355 1
19 371 1
19 379 1
19 403 1
19 419 1
19 435 1
19 443 1
20 20 1
20 36 1
20 52 1
20 60 1
20 276 1
20 292 1
20 308 1
20 316 1
20 340 1
20 356 1
20 372 1
20 380 1
20 404 1
20 420 1
20 436 1
20 444 1
21 21 1
21 37 1
21 53 1
21 61 1
21 277 1
21 293 1
21 309 1
21 317 1
21 341 1
21 357 1
21 373 1
21 381 1
21 405 1
21 421 1
21 437 1
21 445 1
22 22 1
22 38 1
22 54 1
22 62 1
22 278 1
22 294 1
22 310 1
22 318 1
22 342 1
22 358 1
22 374 1
22 382 1
22 406 1
22 422 1
22 438 1
22 446 1
23 23 1
23 39 1
23 55 1
23 63 1
23 279 1
23 295 1
23 311 1
23 319 1
23 343 1
23 359 1
23 375 1
23 383 1
23 407 1
23 423 1
23 439 1
23 447 1
24 24 1
24 40 1
24 56 1
24 64 1
24 280 1
24 296 1
24 312 1
24 320 1
24 344 1
24 360 1
24 376 1
24 384 1
24 408 1
24 424 1
24 440 1
24 448 1
25 25 1
25 41 1
25 49 1
25 57 1
25 281 1
25 297 1
25 305 1
25 313 1
25 345 1
25 361 1
25 369 1
25 377 1
25 409 1
25 425 1
25 433 1
25 441 1
26 26 1
26 42 1
26 50 1
26 58 1
26 282 1
26 298 1
26 306 1
26 314 1
26 346 1
26 362 1
26 370 1
26 378 1
26 410 1
26 426 1
26 434 1
26 442 1
27 27 1
27 43 1
27 51 1
27 59 1
27 283 1
27 299 1
27 307 1
27 315 1
27 347 1
27 363 1
27 371 1
27 379 1
27 411 1
27 427 1
27 435 1
27 443 1
28 28 1
28 44 1
28 52 1
28 60 1
28 284 1
28 300 1
28 308 1
28 316 1
28 348 1
28 364 1
28 372 1
28 380 1
28 412 1
28 428 1
28 436 1
28 444 1
29 29 1
29 45 1
29 53 1
29 61 1
29 285 1
29 301 1
29 309 1
29 317 1
29 349 1
29 365 1
29 373 1
29 381 1
29 413 1
29 429 1
29 437 1
29 445 1
30 30 1
30 46 1
30 54 1
30 62 1
30 286 1
30 302 1
30 310 1
30 318 1
30 350 1
30 366 1
30 374 1
30 382 1
30 414 1
30 430 1
30 438 1
30 446 1
31 31 1
31 47 1
31 55 1
31 63 1
31 287 1
31 303 1
31 311 1
31 319 1
31 351 1
31 367 1
31 375 1
31 383 1
31 415 1
31 431 1
31 439 1
31 447 1
32 32 1
32 48 1
32 56 1
32 64 1
32 288 1
32 304 1
32 312 1
32 320 1
32 352 1
32 368 1
32 376 1
32 384 1
32 416 1
32 432 1
32 440 1
32 448 1
33 65 1
33 97 1
33 105 1
33 113 1
33 257 1
33 289 1
33 297 1
33 305 1
33 321 1
33 353 1
33 361 1
33 369 1
33 449 1
33 481 1
33 489 1
33 497 1
34 66 1
34 98 1
34 106 1
34 114 1
34 258 1
34 290 1
34 298 1
34 306 1
34 322 1
34 354 1
34 362 1
34 370 1
34 450 1
34 482 1
34 490 1
34 498 1
35 67 1
35 99 1
35 107 1
35 115 1
35 259 1
35 291 1
35 299 1
35 307 1
35 323 1
35 355 1
35 363 1
35 371 1
35 451 1
35 483 1
35 491 1
35 499 1
36 68 1
36 100 1
36 108 1
36 116 1
36 260 1
36 292 1
36 300 1
36 308 1
36 324 1
36 356 1
36 364 1
36 372 1
36 452 1
36 484 1
36 492 1
36 500 1
37 69 1
37 101 1
37 109 1
37 117 1
37 261 1
37 293 1
37 301 1
37 309 1
37 325 1
37 357 1
37 365 1
37 373 1
37 453 1
37 485 1
37 493 1
37 501 1
38 70 1
38 102 1
38 110 1
38 118 1
38 262 1
38 294 1
38 302 1
38 310 1
38 326 1
38 358 1
38 366 1
38 374 1
38 454 1
38 486 1
38 494 1
38 502 1
39 71 1
39 103 1
39 111 1
39 119 1
39 263 1
39 295 1
39 303 1
39 311 1
39 327 1
39 359 1
39 367 1
39 375 1
39 455 1
39 487 1
39 495 1
39 503 1
40 72 1
40 104 1
40 112 1
40 120 1
40 264 1
40 296 1
40 304 1
40 312 1
40 328 1
40 360 1
40 368 1
40 376 1
40 456 1
40 488 1
40 496 1
40 504 1
41 73 1
41 97 1
41 105 1
41 121 1
41 265 1
41 289 1
41 297 1
41 313 1
41 329 1
41 353 1
41 361 1
41 377 1
41 457 1
41 481 1
41 489 1
41 505 1
42 74 1
42 98 1
42 106 1
42 122 1
42 266 1
42 290 1
42 298 1
42 314 1
42 330 1
42 354 1
42 362 1
42 378 1
42 458 1
42 482 1
42 490 1
42 506 1
43 75 1
43 99 1
43 107 1
43 123 1
43 267 1
43 291 1
43 299 1
43 315 1
43 331 1
43 355 1
43 363 1
43 379 1
43 459 1
43 483 1
43 491 1
43 507 1
44 76 1
44 100 1
44 108 1
44 124 1
44 268 1
44 292 1
44 300 1
44 316 1
44 332 1
44 356 1
44 364 1
44 380 1
44 460 1
44 484 1
44 492 1
44 508 1
45 77 1
45 101 1
45 109 1
45 125 1
45 269 1
45 293 1
45 301 1
45 317 1
45 333 1
45 357 1
45 365 1
45 381 1
45 461 1
45 485 1
45 493 1
45 509 1
46 78 1
46 102 1
46 110 1
46 126 1
46 270 1
46 294 1
46 302 1
46 318 1
46 334 1
46 358 1
46 366 1
46 382 1
46 462 1
46 486 1
46 494 1
46 510 1
47 79 1
47 103 1
47 111 1
47 127 1
47 271 1
47 295 1
47 303 1
47 319 1
47 335 1
47 359 1
47 367 1
47 383 1
47 463 1
47 487 1
47 495 1
47 511 1
48 80 1
48 104 1
48 112 1
48 128 1
48 272 1
48 296 1
48 304 1
48 320 1
48 336 1
48 360 1
48 368 1
48 384 1
48 464 1
48 488 1
48 496 1
48 512 1
49 81 1
49 97 1
49 113 1
49 121 1
49 273 1
49 289 1
49 305 1
49 313 1
49 337 1
49 353 1
49 369 1
49 377 1
49 465 1
49 481 1
49 497 1
49 505 1
50 82 1
50 98 1
50 114 1
50 122 1
50 274 1
50 290 1
50 306 1
50 314 1
50 338 1
50 354 1
50 370 1
50 378 1
50 466 1
50 482 1
50 498 1
50 506 1
51 83 1
51 99 1
51 115 1
51 123 1
51 275 1
51 291 1
51 307 1
51 315 1
51 339 1
51 355 1
51 371 1
51 379 1
51 467 1
51 483 1
51 499 1
51 507 1
52 84 1
52 100 1
52 116 1
52 124 1
52 276 1
52 292 1
52 308 1
52 316 1
52 340 1
52 356 1
52 372 1
52 380 1
52 468 1
52 484 1
52 500 1
52 508 1
53 85 1
53 101 1
53 117 1
53 125 1
53 277 1
53 293 1
53 309 1
53 317 1
53 341 1
53 357 1
53 373 1
53 381 1
53 469 1
53 485 1
53 501 1
53 509 1
54 86 1
54 102 1
54 118 1
54 126 1
54 278 1
54 294 1
54 310 1
54 318 1
54 342 1
54 358 1
54 374 1
54 382 1
54 470 1
54 486 1
54 502 1
54 510 1
55 87 1
55 103 1
55 119 1
55 127 1
55 279 1
55 295 1
55 311 1
55 319 1
55 343 1
55 359 1
55 375 1
55 383 1
55 471 1
55 487 1
55 503 1
55 511 1
56 88 1
56 104 1
56 120 1
56 128 1
56 280 1
56 296 1
56 312 1
56 320 1
56 344 1
56 360 1
56 376 1
56 384 1
56 472 1
56 488 1
56 504 1
56 512 1
57 89 1
57 105 1
57 113 1
57 121 1
57 281 1
57 297 1
57 305 1
57 313 1
57 345 1
57 361 1
57 369 1
57 377 1
57 473 1
57 489 1
57 497 1
57 505 1
58 90 1
58 106 1
58 114 1
58 122 1
58 282 1
58 298 1
58 306 1
58 314 1
58 346 1
58 362 1
58 370 1
58 378 1
58 474 1
58 490 1
58 498 1
58 506 1
59 91 1
59 107 1
59 115 1
59 123 1
59 283 1
59 299 1
59 307 1
59 315 1
59 347 1
59 363 1
59 371 1
59 379 1
59 475 1
59 491 1
59 499 1
59 507 1
60 92 1
60 108 1
60 116 1
60 124 1
60 284 1
60 300 1
60 308 1
60 316 1
60 348 1
60 364 1
60 372 1
60 380 1
60 476 1
60 492 1
60 500 1
60 508 1
61 93 1
61 109 1
61 117 1
61 125 1
61 285 1
61 301 1
61 309 1
61 317 1
61 349 1
61 365 1
61 373 1
61 381 1
61 477 1
61 493 1
61 501 1
61 509 1
62 94 1
62 110 1
62 118 1
62 126 1
62 286 1
62 302 1
62 310 1
62 318 1
62 350 1
62 366 1
62 374 1
62 382 1
62 478 1
62 494 1
62 502 1
62 510 1
63 95 1
63 111 1
63 119 1
63 127 1
63 287 1
63 303 1
63 311 1
63 319 1
63 351 1
63 367 1
63 375 1
63 383 1
63 479 1
63 495 1
63 503 1
63 511 1
64 96 1
64 112 1
64 120 1
64 128 1
64 288 1
64 304 1
64 312 1
64 320 1
64 352 1
64 368 1
64 376 1
64 384 1
64 480 1
64 496 1
64 504 1
64 512 1
65 129 1
65 161 1
65 169 1
65 177 1
65 257 1
65 289 1
65 297 1
65 305 1
65 385 1
65 417 1
65 425 1
65 433 1
65 449 1
65 481 1
65 489 1
65 497 1
66 130 1
66 162 1
66 170 1
66 178 1
66 258 1
66 290 1
66 298 1
66 306 1
66 386 1
66 418 1
66 426 1
66 434 1
66 450 1
66 482 1
66 490 1
66 498 1
67 131 1
67 163 1
67 171 1
67 179 1
67 259 1
67 291 1
67 299 1
67 307 1
67 387 1
67 419 1
67 427 1
67 435 1
67 451 1
67 483 1
67 491 1
67 499 1
68 132 1
68 164 1
68 172 1
68 180 1
68 260 1
68 292 1
68 300 1
68 308 1
68 388 1
68 420 1
68 428 1
68 436 1
68 452 1
68 484 1
68 492 1
68 500 1
69 133 1
69 165 1
69 173 1
69 181 1
69 261 1
69 293 1
69 301 1
69 309 1
69 389 1
69 421 1
69 429 1
69 437 1
69 453 1
69 485 1
69 493 1
69 501 1
70 134 1
70 166 1
70 174 1
70 182 1
70 262 1
70 294 1
70 302 1
70 310 1
70 390 1
70 422 1
70 430 1
70 438 1
70 454 1
70 486 1
70 494 1
70 502 1
71 135 1
71 167 1
71 175 1
71 183 1
71 263 1
71 295 1
71 303 1
71 311 1
71 391 1
71 423 1
71 431 1
71 439 1
71 455 1
71 487 1
71 495 1
71 503 1
72 136 1
72 168 1
72 176 1
72 184 1
72 264 1
72 296 1
72 304 1
72 312 1
72 392 1
72 424 1
72 432 1
72 440 1
72 456 1
72 488 1
72 496 1
72 504 1
73 137 1
73 161 1
73 169 1
73 185 1
73 265 1
73 289 1
73 297 1
73 313 1
73 393 1
73 417 1
73 425 1
73 441 1
73 457 1
73 481 1
73 489 1
73 505 1
74 138 1
74 162 1
74 170 1
74 186 1
74 266 1
74 290 1
74 298 1
74 314 1
74 394 1
74 418 1
74 426 1
74 442 1
74 458 1
74 482 1
74 490 1
74 506 1
75 139 1
75 163 1
75 171 1
75 187 1
75 267 1
75 291 1
75 299 1
75 315 1
75 395 1
75 419 1
75 427 1
75 443 1
75 459 1
75 483 1
75 491 1
75 507 1
76 140 1
76 164 1
76 172 1
76 188 1
76 268 1
76 292 1
76 300 1
76 316 1
76 396 1
76 420 1
76 428 1
76 444 1
76 460 1
76 484 1
76 492 1
76 508 1
77 141 1
77 165 1
77 173 1
77 189 1
77 269 1
77 293 1
77 301 1
77 317 1
77 397 1
77 421 1
77 429 1
77 445 1
77 461 1
77 485 1
77 493 1
77 509 1
78 142 1
78 166 1
78 174 1
78 190 1
78 270 1
78 294 1
78 302 1
78 318 1
78 398 1
78 422 1
78 430 1
78 446 1
78 462 1
78 486 1
78 494 1
78 510 1
79 143 1
79 167 1
79 175 1
79 191 1
79 271 1
79 295 1
79 303 1
79 319 1
79 399 1
79 423 1
79 431 1
79 447 1
79 463 1
79 487 1
79 495 1
79 511 1
80 144 1
80 168 1
80 176 1
80 192 1
80 272 1
80 296 1
80 304 1
80 320 1
80 400 1
80 424 1
80 432 1
80 448 1
80 464 1
80 488 1
80 496 1
80 512 1
81 145 1
81 161 1
81 177 1
81 185 1
81 273 1
81 289 1
81 305 1
81 313 1
81 401 1
81 417 1
81 433 1
81 441 1
81 465 1
81 481 1
81 497 1
81 505 1
82 146 1
82 162 1
82 178 1
82 186 1
82 274 1
82 290 1
82 306 1
82 314 1
82 402 1
82 418 1
82 434 1
82 442 1
82 466 1
82 482 1
82 498 1
82 506 1
83 147 1
83 163 1
83 179 1
83 187 1
83 275 1
83 291 1
83 307 1
83 315 1
83 403 1
83 419 1
83 435 1
83 443 1
83 467 1
83 483 1
83 499 1
83 507 1
84 148 1
84 164 1
84 180 1
84 188 1
84 276 1
84 292 1
84 308 1
84 316 1
84 404 1
84 420 1
84 436 1
84 444 1
84 468 1
84 484 1
84 500 1
84 508 1
85 149 1
85 165 1
85 181 1
85 189 1
85 277 1
85 293 1
85 309 1
85 317 1
85 405 1
85 421 1
85 437 1
85 445 1
85 469 1
85 485 1
85 501 1
85 509 1
86 150 1
86 166 1
86 182 1
86 190 1
86 278 1
86 294 1
86 310 1
86 318 1
86 406 1
86 422 1
86 438 1
86 446 1
86 470 1
86 486 1
86 502 1
86 510 1
87 151 1
87 167 1
87 183 1
87 191 1
87 279 1
87 295 1
87 311 1
87 319 1
87 407 1
87 423 1
87 439 1
87 447 1
87 471 1
87 487 1
87 503 1
87 511 1
88 152 1
88 168 1
88 184 1
88 192 1
88 280 1
88 296 1
88 312 1
88 320 1
88 408 1
88 424 1
88 440 1
88 448 1
88 472 1
88 488 1
88 504 1
88 512 1
89 153 1
89 169 1
89 177 1
89 185 1
89 281 1
89 297 1
89 305 1
89 313 1
89 409 1
89 425 1
89 433 1
89 441 1
89 473 1
89 489 1
89 497 1
89 505 1
90 154 1
90 170 1
90 178 1
90 186 1
90 282 1
90 298 1
90 306 1
90 314 1
90 410 1
90 426 1
90 434 1
90 442 1
90 474 1
90 490 1
90 498 1
90 506 1
91 155 1
91 171 1
91 179 1
91 187 1
91 283 1
91 299 1
91 307 1
91 315 1
91 411 1
91 427 1
91 435 1
91 443 1
91 475 1
91 491 1
91 499 1
91 507 1
92 156 1
92 172 1
92 180 1
92 188 1
92 284 1
92 300 1
92 308 1
92 316 1
92 412 1
92 428 1
92 436 1
92 444 1
92 476 1
92 492 1
92 500 1
92 508 1
93 157 1
93 173 1
93 181 1
93 189 1
93 285 1
93 301 1
93 309 1
93 317 1
93 413 1
93 429 1
93 437 1
93 445 1
93 477 1
93 493 1
93 501 1
93 509 1
94 158 1
94 174 1
94 182 1
94 190 1
94 286 1
94 302 1
94 310 1
94 318 1
94 414 1
94 430 1
94 438 1
94 446 1
94 478 1
94 494 1
94 502 1
94 510 1
95 159 1
95 175 1
95 183 1
95 191 1
95 287 1
95 303 1
95 311 1
95 319 1
95 415 1
95 431 1
95 439 1
95 447 1
95 479 1
95 495 1
95 503 1
95 511 1
96 160 1
96 176 1
96 184 1
96 192 1
96 288 1
96 304 1
96 312 1
96 320 1
96 416 1
96 432 1
96 440 1
96 448 1
96 480 1
96 496 1
96 504 1
96 512 1
97 193 1
97 225 1
97 233 1
97 241 1
97 321 1
97 353 1
97 361 1
97 369 1
97 385 1
97 417 1
97 425 1
97 433 1
97 449 1
97 481 1
97 489 1
97 497 1
98 194 1
98 226 1
98 234 1
98 242 1
98 322 1
98 354 1
98 362 1
98 370 1
98 386 1
98 418 1
98 426 1
98 434 1
98 450 1
98 482 1
98 490 1
98 498 1
99 195 1
99 227 1
99 235 1
99 243 1
99 323 1
99 355 1
99 363 1
99 371 1
99 387 1
99 419 1
99 427 1
99 435 1
99 451 1
99 483 1
99 491 1
99 499 1
100 196 1
100 228 1
100 236 1
100 244 1
100 324 1
100 356 1
100 364 1
100 372 1
100 388 1
100 420 1
100 428 1
100 436 1
100 452 1
100 484 1
100 492 1
100 500 1
101 197 1
101 229 1
101 237 1
101 245 1
101 325 1
101 357 1
101 365 1
101 373 1
101 389 1
101 421 1
101 429 1
101 437 1
101 453 1
101 485 1
101 493 1
101 501 1
102 198 1
102 230 1
102 238 1
102 246 1
102 326 1
102 358 1
102 366 1
102 374 1
102 390 1
102 422 1
102 430 1
102 438 1
102 454 1
102 486 1
102 494 1
102 502 1
103 199 1
103 231 1
103 239 1
103 247 1
103 327 1
103 359 1
103 367 1
103 375 1
103 391 1
103 423 1
103 431 1
103 439 1
103 455 1
103 487 1
103 495 1
103 503 1
104 200 1
104 232 1
104 240 1
104 248 1
104 328 1
104 360 1
104 368 1
104 376 1
104 392 1
104 424 1
104 432 1
104 440 1
104 456 1
104 488 1
104 496 1
104 504 1
105 201 1
105 225 1
105 233 1
105 249 1
105 329 1
105 353 1
105 361 1
105 377 1
105 393 1
105 417 1
105 425 1
105 441 1
105 457 1
105 481 1
105 489 1
105 505 1
106 202 1
106 226 1
106 234 1
106 250 1
106 330 1
106 354 1
106 362 1
106 378 1
106 394 1
106 418 1
106 426 1
106 442 1
106 458 1
106 482 1
106 490 1
106 506 1
107 203 1
107 227 1
107 235 1
107 251 1
107 331 1
107 355 1
107 363 1
107 379 1
107 395 1
107 419 1
107 427 1
107 443 1
107 459 1
107 483 1
107 491 1
107 507 1
108 204 1
108 228 1
108 236 1
108 252 1
108 332 1
108 356 1
108 364 1
108 380 1
108 396 1
108 420 1
108 428 1
108 444 1
108 460 1
108 484 1
108 492 1
108 508 1
109 205 1
109 229 1
109 237 1
109 253 1
109 333 1
109 357 1
109 365 1
109 381 1
109 397 1
109 421 1
109 429 1
109 445 1
109 461 1
109 485 1
109 493 1
109 509 1
110 206 1
110 230 1
110 238 1
110 254 1
110 334 1
110 358 1
110 366 1
110 382 1
110 398 1
110 422 1
110 430 1
110 446 1
110 462 1
110 486 1
110 494 1
110 510 1
111 207 1
111 231 1
111 239 1
111 255 1
111 335 1
111 359 1
111 367 1
111 383 1
111 399 1
111 423 1
111 431 1
111 447 1
111 463 1
111 487 1
111 495 1
111 511 1
112 208 1
112 232 1
112 240 1
112 256 1
112 336 1
112 360 1
112 368 1
112 384 1
112 400 1
112 424 1
112 432 1
112 448 1
112 464 1
112 488 1
112 496 1
112 512 1
113 209 1
113 225 1
113 241 1
113 249 1
113 337 1
113 353 1
113 369 1
113 377 1
113 401 1
113 417 1
113 433 1
113 441 1
113 465 1
113 481 1
113 497 1
113 505 1
114 210 1
114 226 1
114 242 1
114 250 1
114 338 1
114 354 1
114 370 1
114 378 1
114 402 1
114 418 1
114 434 1
114 442 1
114 466 1
114 482 1
114 498 1
114 506 1
115 211 1
115 227 1
115 243 1
115 251 1
115 339 1
115 355 1
115 371 1
115 379 1
115 403 1
115 419 1
115 435 1
115 443 1
115 467 1
115 483 1
115 499 1
115 507 1
116 212 1
116 228 1
116 244 1
116 252 1
116 340 1
116 356 1
116 372 1
116 380 1
116 404 1
116 420 1
116 436 1
116 444 1
116 468 1
116 484 1
116 500 1
116 508 1
117 213 1
117 229 1
117 245 1
117 253 1
117 341 1
117 357 1
117 373 1
117 381 1
117 405 1
117 421 1
117 437 1
117 445 1
117 469 1
117 485 1
117 501 1
117 509 1
118 214 1
118 230 1
118 246 1
118 254 1
118 342 1
118 358 1
118 374 1
118 382 1
118 406 1
118 422 1
118 438 1
118 446 1
118 470 1
118 486 1
118 502 1
118 510 1
119 215 1
119 231 1
119 247 1
119 255 1
119 343 1
119 359 1
119 375 1
119 383 1
119 407 1
119 423 1
119 439 1
119 447 1
119 471 1
119 487 1
119 503 1
119 511 1
120 216 1
120 232 1
120 248 1
120 256 1
120 344 1
120 360 1
120 376 1
120 384 1
120 408 1
120 424 1
120 440 1
120 448 1
120 472 1
120 488 1
120 504 1
120 512 1
121 217 1
121 233 1
121 241 1
121 249 1
121 345 1
121 361 1
121 369 1
121 377 1
121 409 1
121 425 1
121 433 1
121 441 1
121 473 1
121 489 1
121 497 1
121 505 1
122 218 1
122 234 1
122 242 1
122 250 1
122 346 1
122 362 1
122 370 1
122 378 1
122 410 1
122 426 1
122 434 1
122 442 1
122 474 1
122 490 1
122 498 1
122 506 1
123 219 1
123 235 1
123 243 1
123 251 1
123 347 1
123 363 1
123 371 1
123 379 1
123 411 1
123 427 1
123 435 1
123 443 1
123 475 1
123 491 1
123 499 1
123 507 1
124 220 1
124 236 1
124 244 1
124 252 1
124 348 1
124 364 1
124 372 1
124 380 1
124 412 1
124 428 1
124 436 1
124 444 1
124 476 1
124 492 1
124 500 1
124 508 1
125 221 1
125 237 1
125 245 1
125 253 1
125 349 1
125 365 1
125 373 1
125 381 1
125 413 1
125 429 1
125 437 1
125 445 1
125 477 1
125 493 1
125 501 1
125 509 1
126 222 1
126 238 1
126 246 1
126 254 1
126 350 1
126 366 1
126 374 1
126 382 1
126 414 1
126 430 1
126 438 1
126 446 1
126 478 1
126 494 1
126 502 1
126 510 1
127 223 1
127 239 1
127 247 1
127 255 1
127 351 1
127 367 1
127 375 1
127 383 1
127 415 1
127 431 1
127 439 1
127 447 1
127 479 1
127 495 1
127 503 1
127 511 1
128 224 1
128 240 1
128 248 1
128 256 1
128 352 1
128 368 1
128 376 1
128 384 1
128 416 1
128 432 1
128 440 1
128 448 1
128 480 1
128 496 1
128 504 1
128 512 1
129 1 1
129 39 1
129 55 1
129 61 1
129 259 1
129 289 1
129 305 1
129 314 1
129 387 1
129 417 1
129 433 1
129 442 1
129 452 1
129 483 1
129 499 1
129 512 1
130 2 1
130 40 1
130 56 1
130 63 1
130 264 1
130 294 1
130 310 1
130 313 1
130 392 1
130 422 1
130 438 1
130 441 1
130 454 1
130 485 1
130 501 1
130 507 1
131 3 1
131 33 1
131 49 1
131 58 1
131 260 1
131 291 1
131 307 1
131 320 1
131 388 1
131 419 1
131 435 1
131 448 1
131 455 1
131 484 1
131 500 1
131 510 1
132 4 1
132 35 1
132 51 1
132 64 1
132 263 1
132 292 1
132 308 1
132 318 1
132 391 1
132 420 1
132 436 1
132 446 1
132 449 1
132 487 1
132 503 1
132 509 1
133 5 1
133 34 1
133 50 1
133 60 1
133 258 1
133 296 1
133 312 1
133 319 1
133 386 1
133 424 1
133 440 1
133 447 1
133 456 1
133 486 1
133 502 1
133 505 1
134 6 1
134 37 1
134 53 1
134 59 1
134 261 1
134 290 1
134 306 1
134 316 1
134 389 1
134 418 1
134 434 1
134 444 1
134 450 1
134 488 1
134 504 1
134 511 1
135 7 1
135 36 1
135 52 1
135 62 1
135 257 1
135 295 1
135 311 1
135 317 1
135 385 1
135 423 1
135 439 1
135 445 1
135 451 1
135 481 1
135 497 1
135 506 1
136 8 1
136 38 1
136 54 1
136 57 1
136 262 1
136 293 1
136 309 1
136 315 1
136 390 1
136 421 1
136 437 1
136 443 1
136 453 1
136 482 1
136 498 1
136 508 1
137 9 1
137 39 1
137 47 1
137 55 1
137 267 1
137 289 1
137 297 1
137 305 1
137 395 1
137 417 1
137 425 1
137 433 1
137 460 1
137 483 1
137 491 1
137 499 1
138 10 1
138 40 1
138 48 1
138 56 1
138 272 1
138 294 1
138 302 1
138 310 1
138 400 1
138 422 1
138 430 1
138 438 1
138 462 1
138 485 1
138 493 1
138 501 1
139 11 1
139 33 1
139 41 1
139 49 1
139 268 1
139 291 1
139 299 1
139 307 1
139 396 1
139 419 1
139 427 1
139 435 1
139 463 1
139 484 1
139 492 1
139 500 1
140 12 1
140 35 1
140 43 1
140 51 1
140 271 1
140 292 1
140 300 1
140 308 1
140 399 1
140 420 1
140 428 1
140 436 1
140 457 1
140 487 1
140 495 1
140 503 1
141 13 1
141 34 1
141 42 1
141 50 1
141 266 1
141 296 1
141 304 1
141 312 1
141 394 1
141 424 1
141 432 1
141 440 1
141 464 1
141 486 1
141 494 1
141 502 1
142 14 1
142 37 1
142 45 1
142 53 1
142 269 1
142 290 1
142 298 1
142 306 1
142 397 1
142 418 1
142 426 1
142 434 1
142 458 1
142 488 1
142 496 1
142 504 1
143 15 1
143 36 1
143 44 1
143 52 1
143 265 1
143 295 1
143 303 1
143 311 1
143 393 1
143 423 1
143 431 1
143 439 1
143 459 1
143 481 1
143 489 1
143 497 1
144 16 1
144 38 1
144 46 1
144 54 1
144 270 1
144 293 1
144 301 1
144 309 1
144 398 1
144 421 1
144 429 1
144 437 1
144 461 1
144 482 1
144 490 1
144 498 1
145 22 1
145 39 1
145 47 1
145 61 1
145 277 1
145 289 1
145 297 1
145 314 1
145 405 1
145 417 1
145 425 1
145 442 1
145 466 1
145 483 1
145 491 1
145 512 1
146 17 1
146 40 1
146 48 1
146 63 1
146 275 1
146 294 1
146 302 1
146 313 1
146 403 1
146 422 1
146 430 1
146 441 1
146 468 1
146 485 1
146 493 1
146 507 1
147 21 1
147 33 1
147 41 1
147 58 1
147 274 1
147 291 1
147 299 1
147 320 1
147 402 1
147 419 1
147 427 1
147 448 1
147 472 1
147 484 1
147 492 1
147 510 1
148 18 1
148 35 1
148 43 1
148 64 1
148 280 1
148 292 1
148 300 1
148 318 1
148 408 1
148 420 1
148 428 1
148 446 1
148 470 1
148 487 1
148 495 1
148 509 1
149 23 1
149 34 1
149 42 1
149 60 1
149 273 1
149 296 1
149 304 1
149 319 1
149 401 1
149 424 1
149 432 1
149 447 1
149 467 1
149 486 1
149 494 1
149 505 1
150 20 1
150 37 1
150 45 1
150 59 1
150 279 1
150 290 1
150 298 1
150 316 1
150 407 1
150 418 1
150 426 1
150 444 1
150 465 1
150 488 1
150 496 1
150 511 1
151 24 1
151 36 1
151 44 1
151 62 1
151 278 1
151 295 1
151 303 1
151 317 1
151 406 1
151 423 1
151 431 1
151 445 1
151 469 1
151 481 1
151 489 1
151 506 1
152 19 1
152 38 1
152 46 1
152 57 1
152 276 1
152 293 1
152 301 1
152 315 1
152 404 1
152 421 1
152 429 1
152 443 1
152 471 1
152 482 1
152 490 1
152 508 1
153 30 1
153 47 1
153 55 1
153 61 1
153 285 1
153 297 1
153 305 1
153 314 1
153 413 1
153 425 1
153 433 1
153 442 1
153 474 1
153 491 1
153 499 1
153 512 1
154 25 1
154 48 1
154 56 1
154 63 1
154 283 1
154 302 1
154 310 1
154 313 1
154 411 1
154 430 1
154 438 1
154 441 1
154 476 1
154 493 1
154 501 1
154 507 1
155 29 1
155 41 1
155 49 1
155 58 1
155 282 1
155 299 1
155 307 1
155 320 1
155 410 1
155 427 1
155 435 1
155 448 1
155 480 1
155 492 1
155 500 1
155 510 1
156 26 1
156 43 1
156 51 1
156 64 1
156 288 1
156 300 1
156 308 1
156 318 1
156 416 1
156 428 1
156 436 1
156 446 1
156 478 1
156 495 1
156 503 1
156 509 1
157 31 1
157 42 1
157 50 1
157 60 1
157 281 1
157 304 1
157 312 1
157 319 1
157 409 1
157 432 1
157 440 1
157 447 1
157 475 1
157 494 1
157 502 1
157 505 1
158 28 1
158 45 1
158 53 1
158 59 1
158 287 1
158 298 1
158 306 1
158 316 1
158 415 1
158 426 1
158 434 1
158 444 1
158 473 1
158 496 1
158 504 1
158 511 1
159 32 1
159 44 1
159 52 1
159 62 1
159 286 1
159 303 1
159 311 1
159 317 1
159 414 1
159 431 1
159 439 1
159 445 1
159 477 1
159 489 1
159 497 1
159 506 1
160 27 1
160 46 1
160 54 1
160 57 1
160 284 1
160 301 1
160 309 1
160 315 1
160 412 1
160 429 1
160 437 1
160 443 1
160 479 1
160 490 1
160 498 1
160 508 1
161 65 1
161 103 1
161 119 1
161 125 1
161 259 1
161 289 1
161 305 1
161 314 1
161 323 1
161 353 1
161 369 1
161 378 1
161 387 1
161 417 1
161 433 1
161 442 1
162 66 1
162 104 1
162 120 1
162 127 1
162 264 1
162 294 1
162 310 1
162 313 1
162 328 1
162 358 1
162 374 1
162 377 1
162 392 1
162 422 1
162 438 1
162 441 1
163 67 1
163 97 1
163 113 1
163 122 1
163 260 1
163 291 1
163 307 1
163 320 1
163 324 1
163 355 1
163 371 1
163 384 1
163 388 1
163 419 1
163 435 1
163 448 1
164 68 1
164 99 1
164 115 1
164 128 1
164 263 1
164 292 1
164 308 1
164 318 1
164 327 1
164 356 1
164 372 1
164 382 1
164 391 1
164 420 1
164 436 1
164 446 1
165 69 1
165 98 1
165 114 1
165 124 1
165 258 1
165 296 1
165 312 1
165 319 1
165 322 1
165 360 1
165 376 1
165 383 1
165 386 1
165 424 1
165 440 1
165 447 1
166 70 1
166 101 1
166 117 1
166 123 1
166 261 1
166 290 1
166 306 1
166 316 1
166 325 1
166 354 1
166 370 1
166 380 1
166 389 1
166 418 1
166 434 1
166 444 1
167 71 1
167 100 1
167 116 1
167 126 1
167 257 1
167 295 1
167 311 1
167 317 1
167 321 1
167 359 1
167 375 1
167 381 1
167 385 1
167 423 1
167 439 1
167 445 1
168 72 1
168 102 1
168 118 1
168 121 1
168 262 1
168 293 1
168 309 1
168 315 1
168 326 1
168 357 1
168 373 1
168 379 1
168 390 1
168 421 1
168 437 1
168 443 1
169 73 1
169 103 1
169 111 1
169 119 1
169 267 1
169 289 1
169 297 1
169 305 1
169 331 1
169 353 1
169 361 1
169 369 1
169 395 1
169 417 1
169 425 1
169 433 1
170 74 1
170 104 1
170 112 1
170 120 1
170 272 1
170 294 1
170 302 1
170 310 1
170 336 1
170 358 1
170 366 1
170 374 1
170 400 1
170 422 1
170 430 1
170 438 1
171 75 1
171 97 1
171 105 1
171 113 1
171 268 1
171 291 1
171 299 1
171 307 1
171 332 1
171 355 1
171 363 1
171 371 1
171 396 1
171 419 1
171 427 1
171 435 1
172 76 1
172 99 1
172 107 1
172 115 1
172 271 1
172 292 1
172 300 1
172 308 1
172 335 1
172 356 1
172 364 1
172 372 1
172 399 1
172 420 1
172 428 1
172 436 1
173 77 1
173 98 1
173 106 1
173 114 1
173 266 1
173 296 1
173 304 1
173 312 1
173 330 1
173 360 1
173 368 1
173 376 1
173 394 1
173 424 1
173 432 1
173 440 1
174 78 1
174 101 1
174 109 1
174 117 1
174 269 1
174 290 1
174 298 1
174 306 1
174 333 1
174 354 1
174 362 1
174 370 1
174 397 1
174 418 1
174 426 1
174 434 1
175 79 1
175 100 1
175 108 1
175 116 1
175 265 1
175 295 1
175 303 1
175 311 1
175 329 1
175 359 1
175 367 1
175 375 1
175 393 1
175 423 1
175 431 1
175 439 1
176 80 1
176 102 1
176 110 1
176 118 1
176 270 1
176 293 1
176 301 1
176 309 1
176 334 1
176 357 1
176 365 1
176 373 1
176 398 1
176 421 1
176 429 1
176 437 1
177 86 1
177 103 1
177 111 1
177 125 1
177 277 1
177 289 1
177 297 1
177 314 1
177 341 1
177 353 1
177 361 1
177 378 1
177 405 1
177 417 1
177 425 1
177 442 1
178 81 1
178 104 1
178 112 1
178 127 1
178 275 1
178 294 1
178 302 1
178 313 1
178 339 1
178 358 1
178 366 1
178 377 1
178 403 1
178 422 1
178 430 1
178 441 1
179 85 1
179 97 1
179 105 1
179 122 1
179 274 1
179 291 1
179 299 1
179 320 1
179 338 1
179 355 1
179 363 1
179 384 1
179 402 1
179 419 1
179 427 1
179 448 1
180 82 1
180 99 1
180 107 1
180 128 1
180 280 1
180 292 1
180 300 1
180 318 1
180 344 1
180 356 1
180 364 1
180 382 1
180 408 1
180 420 1
180 428 1
180 446 1
181 87 1
181 98 1
181 106 1
181 124 1
181 273 1
181 296 1
181 304 1
181 319 1
181 337 1
181 360 1
181 368 1
181 383 1
181 401 1
181 424 1
181 432 1
181 447 1
182 84 1
182 101 1
182 109 1
182 123 1
182 279 1
182 290 1
182 298 1
182 316 1
182 343 1
182 354 1
182 362 1
182 380 1
182 407 1
182 418 1
182 426 1
182 444 1
183 88 1
183 100 1
183 108 1
183 126 1
183 278 1
183 295 1
183 303 1
183 317 1
183 342 1
183 359 1
183 367 1
183 381 1
183 406 1
183 423 1
183 431 1
183 445 1
184 83 1
184 102 1
184 110 1
184 121 1
184 276 1
184 293 1
184 301 1
184 315 1
184 340 1
184 357 1
184 365 1
184 379 1
184 404 1
184 421 1
184 429 1
184 443 1
185 94 1
185 111 1
185 119 1
185 125 1
185 285 1
185 297 1
185 305 1
185 314 1
185 349 1
185 361 1
185 369 1
185 378 1
185 413 1
185 425 1
185 433 1
185 442 1
186 89 1
186 112 1
186 120 1
186 127 1
186 283 1
186 302 1
186 310 1
186 313 1
186 347 1
186 366 1
186 374 1
186 377 1
186 411 1
186 430 1
186 438 1
186 441 1
187 93 1
187 105 1
187 113 1
187 122 1
187 282 1
187 299 1
187 307 1
187 320 1
187 346 1
187 363 1
187 371 1
187 384 1
187 410 1
187 427 1
187 435 1
187 448 1
188 90 1
188 107 1
188 115 1
188 128 1
188 288 1
188 300 1
188 308 1
188 318 1
188 352 1
188 364 1
188 372 1
188 382 1
188 416 1
188 428 1
188 436 1
188 446 1
189 95 1
189 106 1
189 114 1
189 124 1
189 281 1
189 304 1
189 312 1
189 319 1
189 345 1
189 368 1
189 376 1
189 383 1
189 409 1
189 432 1
189 440 1
189 447 1
190 92 1
190 109 1
190 117 1
190 123 1
190 287 1
190 298 1
190 306 1
190 316 1
190 351 1
190 362 1
190 370 1
190 380 1
190 415 1
190 426 1
190 434 1
190 444 1
191 96 1
191 108 1
191 116 1
191 126 1
191 286 1
191 303 1
191 311 1
191 317 1
191 350 1
191 367 1
191 375 1
191 381 1
191 414 1
191 431 1
191 439 1
191 445 1
192 91 1
192 110 1
192 118 1
192 121 1
192 284 1
192 301 1
192 309 1
192 315 1
192 348 1
192 365 1
192 373 1
192 379 1
192 412 1
192 429 1
192 437 1
192 443 1
193 130 1
193 168 1
193 184 1
193 191 1
193 259 1
193 289 1
193 305 1
193 314 1
193 323 1
193 353 1
193 369 1
193 378 1
193 452 1
193 483 1
193 499 1
193 512 1
194 132 1
194 163 1
194 179 1
194 192 1
194 264 1
194 294 1
194 310 1
194 313 1
194 328 1
194 358 1
194 374 1
194 377 1
194 454 1
194 485 1
194 501 1
194 507 1
195 133 1
195 162 1
195 178 1
195 188 1
195 260 1
195 291 1
195 307 1
195 320 1
195 324 1
195 355 1
195 371 1
195 384 1
195 455 1
195 484 1
195 500 1
195 510 1
196 134 1
196 165 1
196 181 1
196 187 1
196 263 1
196 292 1
196 308 1
196 318 1
196 327 1
196 356 1
196 372 1
196 382 1
196 449 1
196 487 1
196 503 1
196 509 1
197 135 1
197 164 1
197 180 1
197 190 1
197 258 1
197 296 1
197 312 1
197 319 1
197 322 1
197 360 1
197 376 1
197 383 1
197 456 1
197 486 1
197 502 1
197 505 1
198 129 1
198 167 1
198 183 1
198 189 1
198 261 1
198 290 1
198 306 1
198 316 1
198 325 1
198 354 1
198 370 1
198 380 1
198 450 1
198 488 1
198 504 1
198 511 1
199 136 1
199 166 1
199 182 1
199 185 1
199 257 1
199 295 1
199 311 1
199 317 1
199 321 1
199 359 1
199 375 1
199 381 1
199 451 1
199 481 1
199 497 1
199 506 1
200 131 1
200 161 1
200 177 1
200 186 1
200 262 1
200 293 1
200 309 1
200 315 1
200 326 1
200 357 1
200 373 1
200 379 1
200 453 1
200 482 1
200 498 1
200 508 1
201 138 1
201 168 1
201 176 1
201 184 1
201 267 1
201 289 1
201 297 1
201 305 1
201 331 1
201 353 1
201 361 1
201 369 1
201 460 1
201 483 1
201 491 1
201 499 1
202 140 1
202 163 1
202 171 1
202 179 1
202 272 1
202 294 1
202 302 1
202 310 1
202 336 1
202 358 1
202 366 1
202 374 1
202 462 1
202 485 1
202 493 1
202 501 1
203 141 1
203 162 1
203 170 1
203 178 1
203 268 1
203 291 1
203 299 1
203 307 1
203 332 1
203 355 1
203 363 1
203 371 1
203 463 1
203 484 1
203 492 1
203 500 1
204 142 1
204 165 1
204 173 1
204 181 1
204 271 1
204 292 1
204 300 1
204 308 1
204 335 1
204 356 1
204 364 1
204 372 1
204 457 1
204 487 1
204 495 1
204 503 1
205 143 1
205 164 1
205 172 1
205 180 1
205 266 1
205 296 1
205 304 1
205 312 1
205 330 1
205 360 1
205 368 1
205 376 1
205 464 1
205 486 1
205 494 1
205 502 1
206 137 1
206 167 1
206 175 1
206 183 1
206 269 1
206 290 1
206 298 1
206 306 1
206 333 1
206 354 1
206 362 1
206 370 1
206 458 1
206 488 1
206 496 1
206 504 1
207 144 1
207 166 1
207 174 1
207 182 1
207 265 1
207 295 1
207 303 1
207 311 1
207 329 1
207 359 1
207 367 1
207 375 1
207 459 1
207 481 1
207 489 1
207 497 1
208 139 1
208 161 1
208 169 1
208 177 1
208 270 1
208 293 1
208 301 1
208 309 1
208 334 1
208 357 1
208 365 1
208 373 1
208 461 1
208 482 1
208 490 1
208 498 1
209 145 1
209 168 1
209 176 1
209 191 1
209 277 1
209 289 1
209 297 1
209 314 1
209 341 1
209 353 1
209 361 1
209 378 1
209 466 1
209 483 1
209 491 1
209 512 1
210 146 1
210 163 1
210 171 1
210 192 1
210 275 1
210 294 1
210 302 1
210 313 1
210 339 1
210 358 1
210 366 1
210 377 1
210 468 1
210 485 1
210 493 1
210 507 1
211 151 1
211 162 1
211 170 1
211 188 1
211 274 1
211 291 1
211 299 1
211 320 1
211 338 1
211 355 1
211 363 1
211 384 1
211 472 1
211 484 1
211 492 1
211 510 1
212 148 1
212 165 1
212 173 1
212 187 1
212 280 1
212 292 1
212 300 1
212 318 1
212 344 1
212 356 1
212 364 1
212 382 1
212 470 1
212 487 1
212 495 1
212 509 1
213 152 1
213 164 1
213 172 1
213 190 1
213 273 1
213 296 1
213 304 1
213 319 1
213 337 1
213 360 1
213 368 1
213 383 1
213 467 1
213 486 1
213 494 1
213 505 1
214 150 1
214 167 1
214 175 1
214 189 1
214 279 1
214 290 1
214 298 1
214 316 1
214 343 1
214 354 1
214 362 1
214 380 1
214 465 1
214 488 1
214 496 1
214 511 1
215 147 1
215 166 1
215 174 1
215 185 1
215 278 1
215 295 1
215 303 1
215 317 1
215 342 1
215 359 1
215 367 1
215 381 1
215 469 1
215 481 1
215 489 1
215 506 1
216 149 1
216 161 1
216 169 1
216 186 1
216 276 1
216 293 1
216 301 1
216 315 1
216 340 1
216 357 1
216 365 1
216 379 1
216 471 1
216 482 1
216 490 1
216 508 1
217 153 1
217 176 1
217 184 1
217 191 1
217 285 1
217 297 1
217 305 1
217 314 1
217 349 1
217 361 1
217 369 1
217 378 1
217 474 1
217 491 1
217 499 1
217 512 1
218 154 1
218 171 1
218 179 1
218 192 1
218 283 1
218 302 1
218 310 1
218 313 1
218 347 1
218 366 1
218 374 1
218 377 1
218 476 1
218 493 1
218 501 1
218 507 1
219 159 1
219 170 1
219 178 1
219 188 1
219 282 1
219 299 1
219 307 1
219 320 1
219 346 1
219 363 1
219 371 1
219 384 1
219 480 1
219 492 1
219 500 1
219 510 1
220 156 1
220 173 1
220 181 1
220 187 1
220 288 1
220 300 1
220 308 1
220 318 1
220 352 1
220 364 1
220 372 1
220 382 1
220 478 1
220 495 1
220 503 1
220 509 1
221 160 1
221 172 1
221 180 1
221 190 1
221 281 1
221 304 1
221 312 1
221 319 1
221 345 1
221 368 1
221 376 1
221 383 1
221 475 1
221 494 1
221 502 1
221 505 1
222 158 1
222 175 1
222 183 1
222 189 1
222 287 1
222 298 1
222 306 1
222 316 1
222 351 1
222 362 1
222 370 1
222 380 1
222 473 1
222 496 1
222 504 1
222 511 1
223 155 1
223 174 1
223 182 1
223 185 1
223 286 1
223 303 1
223 311 1
223 317 1
223 350 1
223 367 1
223 375 1
223 381 1
223 477 1
223 489 1
223 497 1
223 506 1
224 157 1
224 169 1
224 177 1
224 186 1
224 284 1
224 301 1
224 309 1
224 315 1
224 348 1
224 365 1
224 373 1
224 379 1
224 479 1
224 490 1
224 498 1
224 508 1
225 194 1
225 232 1
225 248 1
225 255 1
225 323 1
225 353 1
225 369 1
225 378 1
225 387 1
225 417 1
225 433 1
225 442 1
225 452 1
225 483 1
225 499 1
225 512 1
226 196 1
226 227 1
226 243 1
226 256 1
226 328 1
226 358 1
226 374 1
226 377 1
226 392 1
226 422 1
226 438 1
226 441 1
226 454 1
226 485 1
226 501 1
226 507 1
227 197 1
227 226 1
227 242 1
227 252 1
227 324 1
227 355 1
227 371 1
227 384 1
227 388 1
227 419 1
227 435 1
227 448 1
227 455 1
227 484 1
227 500 1
227 510 1
228 198 1
228 229 1
228 245 1
228 251 1
228 327 1
228 356 1
228 372 1
228 382 1
228 391 1
228 420 1
228 436 1
228 446 1
228 449 1
228 487 1
228 503 1
228 509 1
229 199 1
229 228 1
229 244 1
229 254 1
229 322 1
229 360 1
229 376 1
229 383 1
229 386 1
229 424 1
229 440 1
229 447 1
229 456 1
229 486 1
229 502 1
229 505 1
230 193 1
230 231 1
230 247 1
230 253 1
230 325 1
230 354 1
230 370 1
230 380 1
230 389 1
230 418 1
230 434 1
230 444 1
230 450 1
230 488 1
230 504 1
230 511 1
231 200 1
231 230 1
231 246 1
231 249 1
231 321 1
231 359 1
231 375 1
231 381 1
231 385 1
231 423 1
231 439 1
231 445 1
231 451 1
231 481 1
231 497 1
231 506 1
232 195 1
232 225 1
232 241 1
232 250 1
232 326 1
232 357 1
232 373 1
232 379 1
232 390 1
232 421 1
232 437 1
232 443 1
232 453 1
232 482 1
232 498 1
232 508 1
233 202 1
233 232 1
233 240 1
233 248 1
233 331 1
233 353 1
233 361 1
233 369 1
233 395 1
233 417 1
233 425 1
233 433 1
233 460 1
233 483 1
233 491 1
233 499 1
234 204 1
234 227 1
234 235 1
234 243 1
234 336 1
234 358 1
234 366 1
234 374 1
234 400 1
234 422 1
234 430 1
234 438 1
234 462 1
234 485 1
234 493 1
234 501 1
235 205 1
235 226 1
235 234 1
235 242 1
235 332 1
235 355 1
235 363 1
235 371 1
235 396 1
235 419 1
235 427 1
235 435 1
235 463 1
235 484 1
235 492 1
235 500 1
236 206 1
236 229 1
236 237 1
236 245 1
236 335 1
236 356 1
236 364 1
236 372 1
236 399 1
236 420 1
236 428 1
236 436 1
236 457 1
236 487 1
236 495 1
236 503 1
237 207 1
237 228 1
237 236 1
237 244 1
237 330 1
237 360 1
237 368 1
237 376 1
237 394 1
237 424 1
237 432 1
237 440 1
237 464 1
237 486 1
237 494 1
237 502 1
238 201 1
238 231 1
238 239 1
238 247 1
238 333 1
238 354 1
238 362 1
238 370 1
238 397 1
238 418 1
238 426 1
238 434 1
238 458 1
238 488 1
238 496 1
238 504 1
239 208 1
239 230 1
239 238 1
239 246 1
239 329 1
239 359 1
239 367 1
239 375 1
239 393 1
239 423 1
239 431 1
239 439 1
239 459 1
239 481 1
239 489 1
239 497 1
240 203 1
240 225 1
240 233 1
240 241 1
240 334 1
240 357 1
240 365 1
240 373 1
240 398 1
240 421 1
240 429 1
240 437 1
240 461 1
240 482 1
240 490 1
240 498 1
241 209 1
241 232 1
241 240 1
241 255 1
241 341 1
241 353 1
241 361 1
241 378 1
241 405 1
241 417 1
241 425 1
241 442 1
241 466 1
241 483 1
241 491 1
241 512 1
242 210 1
242 227 1
242 235 1
242 256 1
242 339 1
242 358 1
242 366 1
242 377 1
242 403 1
242 422 1
242 430 1
242 441 1
242 468 1
242 485 1
242 493 1
242 507 1
243 215 1
243 226 1
243 234 1
243 252 1
243 338 1
243 355 1
243 363 1
243 384 1
243 402 1
243 419 1
243 427 1
243 448 1
243 472 1
243 484 1
243 492 1
243 510 1
244 212 1
244 229 1
244 237 1
244 251 1
244 344 1
244 356 1
244 364 1
244 382 1
244 408 1
244 420 1
244 428 1
244 446 1
244 470 1
244 487 1
244 495 1
244 509 1
245 216 1
245 228 1
245 236 1
245 254 1
245 337 1
245 360 1
245 368 1
245 383 1
245 401 1
245 424 1
245 432 1
245 447 1
245 467 1
245 486 1
245 494 1
245 505 1
246 214 1
246 231 1
246 239 1
246 253 1
246 343 1
246 354 1
246 362 1
246 380 1
246 407 1
246 418 1
246 426 1
246 444 1
246 465 1
246 488 1
246 496 1
246 511 1
247 211 1
247 230 1
247 238 1
247 249 1
247 342 1
247 359 1
247 367 1
247 381 1
247 406 1
247 423 1
247 431 1
247 445 1
247 469 1
247 481 1
247 489 1
247 506 1
248 213 1
248 225 1
248 233 1
248 250 1
248 340 1
248 357 1
248 365 1
248 379 1
248 404 1
248 421 1
248 429 1
248 443 1
248 471 1
248 482 1
248 490 1
248 508 1
249 217 1
249 240 1
249 248 1
249 255 1
249 349 1
249 361 1
249 369 1
249 378 1
249 413 1
249 425 1
249 433 1
249 442 1
249 474 1
249 491 1
249 499 1
249 512 1
250 218 1
250 235 1
250 243 1
250 256 1
250 347 1
250 366 1
250 374 1
250 377 1
250 411 1
250 430 1
250 438 1
250 441 1
250 476 1
250 493 1
250 501 1
250 507 1
251 223 1
251 234 1
251 242 1
251 252 1
251 346 1
251 363 1
251 371 1
251 384 1
251 410 1
251 427 1
251 435 1
251 448 1
251 480 1
251 492 1
251 500 1
251 510 1
252 220 1
252 237 1
252 245 1
252 251 1
252 352 1
252 364 1
252 372 1
252 382 1
252 416 1
252 428 1
252 436 1
252 446 1
252 478 1
252 495 1
252 503 1
252 509 1
253 224 1
253 236 1
253 244 1
253 254 1
253 345 1
253 368 1
253 376 1
253 383 1
253 409 1
253 432 1
253 440 1
253 447 1
253 475 1
253 494 1
253 502 1
253 505 1
254 222 1
254 239 1
254 247 1
254 253 1
254 351 1
254 362 1
254 370 1
254 380 1
254 415 1
254 426 1
254 434 1
254 444 1
254 473 1
254 496 1
254 504 1
254 511 1
255 219 1
255 238 1
255 246 1
255 249 1
255 350 1
255 367 1
255 375 1
255 381 1
255 414 1
255 431 1
255 439 1
255 445 1
255 477 1
255 489 1
255 497 1
255 506 1
256 221 1
256 233 1
256 241 1
256 250 1
256 348 1
256 365 1
256 373 1
256 379 1
256 412 1
256 429 1
256 437 1
256 443 1
256 479 1
256 490 1
256 498 1
256 508 1
