%%MatrixMarket matrix coordinate integer general
144 288 1296
1 1 1
1 25 1
1 33 1
1 49 1
1 73 1
1 81 1
1 145 1
1 169 1
1 177 1
2 2 1
2 26 1
2 34 1
2 50 1
2 74 1
2 82 1
2 146 1
2 170 1
2 178 1
3 3 1
3 27 1
3 35 1
3 51 1
3 75 1
3 83 1
3 147 1
3 171 1
3 179 1
4 4 1
4 28 1
4 36 1
4 52 1
4 76 1
4 84 1
4 148 1
4 172 1
4 180 1
5 5 1
5 29 1
5 37 1
5 53 1
5 77 1
5 85 1
5 149 1
5 173 1
5 181 1
6 6 1
6 30 1
6 38 1
6 54 1
6 78 1
6 86 1
6 150 1
6 174 1
6 182 1
7 7 1
7 31 1
7 39 1
7 55 1
7 79 1
7 87 1
7 151 1
7 175 1
7 183 1
8 8 1
8 32 1
8 40 1
8 56 1
8 80 1
8 88 1
8 152 1
8 176 1
8 184 1
9 9 1
9 25 1
9 41 1
9 57 1
9 73 1
9 89 1
9 153 1
9 169 1
9 185 1
10 10 1
10 26 1
10 42 1
10 58 1
10 74 1
10 90 1
10 154 1
10 170 1
10 186 1
11 11 1
11 27 1
11 43 1
11 59 1
11 75 1
11 91 1
11 155 1
11 171 1
11 187 1
12 12 1
12 28 1
12 44 1
12 60 1
12 76 1
12 92 1
12 156 1
12 172 1
12 188 1
13 13 1
13 29 1
13 45 1
13 61 1
13 77 1
13 93 1
13 157 1
13 173 1
13 189 1
14 14 1
14 30 1
14 46 1
14 62 1
14 78 1
14 94 1
14 158 1
14 174 1
14 190 1
15 15 1
15 31 1
15 47 1
15 63 1
15 79 1
15 95 1
15 159 1
15 175 1
15 191 1
16 16 1
16 32 1
16 48 1
16 64 1
16 80 1
16 96 1
16 160 1
16 176 1
16 192 1
17 17 1
17 33 1
17 41 1
17 65 1
17 81 1
17 89 1
17 161 1
17 177 1
17 185 1
18 18 1
18 34 1
18 42 1
18 66 1
18 82 1
18 90 1
18 162 1
18 178 1
18 186 1
19 19 1
19 35 1
19 43 1
19 67 1
19 83 1
19 91 1
19 163 1
19 179 1
19 187 1
20 20 1
20 36 1
20 44 1
20 68 1
20 84 1
20 92 1
20 164 1
20 180 1
20 188 1
21 21 1
21 37 1
21 45 1
21 69 1
21 85 1
21 93 1
21 165 1
21 181 1
21 189 1
22 22 1
22 38 1
22 46 1
22 70 1
22 86 1
22 94 1
22 166 1
22 182 1
22 190 1
23 23 1
23 39 1
23 47 1
23 71 1
23 87 1
23 95 1
23 167 1
23 183 1
23 191 1
24 24 1
24 40 1
24 48 1
24 72 1
24 88 1
24 96 1
24 168 1
24 184 1
24 192 1
25 1 1
25 25 1
25 33 1
25 97 1
25 121 1
25 129 1
25 193 1
25 217 1
25 225 1
26 2 1
26 26 1
26 34 1
26 98 1
26 122 1
26 130 1
26 194 1
26 218 1
26 226 1
27 3 1
27 27 1
27 35 1
27 99 1
27 123 1
27 131 1
27 195 1
27 219 1
27 227 1
28 4 1
28 28 1
28 36 1
28 100 1
28 124 1
28 132 1
28 196 1
28 220 1
28 228 1
29 5 1
29 29 1
29 37 1
29 101 1
29 125 1
29 133 1
29 197 1
29 221 1
29 229 1
30 6 1
30 30 1
30 38 1
30 102 1
30 126 1
30 134 1
30 198 1
30 222 1
30 230 1
31 7 1
31 31 1
31 39 1
31 103 1
31 127 1
31 135 1
31 199 1
31 223 1
31 231 1
32 8 1
32 32 1
32 40 1
32 104 1
32 128 1
32 136 1
32 200 1
32 224 1
32 232 1
33 9 1
33 25 1
33 41 1
33 105 1
33 121 1
33 137 1
33 201 1
33 217 1
33 233 1
34 10 1
34 26 1
34 42 1
34 106 1
34 122 1
34 138 1
34 202 1
34 218 1
34 234 1
35 11 1
35 27 1
35 43 1
35 107 1
35 123 1
35 139 1
35 203 1
35 219 1
35 235 1
36 12 1
36 28 1
36 44 1
36 108 1
36 124 1
36 140 1
36 204 1
36 220 1
36 236 1
37 13 1
37 29 1
37 45 1
37 109 1
37 125 1
37 141 1
37 205 1
37 221 1
37 237 1
38 14 1
38 30 1
38 46 1
38 110 1
38 126 1
38 142 1
38 206 1
38 222 1
38 238 1
39 15 1
39 31 1
39 47 1
39 111 1
39 127 1
39 143 1
39 207 1
39 223 1
39 239 1
40 16 1
40 32 1
40 48 1
40 112 1
40 128 1
40 144 1
40 208 1
40 224 1
40 240 1
41 17 1
41 33 1
41 41 1
41 113 1
41 129 1
41 137 1
41 209 1
41 225 1
41 233 1
42 18 1
42 34 1
42 42 1
42 114 1
42 130 1
42 138 1
42 210 1
42 226 1
42 234 1
43 19 1
43 35 1
43 43 1
43 115 1
43 131 1
43 139 1
43 211 1
43 227 1
43 235 1
44 20 1
44 36 1
44 44 1
44 116 1
44 132 1
44 140 1
44 212 1
44 228 1
44 236 1
45 21 1
45 37 1
45 45 1
45 117 1
45 133 1
45 141 1
45 213 1
45 229 1
45 237 1
46 22 1
46 38 1
46 46 1
46 118 1
46 134 1
46 142 1
46 214 1
46 230 1
46 238 1
47 23 1
47 39 1
47 47 1
47 119 1
47 135 1
47 143 1
47 215 1
47 231 1
47 239 1
48 24 1
48 40 1
48 48 1
48 120 1
48 136 1
48 144 1
48 216 1
48 232 1
48 240 1
49 49 1
49 73 1
49 81 1
49 97 1
49 121 1
49 129 1
49 241 1
49 265 1
49 273 1
50 50 1
50 74 1
50 82 1
50 98 1
50 122 1
50 130 1
50 242 1
50 266 1
50 274 1
51 51 1
51 75 1
51 83 1
51 99 1
51 123 1
51 131 1
51 243 1
51 267 1
51 275 1
52 52 1
52 76 1
52 84 1
52 100 1
52 124 1
52 132 1
52 244 1
52 268 1
52 276 1
53 53 1
53 77 1
53 85 1
53 101 1
53 125 1
53 133 1
53 245 1
53 269 1
53 277 1
54 54 1
54 78 1
54 86 1
54 102 1
54 126 1
54 134 1
54 246 1
54 270 1
54 278 1
55 55 1
55 79 1
55 87 1
55 103 1
55 127 1
55 135 1
55 247 1
55 271 1
55 279 1
56 56 1
56 80 1
56 88 1
56 104 1
56 128 1
56 136 1
56 248 1
56 272 1
56 280 1
57 57 1
57 73 1
57 89 1
57 105 1
57 121 1
57 137 1
57 249 1
57 265 1
57 281 1
58 58 1
58 74 1
58 90 1
58 106 1
58 122 1
58 138 1
58 250 1
58 266 1
58 282 1
59 59 1
59 75 1
59 91 1
59 107 1
59 123 1
59 139 1
59 251 1
59 267 1
59 283 1
60 60 1
60 76 1
60 92 1
60 108 1
60 124 1
60 140 1
60 252 1
60 268 1
60 284 1
61 61 1
61 77 1
61 93 1
61 109 1
61 125 1
61 141 1
61 253 1
61 269 1
61 285 1
62 62 1
62 78 1
62 94 1
62 110 1
62 126 1
62 142 1
62 254 1
62 270 1
62 286 1
63 63 1
63 79 1
63 95 1
63 111 1
63 127 1
63 143 1
63 255 1
63 271 1
63 287 1
64 64 1
64 80 1
64 96 1
64 112 1
64 128 1
64 144 1
64 256 1
64 272 1
64 288 1
65 65 1
65 81 1
65 89 1
65 113 1
65 129 1
65 137 1
65 257 1
65 273 1
65 281 1
66 66 1
66 82 1
66 90 1
66 114 1
66 130 1
66 138 1
66 258 1
66 274 1
66 282 1
67 67 1
67 83 1
67 91 1
67 115 1
67 131 1
67 139 1
67 259 1
67 275 1
67 283 1
68 68 1
68 84 1
68 92 1
68 116 1
68 132 1
68 140 1
68 260 1
68 276 1
68 284 1
69 69 1
69 85 1
69 93 1
69 117 1
69 133 1
69 141 1
69 261 1
69 277 1
69 285 1
70 70 1
70 86 1
70 94 1
70 118 1
70 134 1
70 142 1
70 262 1
70 278 1
70 286 1
71 71 1
71 87 1
71 95 1
71 119 1
71 135 1
71 143 1
71 263 1
71 279 1
71 287 1
72 72 1
72 88 1
72 96 1
72 120 1
72 136 1
72 144 1
72 264 1
72 280 1
72 288 1
73 1 1
73 18 1
73 27 1
73 51 1
73 72 1
73 73 1
73 100 1
73 118 1
73 127 1
74 2 1
74 17 1
74 29 1
74 56 1
74 67 1
74 78 1
74 102 1
74 116 1
74 128 1
75 3 1
75 24 1
75 25 1
75 49 1
75 66 1
75 75 1
75 103 1
75 117 1
75 124 1
76 4 1
76 22 1
76 31 1
76 55 1
76 69 1
76 76 1
76 97 1
76 114 1
76 123 1
77 5 1
77 23 1
77 26 1
77 54 1
77 68 1
77 80 1
77 104 1
77 115 1
77 126 1
78 6 1
78 20 1
78 32 1
78 53 1
78 71 1
78 74 1
78 98 1
78 113 1
78 125 1
79 7 1
79 21 1
79 28 1
79 52 1
79 70 1
79 79 1
79 99 1
79 120 1
79 121 1
80 8 1
80 19 1
80 30 1
80 50 1
80 65 1
80 77 1
80 101 1
80 119 1
80 122 1
81 10 1
81 27 1
81 47 1
81 64 1
81 73 1
81 92 1
81 110 1
81 127 1
81 139 1
82 9 1
82 29 1
82 48 1
82 59 1
82 78 1
82 90 1
82 108 1
82 128 1
82 141 1
83 16 1
83 25 1
83 44 1
83 58 1
83 75 1
83 95 1
83 109 1
83 124 1
83 137 1
84 14 1
84 31 1
84 43 1
84 61 1
84 76 1
84 89 1
84 106 1
84 123 1
84 143 1
85 15 1
85 26 1
85 46 1
85 60 1
85 80 1
85 93 1
85 107 1
85 126 1
85 138 1
86 12 1
86 32 1
86 45 1
86 63 1
86 74 1
86 94 1
86 105 1
86 125 1
86 144 1
87 13 1
87 28 1
87 41 1
87 62 1
87 79 1
87 91 1
87 112 1
87 121 1
87 140 1
88 11 1
88 30 1
88 42 1
88 57 1
88 77 1
88 96 1
88 111 1
88 122 1
88 142 1
89 18 1
89 38 1
89 47 1
89 72 1
89 85 1
89 92 1
89 118 1
89 130 1
89 139 1
90 17 1
90 36 1
90 48 1
90 67 1
90 87 1
90 90 1
90 116 1
90 129 1
90 141 1
91 24 1
91 37 1
91 44 1
91 66 1
91 86 1
91 95 1
91 117 1
91 136 1
91 137 1
92 22 1
92 34 1
92 43 1
92 69 1
92 88 1
92 89 1
92 114 1
92 134 1
92 143 1
93 23 1
93 35 1
93 46 1
93 68 1
93 81 1
93 93 1
93 115 1
93 135 1
93 138 1
94 20 1
94 33 1
94 45 1
94 71 1
94 83 1
94 94 1
94 113 1
94 132 1
94 144 1
95 21 1
95 40 1
95 41 1
95 70 1
95 82 1
95 91 1
95 120 1
95 133 1
95 140 1
96 19 1
96 39 1
96 42 1
96 65 1
96 84 1
96 96 1
96 119 1
96 131 1
96 142 1
97 1 1
97 18 1
97 27 1
97 149 1
97 167 1
97 170 1
97 198 1
97 212 1
97 224 1
98 2 1
98 17 1
98 29 1
98 151 1
98 165 1
98 172 1
98 196 1
98 214 1
98 223 1
99 3 1
99 24 1
99 25 1
99 146 1
99 161 1
99 173 1
99 200 1
99 211 1
99 222 1
100 4 1
100 22 1
100 31 1
100 152 1
100 163 1
100 174 1
100 194 1
100 209 1
100 221 1
101 5 1
101 23 1
101 26 1
101 148 1
101 166 1
101 175 1
101 199 1
101 213 1
101 220 1
102 6 1
102 20 1
102 32 1
102 147 1
102 168 1
102 169 1
102 193 1
102 210 1
102 219 1
103 7 1
103 21 1
103 28 1
103 150 1
103 164 1
103 176 1
103 197 1
103 215 1
103 218 1
104 8 1
104 19 1
104 30 1
104 145 1
104 162 1
104 171 1
104 195 1
104 216 1
104 217 1
105 10 1
105 27 1
105 47 1
105 159 1
105 170 1
105 190 1
105 204 1
105 224 1
105 237 1
106 9 1
106 29 1
106 48 1
106 157 1
106 172 1
106 185 1
106 206 1
106 223 1
106 235 1
107 16 1
107 25 1
107 44 1
107 153 1
107 173 1
107 192 1
107 203 1
107 222 1
107 234 1
108 14 1
108 31 1
108 43 1
108 155 1
108 174 1
108 186 1
108 201 1
108 221 1
108 240 1
109 15 1
109 26 1
109 46 1
109 158 1
109 175 1
109 187 1
109 205 1
109 220 1
109 233 1
110 12 1
110 32 1
110 45 1
110 160 1
110 169 1
110 188 1
110 202 1
110 219 1
110 239 1
111 13 1
111 28 1
111 41 1
111 156 1
111 176 1
111 189 1
111 207 1
111 218 1
111 238 1
112 11 1
112 30 1
112 42 1
112 154 1
112 171 1
112 191 1
112 208 1
112 217 1
112 236 1
113 18 1
113 38 1
113 47 1
113 167 1
113 179 1
113 190 1
113 212 1
113 225 1
113 237 1
114 17 1
114 36 1
114 48 1
114 165 1
114 184 1
114 185 1
114 214 1
114 226 1
114 235 1
115 24 1
115 37 1
115 44 1
115 161 1
115 180 1
115 192 1
115 211 1
115 231 1
115 234 1
116 22 1
116 34 1
116 43 1
116 163 1
116 183 1
116 186 1
116 209 1
116 228 1
116 240 1
117 23 1
117 35 1
117 46 1
117 166 1
117 178 1
117 187 1
117 213 1
117 232 1
117 233 1
118 20 1
118 33 1
118 45 1
118 168 1
118 181 1
118 188 1
118 210 1
118 230 1
118 239 1
119 21 1
119 40 1
119 41 1
119 164 1
119 177 1
119 189 1
119 215 1
119 227 1
119 238 1
120 19 1
120 39 1
120 42 1
120 162 1
120 182 1
120 191 1
120 216 1
120 229 1
120 236 1
121 51 1
121 72 1
121 73 1
121 198 1
121 212 1
121 224 1
121 247 1
121 261 1
121 268 1
122 56 1
122 67 1
122 78 1
122 196 1
122 214 1
122 223 1
122 245 1
122 263 1
122 266 1
123 49 1
123 66 1
123 75 1
123 200 1
123 211 1
123 222 1
123 244 1
123 262 1
123 271 1
124 55 1
124 69 1
124 76 1
124 194 1
124 209 1
124 221 1
124 243 1
124 264 1
124 265 1
125 54 1
125 68 1
125 80 1
125 199 1
125 213 1
125 220 1
125 242 1
125 257 1
125 269 1
126 53 1
126 71 1
126 74 1
126 193 1
126 210 1
126 219 1
126 248 1
126 259 1
126 270 1
127 52 1
127 70 1
127 79 1
127 197 1
127 215 1
127 218 1
127 241 1
127 258 1
127 267 1
128 50 1
128 65 1
128 77 1
128 195 1
128 216 1
128 217 1
128 246 1
128 260 1
128 272 1
129 64 1
129 73 1
129 92 1
129 204 1
129 224 1
129 237 1
129 253 1
129 268 1
129 281 1
130 59 1
130 78 1
130 90 1
130 206 1
130 223 1
130 235 1
130 255 1
130 266 1
130 286 1
131 58 1
131 75 1
131 95 1
131 203 1
131 222 1
131 234 1
131 254 1
131 271 1
131 283 1
132 61 1
132 76 1
132 89 1
132 201 1
132 221 1
132 240 1
132 256 1
132 265 1
132 284 1
133 60 1
133 80 1
133 93 1
133 205 1
133 220 1
133 233 1
133 249 1
133 269 1
133 288 1
134 63 1
134 74 1
134 94 1
134 202 1
134 219 1
134 239 1
134 251 1
134 270 1
134 282 1
135 62 1
135 79 1
135 91 1
135 207 1
135 218 1
135 238 1
135 250 1
135 267 1
135 287 1
136 57 1
136 77 1
136 96 1
136 208 1
136 217 1
136 236 1
136 252 1
136 272 1
136 285 1
137 72 1
137 85 1
137 92 1
137 212 1
137 225 1
137 237 1
137 261 1
137 280 1
137 281 1
138 67 1
138 87 1
138 90 1
138 214 1
138 226 1
138 235 1
138 263 1
138 275 1
138 286 1
139 66 1
139 86 1
139 95 1
139 211 1
139 231 1
139 234 1
139 262 1
139 274 1
139 283 1
140 69 1
140 88 1
140 89 1
140 209 1
140 228 1
140 240 1
140 264 1
140 277 1
140 284 1
141 68 1
141 81 1
141 93 1
141 213 1
141 232 1
141 233 1
141 257 1
141 276 1
141 288 1
142 71 1
142 83 1
142 94 1
142 210 1
142 230 1
142 239 1
142 259 1
142 279 1
142 282 1
143 70 1
143 82 1
143 91 1
143 215 1
143 227 1
143 238 1
143 258 1
143 278 1
143 287 1
144 65 1
144 84 1
144 96 1
144 216 1
144 229 1
144 236 1
144 260 1
144 273 1
144 285 1
