%%MatrixMarket matrix coordinate integer general
288 576 2592
1 1 1
1 31 1
1 87 1
1 289 1
1 319 1
1 375 1
1 385 1
1 415 1
1 471 1
2 2 1
2 32 1
2 89 1
2 290 1
2 320 1
2 377 1
2 386 1
2 416 1
2 473 1
3 3 1
3 17 1
3 92 1
3 291 1
3 305 1
3 380 1
3 387 1
3 401 1
3 476 1
4 4 1
4 19 1
4 88 1
4 292 1
4 307 1
4 376 1
4 388 1
4 403 1
4 472 1
5 5 1
5 25 1
5 94 1
5 293 1
5 313 1
5 382 1
5 389 1
5 409 1
5 478 1
6 6 1
6 18 1
6 85 1
6 294 1
6 306 1
6 373 1
6 390 1
6 402 1
6 469 1
7 7 1
7 22 1
7 90 1
7 295 1
7 310 1
7 378 1
7 391 1
7 406 1
7 474 1
8 8 1
8 28 1
8 95 1
8 296 1
8 316 1
8 383 1
8 392 1
8 412 1
8 479 1
9 9 1
9 20 1
9 93 1
9 297 1
9 308 1
9 381 1
9 393 1
9 404 1
9 477 1
10 10 1
10 21 1
10 96 1
10 298 1
10 309 1
10 384 1
10 394 1
10 405 1
10 480 1
11 11 1
11 26 1
11 82 1
11 299 1
11 314 1
11 370 1
11 395 1
11 410 1
11 466 1
12 12 1
12 23 1
12 91 1
12 300 1
12 311 1
12 379 1
12 396 1
12 407 1
12 475 1
13 13 1
13 24 1
13 81 1
13 301 1
13 312 1
13 369 1
13 397 1
13 408 1
13 465 1
14 14 1
14 29 1
14 83 1
14 302 1
14 317 1
14 371 1
14 398 1
14 413 1
14 467 1
15 15 1
15 27 1
15 86 1
15 303 1
15 315 1
15 374 1
15 399 1
15 411 1
15 470 1
16 16 1
16 30 1
16 84 1
16 304 1
16 318 1
16 372 1
16 400 1
16 414 1
16 468 1
17 1 1
17 61 1
17 73 1
17 289 1
17 349 1
17 361 1
17 385 1
17 445 1
17 457 1
18 2 1
18 59 1
18 76 1
18 290 1
18 347 1
18 364 1
18 386 1
18 443 1
18 460 1
19 3 1
19 62 1
19 69 1
19 291 1
19 350 1
19 357 1
19 387 1
19 446 1
19 453 1
20 4 1
20 64 1
20 74 1
20 292 1
20 352 1
20 362 1
20 388 1
20 448 1
20 458 1
21 5 1
21 54 1
21 79 1
21 293 1
21 342 1
21 367 1
21 389 1
21 438 1
21 463 1
22 6 1
22 63 1
22 72 1
22 294 1
22 351 1
22 360 1
22 390 1
22 447 1
22 456 1
23 7 1
23 49 1
23 77 1
23 295 1
23 337 1
23 365 1
23 391 1
23 433 1
23 461 1
24 8 1
24 52 1
24 80 1
24 296 1
24 340 1
24 368 1
24 392 1
24 436 1
24 464 1
25 9 1
25 50 1
25 75 1
25 297 1
25 338 1
25 363 1
25 393 1
25 434 1
25 459 1
26 10 1
26 55 1
26 65 1
26 298 1
26 343 1
26 353 1
26 394 1
26 439 1
26 449 1
27 11 1
27 60 1
27 67 1
27 299 1
27 348 1
27 355 1
27 395 1
27 444 1
27 451 1
28 12 1
28 51 1
28 78 1
28 300 1
28 339 1
28 366 1
28 396 1
28 435 1
28 462 1
29 13 1
29 57 1
29 66 1
29 301 1
29 345 1
29 354 1
29 397 1
29 441 1
29 450 1
30 14 1
30 53 1
30 70 1
30 302 1
30 341 1
30 358 1
30 398 1
30 437 1
30 454 1
31 15 1
31 56 1
31 68 1
31 303 1
31 344 1
31 356 1
31 399 1
31 440 1
31 452 1
32 16 1
32 58 1
32 71 1
32 304 1
32 346 1
32 359 1
32 400 1
32 442 1
32 455 1
33 31 1
33 43 1
33 61 1
33 319 1
33 331 1
33 349 1
33 415 1
33 427 1
33 445 1
34 32 1
34 46 1
34 59 1
34 320 1
34 334 1
34 347 1
34 416 1
34 430 1
34 443 1
35 17 1
35 47 1
35 62 1
35 305 1
35 335 1
35 350 1
35 401 1
35 431 1
35 446 1
36 19 1
36 33 1
36 64 1
36 307 1
36 321 1
36 352 1
36 403 1
36 417 1
36 448 1
37 25 1
37 36 1
37 54 1
37 313 1
37 324 1
37 342 1
37 409 1
37 420 1
37 438 1
38 18 1
38 48 1
38 63 1
38 306 1
38 336 1
38 351 1
38 402 1
38 432 1
38 447 1
39 22 1
39 34 1
39 49 1
39 310 1
39 322 1
39 337 1
39 406 1
39 418 1
39 433 1
40 28 1
40 39 1
40 52 1
40 316 1
40 327 1
40 340 1
40 412 1
40 423 1
40 436 1
41 20 1
41 35 1
41 50 1
41 308 1
41 323 1
41 338 1
41 404 1
41 419 1
41 434 1
42 21 1
42 41 1
42 55 1
42 309 1
42 329 1
42 343 1
42 405 1
42 425 1
42 439 1
43 26 1
43 37 1
43 60 1
43 314 1
43 325 1
43 348 1
43 410 1
43 421 1
43 444 1
44 23 1
44 38 1
44 51 1
44 311 1
44 326 1
44 339 1
44 407 1
44 422 1
44 435 1
45 24 1
45 44 1
45 57 1
45 312 1
45 332 1
45 345 1
45 408 1
45 428 1
45 441 1
46 29 1
46 40 1
46 53 1
46 317 1
46 328 1
46 341 1
46 413 1
46 424 1
46 437 1
47 27 1
47 42 1
47 56 1
47 315 1
47 330 1
47 344 1
47 411 1
47 426 1
47 440 1
48 30 1
48 45 1
48 58 1
48 318 1
48 333 1
48 346 1
48 414 1
48 429 1
48 442 1
49 97 1
49 127 1
49 183 1
49 289 1
49 319 1
49 375 1
49 481 1
49 511 1
49 567 1
50 98 1
50 128 1
50 185 1
50 290 1
50 320 1
50 377 1
50 482 1
50 512 1
50 569 1
51 99 1
51 113 1
51 188 1
51 291 1
51 305 1
51 380 1
51 483 1
51 497 1
51 572 1
52 100 1
52 115 1
52 184 1
52 292 1
52 307 1
52 376 1
52 484 1
52 499 1
52 568 1
53 101 1
53 121 1
53 190 1
53 293 1
53 313 1
53 382 1
53 485 1
53 505 1
53 574 1
54 102 1
54 114 1
54 181 1
54 294 1
54 306 1
54 373 1
54 486 1
54 498 1
54 565 1
55 103 1
55 118 1
55 186 1
55 295 1
55 310 1
55 378 1
55 487 1
55 502 1
55 570 1
56 104 1
56 124 1
56 191 1
56 296 1
56 316 1
56 383 1
56 488 1
56 508 1
56 575 1
57 105 1
57 116 1
57 189 1
57 297 1
57 308 1
57 381 1
57 489 1
57 500 1
57 573 1
58 106 1
58 117 1
58 192 1
58 298 1
58 309 1
58 384 1
58 490 1
58 501 1
58 576 1
59 107 1
59 122 1
59 178 1
59 299 1
59 314 1
59 370 1
59 491 1
59 506 1
59 562 1
60 108 1
60 119 1
60 187 1
60 300 1
60 311 1
60 379 1
60 492 1
60 503 1
60 571 1
61 109 1
61 120 1
61 177 1
61 301 1
61 312 1
61 369 1
61 493 1
61 504 1
61 561 1
62 110 1
62 125 1
62 179 1
62 302 1
62 317 1
62 371 1
62 494 1
62 509 1
62 563 1
63 111 1
63 123 1
63 182 1
63 303 1
63 315 1
63 374 1
63 495 1
63 507 1
63 566 1
64 112 1
64 126 1
64 180 1
64 304 1
64 318 1
64 372 1
64 496 1
64 510 1
64 564 1
65 97 1
65 157 1
65 169 1
65 289 1
65 349 1
65 361 1
65 481 1
65 541 1
65 553 1
66 98 1
66 155 1
66 172 1
66 290 1
66 347 1
66 364 1
66 482 1
66 539 1
66 556 1
67 99 1
67 158 1
67 165 1
67 291 1
67 350 1
67 357 1
67 483 1
67 542 1
67 549 1
68 100 1
68 160 1
68 170 1
68 292 1
68 352 1
68 362 1
68 484 1
68 544 1
68 554 1
69 101 1
69 150 1
69 175 1
69 293 1
69 342 1
69 367 1
69 485 1
69 534 1
69 559 1
70 102 1
70 159 1
70 168 1
70 294 1
70 351 1
70 360 1
70 486 1
70 543 1
70 552 1
71 103 1
71 145 1
71 173 1
71 295 1
71 337 1
71 365 1
71 487 1
71 529 1
71 557 1
72 104 1
72 148 1
72 176 1
72 296 1
72 340 1
72 368 1
72 488 1
72 532 1
72 560 1
73 105 1
73 146 1
73 171 1
73 297 1
73 338 1
73 363 1
73 489 1
73 530 1
73 555 1
74 106 1
74 151 1
74 161 1
74 298 1
74 343 1
74 353 1
74 490 1
74 535 1
74 545 1
75 107 1
75 156 1
75 163 1
75 299 1
75 348 1
75 355 1
75 491 1
75 540 1
75 547 1
76 108 1
76 147 1
76 174 1
76 300 1
76 339 1
76 366 1
76 492 1
76 531 1
76 558 1
77 109 1
77 153 1
77 162 1
77 301 1
77 345 1
77 354 1
77 493 1
77 537 1
77 546 1
78 110 1
78 149 1
78 166 1
78 302 1
78 341 1
78 358 1
78 494 1
78 533 1
78 550 1
79 111 1
79 152 1
79 164 1
79 303 1
79 344 1
79 356 1
79 495 1
79 536 1
79 548 1
80 112 1
80 154 1
80 167 1
80 304 1
80 346 1
80 359 1
80 496 1
80 538 1
80 551 1
81 127 1
81 139 1
81 157 1
81 319 1
81 331 1
81 349 1
81 511 1
81 523 1
81 541 1
82 128 1
82 142 1
82 155 1
82 320 1
82 334 1
82 347 1
82 512 1
82 526 1
82 539 1
83 113 1
83 143 1
83 158 1
83 305 1
83 335 1
83 350 1
83 497 1
83 527 1
83 542 1
84 115 1
84 129 1
84 160 1
84 307 1
84 321 1
84 352 1
84 499 1
84 513 1
84 544 1
85 121 1
85 132 1
85 150 1
85 313 1
85 324 1
85 342 1
85 505 1
85 516 1
85 534 1
86 114 1
86 144 1
86 159 1
86 306 1
86 336 1
86 351 1
86 498 1
86 528 1
86 543 1
87 118 1
87 130 1
87 145 1
87 310 1
87 322 1
87 337 1
87 502 1
87 514 1
87 529 1
88 124 1
88 135 1
88 148 1
88 316 1
88 327 1
88 340 1
88 508 1
88 519 1
88 532 1
89 116 1
89 131 1
89 146 1
89 308 1
89 323 1
89 338 1
89 500 1
89 515 1
89 530 1
90 117 1
90 137 1
90 151 1
90 309 1
90 329 1
90 343 1
90 501 1
90 521 1
90 535 1
91 122 1
91 133 1
91 156 1
91 314 1
91 325 1
91 348 1
91 506 1
91 517 1
91 540 1
92 119 1
92 134 1
92 147 1
92 311 1
92 326 1
92 339 1
92 503 1
92 518 1
92 531 1
93 120 1
93 140 1
93 153 1
93 312 1
93 332 1
93 345 1
93 504 1
93 524 1
93 537 1
94 125 1
94 136 1
94 149 1
94 317 1
94 328 1
94 341 1
94 509 1
94 520 1
94 533 1
95 123 1
95 138 1
95 152 1
95 315 1
95 330 1
95 344 1
95 507 1
95 522 1
95 536 1
96 126 1
96 141 1
96 154 1
96 318 1
96 333 1
96 346 1
96 510 1
96 525 1
96 538 1
97 193 1
97 223 1
97 279 1
97 385 1
97 415 1
97 471 1
97 481 1
97 511 1
97 567 1
98 194 1
98 224 1
98 281 1
98 386 1
98 416 1
98 473 1
98 482 1
98 512 1
98 569 1
99 195 1
99 209 1
99 284 1
99 387 1
99 401 1
99 476 1
99 483 1
99 497 1
99 572 1
100 196 1
100 211 1
100 280 1
100 388 1
100 403 1
100 472 1
100 484 1
100 499 1
100 568 1
101 197 1
101 217 1
101 286 1
101 389 1
101 409 1
101 478 1
101 485 1
101 505 1
101 574 1
102 198 1
102 210 1
102 277 1
102 390 1
102 402 1
102 469 1
102 486 1
102 498 1
102 565 1
103 199 1
103 214 1
103 282 1
103 391 1
103 406 1
103 474 1
103 487 1
103 502 1
103 570 1
104 200 1
104 220 1
104 287 1
104 392 1
104 412 1
104 479 1
104 488 1
104 508 1
104 575 1
105 201 1
105 212 1
105 285 1
105 393 1
105 404 1
105 477 1
105 489 1
105 500 1
105 573 1
106 202 1
106 213 1
106 288 1
106 394 1
106 405 1
106 480 1
106 490 1
106 501 1
106 576 1
107 203 1
107 218 1
107 274 1
107 395 1
107 410 1
107 466 1
107 491 1
107 506 1
107 562 1
108 204 1
108 215 1
108 283 1
108 396 1
108 407 1
108 475 1
108 492 1
108 503 1
108 571 1
109 205 1
109 216 1
109 273 1
109 397 1
109 408 1
109 465 1
109 493 1
109 504 1
109 561 1
110 206 1
110 221 1
110 275 1
110 398 1
110 413 1
110 467 1
110 494 1
110 509 1
110 563 1
111 207 1
111 219 1
111 278 1
111 399 1
111 411 1
111 470 1
111 495 1
111 507 1
111 566 1
112 208 1
112 222 1
112 276 1
112 400 1
112 414 1
112 468 1
112 496 1
112 510 1
112 564 1
113 193 1
113 253 1
113 265 1
113 385 1
113 445 1
113 457 1
113 481 1
113 541 1
113 553 1
114 194 1
114 251 1
114 268 1
114 386 1
114 443 1
114 460 1
114 482 1
114 539 1
114 556 1
115 195 1
115 254 1
115 261 1
115 387 1
115 446 1
115 453 1
115 483 1
115 542 1
115 549 1
116 196 1
116 256 1
116 266 1
116 388 1
116 448 1
116 458 1
116 484 1
116 544 1
116 554 1
117 197 1
117 246 1
117 271 1
117 389 1
117 438 1
117 463 1
117 485 1
117 534 1
117 559 1
118 198 1
118 255 1
118 264 1
118 390 1
118 447 1
118 456 1
118 486 1
118 543 1
118 552 1
119 199 1
119 241 1
119 269 1
119 391 1
119 433 1
119 461 1
119 487 1
119 529 1
119 557 1
120 200 1
120 244 1
120 272 1
120 392 1
120 436 1
120 464 1
120 488 1
120 532 1
120 560 1
121 201 1
121 242 1
121 267 1
121 393 1
121 434 1
121 459 1
121 489 1
121 530 1
121 555 1
122 202 1
122 247 1
122 257 1
122 394 1
122 439 1
122 449 1
122 490 1
122 535 1
122 545 1
123 203 1
123 252 1
123 259 1
123 395 1
123 444 1
123 451 1
123 491 1
123 540 1
123 547 1
124 204 1
124 243 1
124 270 1
124 396 1
124 435 1
124 462 1
124 492 1
124 531 1
124 558 1
125 205 1
125 249 1
125 258 1
125 397 1
125 441 1
125 450 1
125 493 1
125 537 1
125 546 1
126 206 1
126 245 1
126 262 1
126 398 1
126 437 1
126 454 1
126 494 1
126 533 1
126 550 1
127 207 1
127 248 1
127 260 1
127 399 1
127 440 1
127 452 1
127 495 1
127 536 1
127 548 1
128 208 1
128 250 1
128 263 1
128 400 1
128 442 1
128 455 1
128 496 1
128 538 1
128 551 1
129 223 1
129 235 1
129 253 1
129 415 1
129 427 1
129 445 1
129 511 1
129 523 1
129 541 1
130 224 1
130 238 1
130 251 1
130 416 1
130 430 1
130 443 1
130 512 1
130 526 1
130 539 1
131 209 1
131 239 1
131 254 1
131 401 1
131 431 1
131 446 1
131 497 1
131 527 1
131 542 1
132 211 1
132 225 1
132 256 1
132 403 1
132 417 1
132 448 1
132 499 1
132 513 1
132 544 1
133 217 1
133 228 1
133 246 1
133 409 1
133 420 1
133 438 1
133 505 1
133 516 1
133 534 1
134 210 1
134 240 1
134 255 1
134 402 1
134 432 1
134 447 1
134 498 1
134 528 1
134 543 1
135 214 1
135 226 1
135 241 1
135 406 1
135 418 1
135 433 1
135 502 1
135 514 1
135 529 1
136 220 1
136 231 1
136 244 1
136 412 1
136 423 1
136 436 1
136 508 1
136 519 1
136 532 1
137 212 1
137 227 1
137 242 1
137 404 1
137 419 1
137 434 1
137 500 1
137 515 1
137 530 1
138 213 1
138 233 1
138 247 1
138 405 1
138 425 1
138 439 1
138 501 1
138 521 1
138 535 1
139 218 1
139 229 1
139 252 1
139 410 1
139 421 1
139 444 1
139 506 1
139 517 1
139 540 1
140 215 1
140 230 1
140 243 1
140 407 1
140 422 1
140 435 1
140 503 1
140 518 1
140 531 1
141 216 1
141 236 1
141 249 1
141 408 1
141 428 1
141 441 1
141 504 1
141 524 1
141 537 1
142 221 1
142 232 1
142 245 1
142 413 1
142 424 1
142 437 1
142 509 1
142 520 1
142 533 1
143 219 1
143 234 1
143 248 1
143 411 1
143 426 1
143 440 1
143 507 1
143 522 1
143 536 1
144 222 1
144 237 1
144 250 1
144 414 1
144 429 1
144 442 1
144 510 1
144 525 1
144 538 1
145 1 1
145 17 1
145 49 1
145 397 1
145 413 1
145 445 1
145 494 1
145 510 1
145 542 1
146 2 1
146 18 1
146 50 1
146 395 1
146 411 1
146 443 1
146 495 1
146 511 1
146 543 1
147 3 1
147 19 1
147 51 1
147 398 1
147 414 1
147 446 1
147 496 1
147 512 1
147 544 1
148 4 1
148 20 1
148 52 1
148 400 1
148 416 1
148 448 1
148 482 1
148 498 1
148 530 1
149 5 1
149 21 1
149 53 1
149 390 1
149 406 1
149 438 1
149 487 1
149 503 1
149 535 1
150 6 1
150 22 1
150 54 1
150 399 1
150 415 1
150 447 1
150 481 1
150 497 1
150 529 1
151 7 1
151 23 1
151 55 1
151 385 1
151 401 1
151 433 1
151 483 1
151 499 1
151 531 1
152 8 1
152 24 1
152 56 1
152 388 1
152 404 1
152 436 1
152 489 1
152 505 1
152 537 1
153 9 1
153 25 1
153 57 1
153 386 1
153 402 1
153 434 1
153 486 1
153 502 1
153 534 1
154 10 1
154 26 1
154 58 1
154 391 1
154 407 1
154 439 1
154 492 1
154 508 1
154 540 1
155 11 1
155 27 1
155 59 1
155 396 1
155 412 1
155 444 1
155 488 1
155 504 1
155 536 1
156 12 1
156 28 1
156 60 1
156 387 1
156 403 1
156 435 1
156 484 1
156 500 1
156 532 1
157 13 1
157 29 1
157 61 1
157 393 1
157 409 1
157 441 1
157 485 1
157 501 1
157 533 1
158 14 1
158 30 1
158 62 1
158 389 1
158 405 1
158 437 1
158 490 1
158 506 1
158 538 1
159 15 1
159 31 1
159 63 1
159 392 1
159 408 1
159 440 1
159 493 1
159 509 1
159 541 1
160 16 1
160 32 1
160 64 1
160 394 1
160 410 1
160 442 1
160 491 1
160 507 1
160 539 1
161 1 1
161 33 1
161 65 1
161 397 1
161 429 1
161 461 1
161 494 1
161 526 1
161 558 1
162 2 1
162 34 1
162 66 1
162 395 1
162 427 1
162 459 1
162 495 1
162 527 1
162 559 1
163 3 1
163 35 1
163 67 1
163 398 1
163 430 1
163 462 1
163 496 1
163 528 1
163 560 1
164 4 1
164 36 1
164 68 1
164 400 1
164 432 1
164 464 1
164 482 1
164 514 1
164 546 1
165 5 1
165 37 1
165 69 1
165 390 1
165 422 1
165 454 1
165 487 1
165 519 1
165 551 1
166 6 1
166 38 1
166 70 1
166 399 1
166 431 1
166 463 1
166 481 1
166 513 1
166 545 1
167 7 1
167 39 1
167 71 1
167 385 1
167 417 1
167 449 1
167 483 1
167 515 1
167 547 1
168 8 1
168 40 1
168 72 1
168 388 1
168 420 1
168 452 1
168 489 1
168 521 1
168 553 1
169 9 1
169 41 1
169 73 1
169 386 1
169 418 1
169 450 1
169 486 1
169 518 1
169 550 1
170 10 1
170 42 1
170 74 1
170 391 1
170 423 1
170 455 1
170 492 1
170 524 1
170 556 1
171 11 1
171 43 1
171 75 1
171 396 1
171 428 1
171 460 1
171 488 1
171 520 1
171 552 1
172 12 1
172 44 1
172 76 1
172 387 1
172 419 1
172 451 1
172 484 1
172 516 1
172 548 1
173 13 1
173 45 1
173 77 1
173 393 1
173 425 1
173 457 1
173 485 1
173 517 1
173 549 1
174 14 1
174 46 1
174 78 1
174 389 1
174 421 1
174 453 1
174 490 1
174 522 1
174 554 1
175 15 1
175 47 1
175 79 1
175 392 1
175 424 1
175 456 1
175 493 1
175 525 1
175 557 1
176 16 1
176 48 1
176 80 1
176 394 1
176 426 1
176 458 1
176 491 1
176 523 1
176 555 1
177 17 1
177 33 1
177 81 1
177 413 1
177 429 1
177 477 1
177 510 1
177 526 1
177 574 1
178 18 1
178 34 1
178 82 1
178 411 1
178 427 1
178 475 1
178 511 1
178 527 1
178 575 1
179 19 1
179 35 1
179 83 1
179 414 1
179 430 1
179 478 1
179 512 1
179 528 1
179 576 1
180 20 1
180 36 1
180 84 1
180 416 1
180 432 1
180 480 1
180 498 1
180 514 1
180 562 1
181 21 1
181 37 1
181 85 1
181 406 1
181 422 1
181 470 1
181 503 1
181 519 1
181 567 1
182 22 1
182 38 1
182 86 1
182 415 1
182 431 1
182 479 1
182 497 1
182 513 1
182 561 1
183 23 1
183 39 1
183 87 1
183 401 1
183 417 1
183 465 1
183 499 1
183 515 1
183 563 1
184 24 1
184 40 1
184 88 1
184 404 1
184 420 1
184 468 1
184 505 1
184 521 1
184 569 1
185 25 1
185 41 1
185 89 1
185 402 1
185 418 1
185 466 1
185 502 1
185 518 1
185 566 1
186 26 1
186 42 1
186 90 1
186 407 1
186 423 1
186 471 1
186 508 1
186 524 1
186 572 1
187 27 1
187 43 1
187 91 1
187 412 1
187 428 1
187 476 1
187 504 1
187 520 1
187 568 1
188 28 1
188 44 1
188 92 1
188 403 1
188 419 1
188 467 1
188 500 1
188 516 1
188 564 1
189 29 1
189 45 1
189 93 1
189 409 1
189 425 1
189 473 1
189 501 1
189 517 1
189 565 1
190 30 1
190 46 1
190 94 1
190 405 1
190 421 1
190 469 1
190 506 1
190 522 1
190 570 1
191 31 1
191 47 1
191 95 1
191 408 1
191 424 1
191 472 1
191 509 1
191 525 1
191 573 1
192 32 1
192 48 1
192 96 1
192 410 1
192 426 1
192 474 1
192 507 1
192 523 1
192 571 1
193 102 1
193 118 1
193 150 1
193 200 1
193 216 1
193 248 1
193 494 1
193 510 1
193 542 1
194 100 1
194 116 1
194 148 1
194 202 1
194 218 1
194 250 1
194 495 1
194 511 1
194 543 1
195 103 1
195 119 1
195 151 1
195 205 1
195 221 1
195 253 1
195 496 1
195 512 1
195 544 1
196 108 1
196 124 1
196 156 1
196 206 1
196 222 1
196 254 1
196 482 1
196 498 1
196 530 1
197 109 1
197 125 1
197 157 1
197 194 1
197 210 1
197 242 1
197 487 1
197 503 1
197 535 1
198 105 1
198 121 1
198 153 1
198 203 1
198 219 1
198 251 1
198 481 1
198 497 1
198 529 1
199 101 1
199 117 1
199 149 1
199 207 1
199 223 1
199 255 1
199 483 1
199 499 1
199 531 1
200 107 1
200 123 1
200 155 1
200 195 1
200 211 1
200 243 1
200 489 1
200 505 1
200 537 1
201 104 1
201 120 1
201 152 1
201 208 1
201 224 1
201 256 1
201 486 1
201 502 1
201 534 1
202 110 1
202 126 1
202 158 1
202 198 1
202 214 1
202 246 1
202 492 1
202 508 1
202 540 1
203 112 1
203 128 1
203 160 1
203 199 1
203 215 1
203 247 1
203 488 1
203 504 1
203 536 1
204 106 1
204 122 1
204 154 1
204 193 1
204 209 1
204 241 1
204 484 1
204 500 1
204 532 1
205 111 1
205 127 1
205 159 1
205 196 1
205 212 1
205 244 1
205 485 1
205 501 1
205 533 1
206 97 1
206 113 1
206 145 1
206 201 1
206 217 1
206 249 1
206 490 1
206 506 1
206 538 1
207 98 1
207 114 1
207 146 1
207 204 1
207 220 1
207 252 1
207 493 1
207 509 1
207 541 1
208 99 1
208 115 1
208 147 1
208 197 1
208 213 1
208 245 1
208 491 1
208 507 1
208 539 1
209 102 1
209 134 1
209 166 1
209 200 1
209 232 1
209 264 1
209 494 1
209 526 1
209 558 1
210 100 1
210 132 1
210 164 1
210 202 1
210 234 1
210 266 1
210 495 1
210 527 1
210 559 1
211 103 1
211 135 1
211 167 1
211 205 1
211 237 1
211 269 1
211 496 1
211 528 1
211 560 1
212 108 1
212 140 1
212 172 1
212 206 1
212 238 1
212 270 1
212 482 1
212 514 1
212 546 1
213 109 1
213 141 1
213 173 1
213 194 1
213 226 1
213 258 1
213 487 1
213 519 1
213 551 1
214 105 1
214 137 1
214 169 1
214 203 1
214 235 1
214 267 1
214 481 1
214 513 1
214 545 1
215 101 1
215 133 1
215 165 1
215 207 1
215 239 1
215 271 1
215 483 1
215 515 1
215 547 1
216 107 1
216 139 1
216 171 1
216 195 1
216 227 1
216 259 1
216 489 1
216 521 1
216 553 1
217 104 1
217 136 1
217 168 1
217 208 1
217 240 1
217 272 1
217 486 1
217 518 1
217 550 1
218 110 1
218 142 1
218 174 1
218 198 1
218 230 1
218 262 1
218 492 1
218 524 1
218 556 1
219 112 1
219 144 1
219 176 1
219 199 1
219 231 1
219 263 1
219 488 1
219 520 1
219 552 1
220 106 1
220 138 1
220 170 1
220 193 1
220 225 1
220 257 1
220 484 1
220 516 1
220 548 1
221 111 1
221 143 1
221 175 1
221 196 1
221 228 1
221 260 1
221 485 1
221 517 1
221 549 1
222 97 1
222 129 1
222 161 1
222 201 1
222 233 1
222 265 1
222 490 1
222 522 1
222 554 1
223 98 1
223 130 1
223 162 1
223 204 1
223 236 1
223 268 1
223 493 1
223 525 1
223 557 1
224 99 1
224 131 1
224 163 1
224 197 1
224 229 1
224 261 1
224 491 1
224 523 1
224 555 1
225 118 1
225 134 1
225 182 1
225 216 1
225 232 1
225 280 1
225 510 1
225 526 1
225 574 1
226 116 1
226 132 1
226 180 1
226 218 1
226 234 1
226 282 1
226 511 1
226 527 1
226 575 1
227 119 1
227 135 1
227 183 1
227 221 1
227 237 1
227 285 1
227 512 1
227 528 1
227 576 1
228 124 1
228 140 1
228 188 1
228 222 1
228 238 1
228 286 1
228 498 1
228 514 1
228 562 1
229 125 1
229 141 1
229 189 1
229 210 1
229 226 1
229 274 1
229 503 1
229 519 1
229 567 1
230 121 1
230 137 1
230 185 1
230 219 1
230 235 1
230 283 1
230 497 1
230 513 1
230 561 1
231 117 1
231 133 1
231 181 1
231 223 1
231 239 1
231 287 1
231 499 1
231 515 1
231 563 1
232 123 1
232 139 1
232 187 1
232 211 1
232 227 1
232 275 1
232 505 1
232 521 1
232 569 1
233 120 1
233 136 1
233 184 1
233 224 1
233 240 1
233 288 1
233 502 1
233 518 1
233 566 1
234 126 1
234 142 1
234 190 1
234 214 1
234 230 1
234 278 1
234 508 1
234 524 1
234 572 1
235 128 1
235 144 1
235 192 1
235 215 1
235 231 1
235 279 1
235 504 1
235 520 1
235 568 1
236 122 1
236 138 1
236 186 1
236 209 1
236 225 1
236 273 1
236 500 1
236 516 1
236 564 1
237 127 1
237 143 1
237 191 1
237 212 1
237 228 1
237 276 1
237 501 1
237 517 1
237 565 1
238 113 1
238 129 1
238 177 1
238 217 1
238 233 1
238 281 1
238 506 1
238 522 1
238 570 1
239 114 1
239 130 1
239 178 1
239 220 1
239 236 1
239 284 1
239 509 1
239 525 1
239 573 1
240 115 1
240 131 1
240 179 1
240 213 1
240 229 1
240 277 1
240 507 1
240 523 1
240 571 1
241 200 1
241 216 1
241 248 1
241 297 1
241 313 1
241 345 1
241 397 1
241 413 1
241 445 1
242 202 1
242 218 1
242 250 1
242 300 1
242 316 1
242 348 1
242 395 1
242 411 1
242 443 1
243 205 1
243 221 1
243 253 1
243 293 1
243 309 1
243 341 1
243 398 1
243 414 1
243 446 1
244 206 1
244 222 1
244 254 1
244 298 1
244 314 1
244 346 1
244 400 1
244 416 1
244 448 1
245 194 1
245 210 1
245 242 1
245 303 1
245 319 1
245 351 1
245 390 1
245 406 1
245 438 1
246 203 1
246 219 1
246 251 1
246 296 1
246 312 1
246 344 1
246 399 1
246 415 1
246 447 1
247 207 1
247 223 1
247 255 1
247 301 1
247 317 1
247 349 1
247 385 1
247 401 1
247 433 1
248 195 1
248 211 1
248 243 1
248 304 1
248 320 1
248 352 1
248 388 1
248 404 1
248 436 1
249 208 1
249 224 1
249 256 1
249 299 1
249 315 1
249 347 1
249 386 1
249 402 1
249 434 1
250 198 1
250 214 1
250 246 1
250 289 1
250 305 1
250 337 1
250 391 1
250 407 1
250 439 1
251 199 1
251 215 1
251 247 1
251 291 1
251 307 1
251 339 1
251 396 1
251 412 1
251 444 1
252 193 1
252 209 1
252 241 1
252 302 1
252 318 1
252 350 1
252 387 1
252 403 1
252 435 1
253 196 1
253 212 1
253 244 1
253 290 1
253 306 1
253 338 1
253 393 1
253 409 1
253 441 1
254 201 1
254 217 1
254 249 1
254 294 1
254 310 1
254 342 1
254 389 1
254 405 1
254 437 1
255 204 1
255 220 1
255 252 1
255 292 1
255 308 1
255 340 1
255 392 1
255 408 1
255 440 1
256 197 1
256 213 1
256 245 1
256 295 1
256 311 1
256 343 1
256 394 1
256 410 1
256 442 1
257 200 1
257 232 1
257 264 1
257 297 1
257 329 1
257 361 1
257 397 1
257 429 1
257 461 1
258 202 1
258 234 1
258 266 1
258 300 1
258 332 1
258 364 1
258 395 1
258 427 1
258 459 1
259 205 1
259 237 1
259 269 1
259 293 1
259 325 1
259 357 1
259 398 1
259 430 1
259 462 1
260 206 1
260 238 1
260 270 1
260 298 1
260 330 1
260 362 1
260 400 1
260 432 1
260 464 1
261 194 1
261 226 1
261 258 1
261 303 1
261 335 1
261 367 1
261 390 1
261 422 1
261 454 1
262 203 1
262 235 1
262 267 1
262 296 1
262 328 1
262 360 1
262 399 1
262 431 1
262 463 1
263 207 1
263 239 1
263 271 1
263 301 1
263 333 1
263 365 1
263 385 1
263 417 1
263 449 1
264 195 1
264 227 1
264 259 1
264 304 1
264 336 1
264 368 1
264 388 1
264 420 1
264 452 1
265 208 1
265 240 1
265 272 1
265 299 1
265 331 1
265 363 1
265 386 1
265 418 1
265 450 1
266 198 1
266 230 1
266 262 1
266 289 1
266 321 1
266 353 1
266 391 1
266 423 1
266 455 1
267 199 1
267 231 1
267 263 1
267 291 1
267 323 1
267 355 1
267 396 1
267 428 1
267 460 1
268 193 1
268 225 1
268 257 1
268 302 1
268 334 1
268 366 1
268 387 1
268 419 1
268 451 1
269 196 1
269 228 1
269 260 1
269 290 1
269 322 1
269 354 1
269 393 1
269 425 1
269 457 1
270 201 1
270 233 1
270 265 1
270 294 1
270 326 1
270 358 1
270 389 1
270 421 1
270 453 1
271 204 1
271 236 1
271 268 1
271 292 1
271 324 1
271 356 1
271 392 1
271 424 1
271 456 1
272 197 1
272 229 1
272 261 1
272 295 1
272 327 1
272 359 1
272 394 1
272 426 1
272 458 1
273 216 1
273 232 1
273 280 1
273 313 1
273 329 1
273 377 1
273 413 1
273 429 1
273 477 1
274 218 1
274 234 1
274 282 1
274 316 1
274 332 1
274 380 1
274 411 1
274 427 1
274 475 1
275 221 1
275 237 1
275 285 1
275 309 1
275 325 1
275 373 1
275 414 1
275 430 1
275 478 1
276 222 1
276 238 1
276 286 1
276 314 1
276 330 1
276 378 1
276 416 1
276 432 1
276 480 1
277 210 1
277 226 1
277 274 1
277 319 1
277 335 1
277 383 1
277 406 1
277 422 1
277 470 1
278 219 1
278 235 1
278 283 1
278 312 1
278 328 1
278 376 1
278 415 1
278 431 1
278 479 1
279 223 1
279 239 1
279 287 1
279 317 1
279 333 1
279 381 1
279 401 1
279 417 1
279 465 1
280 211 1
280 227 1
280 275 1
280 320 1
280 336 1
280 384 1
280 404 1
280 420 1
280 468 1
281 224 1
281 240 1
281 288 1
281 315 1
281 331 1
281 379 1
281 402 1
281 418 1
281 466 1
282 214 1
282 230 1
282 278 1
282 305 1
282 321 1
282 369 1
282 407 1
282 423 1
282 471 1
283 215 1
283 231 1
283 279 1
283 307 1
283 323 1
283 371 1
283 412 1
283 428 1
283 476 1
284 209 1
284 225 1
284 273 1
284 318 1
284 334 1
284 382 1
284 403 1
284 419 1
284 467 1
285 212 1
285 228 1
285 276 1
285 306 1
285 322 1
285 370 1
285 409 1
285 425 1
285 473 1
286 217 1
286 233 1
286 281 1
286 310 1
286 326 1
286 374 1
286 405 1
286 421 1
286 469 1
287 220 1
287 236 1
287 284 1
287 308 1
287 324 1
287 372 1
287 408 1
287 424 1
287 472 1
288 213 1
288 229 1
288 277 1
288 311 1
288 327 1
288 375 1
288 410 1
288 426 1
288 474 1
