%%MatrixMarket matrix coordinate integer general
306 612 2754
1 1 1
1 33 1
1 63 1
1 307 1
1 339 1
1 369 1
1 409 1
1 441 1
1 471 1
2 2 1
2 34 1
2 64 1
2 308 1
2 340 1
2 370 1
2 410 1
2 442 1
2 472 1
3 3 1
3 18 1
3 65 1
3 309 1
3 324 1
3 371 1
3 411 1
3 426 1
3 473 1
4 4 1
4 19 1
4 66 1
4 310 1
4 325 1
4 372 1
4 412 1
4 427 1
4 474 1
5 5 1
5 20 1
5 67 1
5 311 1
5 326 1
5 373 1
5 413 1
5 428 1
5 475 1
6 6 1
6 21 1
6 68 1
6 312 1
6 327 1
6 374 1
6 414 1
6 429 1
6 476 1
7 7 1
7 22 1
7 52 1
7 313 1
7 328 1
7 358 1
7 415 1
7 430 1
7 460 1
8 8 1
8 23 1
8 53 1
8 314 1
8 329 1
8 359 1
8 416 1
8 431 1
8 461 1
9 9 1
9 24 1
9 54 1
9 315 1
9 330 1
9 360 1
9 417 1
9 432 1
9 462 1
10 10 1
10 25 1
10 55 1
10 316 1
10 331 1
10 361 1
10 418 1
10 433 1
10 463 1
11 11 1
11 26 1
11 56 1
11 317 1
11 332 1
11 362 1
11 419 1
11 434 1
11 464 1
12 12 1
12 27 1
12 57 1
12 318 1
12 333 1
12 363 1
12 420 1
12 435 1
12 465 1
13 13 1
13 28 1
13 58 1
13 319 1
13 334 1
13 364 1
13 421 1
13 436 1
13 466 1
14 14 1
14 29 1
14 59 1
14 320 1
14 335 1
14 365 1
14 422 1
14 437 1
14 467 1
15 15 1
15 30 1
15 60 1
15 321 1
15 336 1
15 366 1
15 423 1
15 438 1
15 468 1
16 16 1
16 31 1
16 61 1
16 322 1
16 337 1
16 367 1
16 424 1
16 439 1
16 469 1
17 17 1
17 32 1
17 62 1
17 323 1
17 338 1
17 368 1
17 425 1
17 440 1
17 470 1
18 1 1
18 48 1
18 73 1
18 307 1
18 354 1
18 379 1
18 409 1
18 456 1
18 481 1
19 2 1
19 49 1
19 74 1
19 308 1
19 355 1
19 380 1
19 410 1
19 457 1
19 482 1
20 3 1
20 50 1
20 75 1
20 309 1
20 356 1
20 381 1
20 411 1
20 458 1
20 483 1
21 4 1
21 51 1
21 76 1
21 310 1
21 357 1
21 382 1
21 412 1
21 459 1
21 484 1
22 5 1
22 35 1
22 77 1
22 311 1
22 341 1
22 383 1
22 413 1
22 443 1
22 485 1
23 6 1
23 36 1
23 78 1
23 312 1
23 342 1
23 384 1
23 414 1
23 444 1
23 486 1
24 7 1
24 37 1
24 79 1
24 313 1
24 343 1
24 385 1
24 415 1
24 445 1
24 487 1
25 8 1
25 38 1
25 80 1
25 314 1
25 344 1
25 386 1
25 416 1
25 446 1
25 488 1
26 9 1
26 39 1
26 81 1
26 315 1
26 345 1
26 387 1
26 417 1
26 447 1
26 489 1
27 10 1
27 40 1
27 82 1
27 316 1
27 346 1
27 388 1
27 418 1
27 448 1
27 490 1
28 11 1
28 41 1
28 83 1
28 317 1
28 347 1
28 389 1
28 419 1
28 449 1
28 491 1
29 12 1
29 42 1
29 84 1
29 318 1
29 348 1
29 390 1
29 420 1
29 450 1
29 492 1
30 13 1
30 43 1
30 85 1
30 319 1
30 349 1
30 391 1
30 421 1
30 451 1
30 493 1
31 14 1
31 44 1
31 69 1
31 320 1
31 350 1
31 375 1
31 422 1
31 452 1
31 477 1
32 15 1
32 45 1
32 70 1
32 321 1
32 351 1
32 376 1
32 423 1
32 453 1
32 478 1
33 16 1
33 46 1
33 71 1
33 322 1
33 352 1
33 377 1
33 424 1
33 454 1
33 479 1
34 17 1
34 47 1
34 72 1
34 323 1
34 353 1
34 378 1
34 425 1
34 455 1
34 480 1
35 33 1
35 48 1
35 88 1
35 339 1
35 354 1
35 394 1
35 441 1
35 456 1
35 496 1
36 34 1
36 49 1
36 89 1
36 340 1
36 355 1
36 395 1
36 442 1
36 457 1
36 497 1
37 18 1
37 50 1
37 90 1
37 324 1
37 356 1
37 396 1
37 426 1
37 458 1
37 498 1
38 19 1
38 51 1
38 91 1
38 325 1
38 357 1
38 397 1
38 427 1
38 459 1
38 499 1
39 20 1
39 35 1
39 92 1
39 326 1
39 341 1
39 398 1
39 428 1
39 443 1
39 500 1
40 21 1
40 36 1
40 93 1
40 327 1
40 342 1
40 399 1
40 429 1
40 444 1
40 501 1
41 22 1
41 37 1
41 94 1
41 328 1
41 343 1
41 400 1
41 430 1
41 445 1
41 502 1
42 23 1
42 38 1
42 95 1
42 329 1
42 344 1
42 401 1
42 431 1
42 446 1
42 503 1
43 24 1
43 39 1
43 96 1
43 330 1
43 345 1
43 402 1
43 432 1
43 447 1
43 504 1
44 25 1
44 40 1
44 97 1
44 331 1
44 346 1
44 403 1
44 433 1
44 448 1
44 505 1
45 26 1
45 41 1
45 98 1
45 332 1
45 347 1
45 404 1
45 434 1
45 449 1
45 506 1
46 27 1
46 42 1
46 99 1
46 333 1
46 348 1
46 405 1
46 435 1
46 450 1
46 507 1
47 28 1
47 43 1
47 100 1
47 334 1
47 349 1
47 406 1
47 436 1
47 451 1
47 508 1
48 29 1
48 44 1
48 101 1
48 335 1
48 350 1
48 407 1
48 437 1
48 452 1
48 509 1
49 30 1
49 45 1
49 102 1
49 336 1
49 351 1
49 408 1
49 438 1
49 453 1
49 510 1
50 31 1
50 46 1
50 86 1
50 337 1
50 352 1
50 392 1
50 439 1
50 454 1
50 494 1
51 32 1
51 47 1
51 87 1
51 338 1
51 353 1
51 393 1
51 440 1
51 455 1
51 495 1
52 103 1
52 135 1
52 165 1
52 307 1
52 339 1
52 369 1
52 511 1
52 543 1
52 573 1
53 104 1
53 136 1
53 166 1
53 308 1
53 340 1
53 370 1
53 512 1
53 544 1
53 574 1
54 105 1
54 120 1
54 167 1
54 309 1
54 324 1
54 371 1
54 513 1
54 528 1
54 575 1
55 106 1
55 121 1
55 168 1
55 310 1
55 325 1
55 372 1
55 514 1
55 529 1
55 576 1
56 107 1
56 122 1
56 169 1
56 311 1
56 326 1
56 373 1
56 515 1
56 530 1
56 577 1
57 108 1
57 123 1
57 170 1
57 312 1
57 327 1
57 374 1
57 516 1
57 531 1
57 578 1
58 109 1
58 124 1
58 154 1
58 313 1
58 328 1
58 358 1
58 517 1
58 532 1
58 562 1
59 110 1
59 125 1
59 155 1
59 314 1
59 329 1
59 359 1
59 518 1
59 533 1
59 563 1
60 111 1
60 126 1
60 156 1
60 315 1
60 330 1
60 360 1
60 519 1
60 534 1
60 564 1
61 112 1
61 127 1
61 157 1
61 316 1
61 331 1
61 361 1
61 520 1
61 535 1
61 565 1
62 113 1
62 128 1
62 158 1
62 317 1
62 332 1
62 362 1
62 521 1
62 536 1
62 566 1
63 114 1
63 129 1
63 159 1
63 318 1
63 333 1
63 363 1
63 522 1
63 537 1
63 567 1
64 115 1
64 130 1
64 160 1
64 319 1
64 334 1
64 364 1
64 523 1
64 538 1
64 568 1
65 116 1
65 131 1
65 161 1
65 320 1
65 335 1
65 365 1
65 524 1
65 539 1
65 569 1
66 117 1
66 132 1
66 162 1
66 321 1
66 336 1
66 366 1
66 525 1
66 540 1
66 570 1
67 118 1
67 133 1
67 163 1
67 322 1
67 337 1
67 367 1
67 526 1
67 541 1
67 571 1
68 119 1
68 134 1
68 164 1
68 323 1
68 338 1
68 368 1
68 527 1
68 542 1
68 572 1
69 103 1
69 150 1
69 175 1
69 307 1
69 354 1
69 379 1
69 511 1
69 558 1
69 583 1
70 104 1
70 151 1
70 176 1
70 308 1
70 355 1
70 380 1
70 512 1
70 559 1
70 584 1
71 105 1
71 152 1
71 177 1
71 309 1
71 356 1
71 381 1
71 513 1
71 560 1
71 585 1
72 106 1
72 153 1
72 178 1
72 310 1
72 357 1
72 382 1
72 514 1
72 561 1
72 586 1
73 107 1
73 137 1
73 179 1
73 311 1
73 341 1
73 383 1
73 515 1
73 545 1
73 587 1
74 108 1
74 138 1
74 180 1
74 312 1
74 342 1
74 384 1
74 516 1
74 546 1
74 588 1
75 109 1
75 139 1
75 181 1
75 313 1
75 343 1
75 385 1
75 517 1
75 547 1
75 589 1
76 110 1
76 140 1
76 182 1
76 314 1
76 344 1
76 386 1
76 518 1
76 548 1
76 590 1
77 111 1
77 141 1
77 183 1
77 315 1
77 345 1
77 387 1
77 519 1
77 549 1
77 591 1
78 112 1
78 142 1
78 184 1
78 316 1
78 346 1
78 388 1
78 520 1
78 550 1
78 592 1
79 113 1
79 143 1
79 185 1
79 317 1
79 347 1
79 389 1
79 521 1
79 551 1
79 593 1
80 114 1
80 144 1
80 186 1
80 318 1
80 348 1
80 390 1
80 522 1
80 552 1
80 594 1
81 115 1
81 145 1
81 187 1
81 319 1
81 349 1
81 391 1
81 523 1
81 553 1
81 595 1
82 116 1
82 146 1
82 171 1
82 320 1
82 350 1
82 375 1
82 524 1
82 554 1
82 579 1
83 117 1
83 147 1
83 172 1
83 321 1
83 351 1
83 376 1
83 525 1
83 555 1
83 580 1
84 118 1
84 148 1
84 173 1
84 322 1
84 352 1
84 377 1
84 526 1
84 556 1
84 581 1
85 119 1
85 149 1
85 174 1
85 323 1
85 353 1
85 378 1
85 527 1
85 557 1
85 582 1
86 135 1
86 150 1
86 190 1
86 339 1
86 354 1
86 394 1
86 543 1
86 558 1
86 598 1
87 136 1
87 151 1
87 191 1
87 340 1
87 355 1
87 395 1
87 544 1
87 559 1
87 599 1
88 120 1
88 152 1
88 192 1
88 324 1
88 356 1
88 396 1
88 528 1
88 560 1
88 600 1
89 121 1
89 153 1
89 193 1
89 325 1
89 357 1
89 397 1
89 529 1
89 561 1
89 601 1
90 122 1
90 137 1
90 194 1
90 326 1
90 341 1
90 398 1
90 530 1
90 545 1
90 602 1
91 123 1
91 138 1
91 195 1
91 327 1
91 342 1
91 399 1
91 531 1
91 546 1
91 603 1
92 124 1
92 139 1
92 196 1
92 328 1
92 343 1
92 400 1
92 532 1
92 547 1
92 604 1
93 125 1
93 140 1
93 197 1
93 329 1
93 344 1
93 401 1
93 533 1
93 548 1
93 605 1
94 126 1
94 141 1
94 198 1
94 330 1
94 345 1
94 402 1
94 534 1
94 549 1
94 606 1
95 127 1
95 142 1
95 199 1
95 331 1
95 346 1
95 403 1
95 535 1
95 550 1
95 607 1
96 128 1
96 143 1
96 200 1
96 332 1
96 347 1
96 404 1
96 536 1
96 551 1
96 608 1
97 129 1
97 144 1
97 201 1
97 333 1
97 348 1
97 405 1
97 537 1
97 552 1
97 609 1
98 130 1
98 145 1
98 202 1
98 334 1
98 349 1
98 406 1
98 538 1
98 553 1
98 610 1
99 131 1
99 146 1
99 203 1
99 335 1
99 350 1
99 407 1
99 539 1
99 554 1
99 611 1
100 132 1
100 147 1
100 204 1
100 336 1
100 351 1
100 408 1
100 540 1
100 555 1
100 612 1
101 133 1
101 148 1
101 188 1
101 337 1
101 352 1
101 392 1
101 541 1
101 556 1
101 596 1
102 134 1
102 149 1
102 189 1
102 338 1
102 353 1
102 393 1
102 542 1
102 557 1
102 597 1
103 205 1
103 237 1
103 267 1
103 409 1
103 441 1
103 471 1
103 511 1
103 543 1
103 573 1
104 206 1
104 238 1
104 268 1
104 410 1
104 442 1
104 472 1
104 512 1
104 544 1
104 574 1
105 207 1
105 222 1
105 269 1
105 411 1
105 426 1
105 473 1
105 513 1
105 528 1
105 575 1
106 208 1
106 223 1
106 270 1
106 412 1
106 427 1
106 474 1
106 514 1
106 529 1
106 576 1
107 209 1
107 224 1
107 271 1
107 413 1
107 428 1
107 475 1
107 515 1
107 530 1
107 577 1
108 210 1
108 225 1
108 272 1
108 414 1
108 429 1
108 476 1
108 516 1
108 531 1
108 578 1
109 211 1
109 226 1
109 256 1
109 415 1
109 430 1
109 460 1
109 517 1
109 532 1
109 562 1
110 212 1
110 227 1
110 257 1
110 416 1
110 431 1
110 461 1
110 518 1
110 533 1
110 563 1
111 213 1
111 228 1
111 258 1
111 417 1
111 432 1
111 462 1
111 519 1
111 534 1
111 564 1
112 214 1
112 229 1
112 259 1
112 418 1
112 433 1
112 463 1
112 520 1
112 535 1
112 565 1
113 215 1
113 230 1
113 260 1
113 419 1
113 434 1
113 464 1
113 521 1
113 536 1
113 566 1
114 216 1
114 231 1
114 261 1
114 420 1
114 435 1
114 465 1
114 522 1
114 537 1
114 567 1
115 217 1
115 232 1
115 262 1
115 421 1
115 436 1
115 466 1
115 523 1
115 538 1
115 568 1
116 218 1
116 233 1
116 263 1
116 422 1
116 437 1
116 467 1
116 524 1
116 539 1
116 569 1
117 219 1
117 234 1
117 264 1
117 423 1
117 438 1
117 468 1
117 525 1
117 540 1
117 570 1
118 220 1
118 235 1
118 265 1
118 424 1
118 439 1
118 469 1
118 526 1
118 541 1
118 571 1
119 221 1
119 236 1
119 266 1
119 425 1
119 440 1
119 470 1
119 527 1
119 542 1
119 572 1
120 205 1
120 252 1
120 277 1
120 409 1
120 456 1
120 481 1
120 511 1
120 558 1
120 583 1
121 206 1
121 253 1
121 278 1
121 410 1
121 457 1
121 482 1
121 512 1
121 559 1
121 584 1
122 207 1
122 254 1
122 279 1
122 411 1
122 458 1
122 483 1
122 513 1
122 560 1
122 585 1
123 208 1
123 255 1
123 280 1
123 412 1
123 459 1
123 484 1
123 514 1
123 561 1
123 586 1
124 209 1
124 239 1
124 281 1
124 413 1
124 443 1
124 485 1
124 515 1
124 545 1
124 587 1
125 210 1
125 240 1
125 282 1
125 414 1
125 444 1
125 486 1
125 516 1
125 546 1
125 588 1
126 211 1
126 241 1
126 283 1
126 415 1
126 445 1
126 487 1
126 517 1
126 547 1
126 589 1
127 212 1
127 242 1
127 284 1
127 416 1
127 446 1
127 488 1
127 518 1
127 548 1
127 590 1
128 213 1
128 243 1
128 285 1
128 417 1
128 447 1
128 489 1
128 519 1
128 549 1
128 591 1
129 214 1
129 244 1
129 286 1
129 418 1
129 448 1
129 490 1
129 520 1
129 550 1
129 592 1
130 215 1
130 245 1
130 287 1
130 419 1
130 449 1
130 491 1
130 521 1
130 551 1
130 593 1
131 216 1
131 246 1
131 288 1
131 420 1
131 450 1
131 492 1
131 522 1
131 552 1
131 594 1
132 217 1
132 247 1
132 289 1
132 421 1
132 451 1
132 493 1
132 523 1
132 553 1
132 595 1
133 218 1
133 248 1
133 273 1
133 422 1
133 452 1
133 477 1
133 524 1
133 554 1
133 579 1
134 219 1
134 249 1
134 274 1
134 423 1
134 453 1
134 478 1
134 525 1
134 555 1
134 580 1
135 220 1
135 250 1
135 275 1
135 424 1
135 454 1
135 479 1
135 526 1
135 556 1
135 581 1
136 221 1
136 251 1
136 276 1
136 425 1
136 455 1
136 480 1
136 527 1
136 557 1
136 582 1
137 237 1
137 252 1
137 292 1
137 441 1
137 456 1
137 496 1
137 543 1
137 558 1
137 598 1
138 238 1
138 253 1
138 293 1
138 442 1
138 457 1
138 497 1
138 544 1
138 559 1
138 599 1
139 222 1
139 254 1
139 294 1
139 426 1
139 458 1
139 498 1
139 528 1
139 560 1
139 600 1
140 223 1
140 255 1
140 295 1
140 427 1
140 459 1
140 499 1
140 529 1
140 561 1
140 601 1
141 224 1
141 239 1
141 296 1
141 428 1
141 443 1
141 500 1
141 530 1
141 545 1
141 602 1
142 225 1
142 240 1
142 297 1
142 429 1
142 444 1
142 501 1
142 531 1
142 546 1
142 603 1
143 226 1
143 241 1
143 298 1
143 430 1
143 445 1
143 502 1
143 532 1
143 547 1
143 604 1
144 227 1
144 242 1
144 299 1
144 431 1
144 446 1
144 503 1
144 533 1
144 548 1
144 605 1
145 228 1
145 243 1
145 300 1
145 432 1
145 447 1
145 504 1
145 534 1
145 549 1
145 606 1
146 229 1
146 244 1
146 301 1
146 433 1
146 448 1
146 505 1
146 535 1
146 550 1
146 607 1
147 230 1
147 245 1
147 302 1
147 434 1
147 449 1
147 506 1
147 536 1
147 551 1
147 608 1
148 231 1
148 246 1
148 303 1
148 435 1
148 450 1
148 507 1
148 537 1
148 552 1
148 609 1
149 232 1
149 247 1
149 304 1
149 436 1
149 451 1
149 508 1
149 538 1
149 553 1
149 610 1
150 233 1
150 248 1
150 305 1
150 437 1
150 452 1
150 509 1
150 539 1
150 554 1
150 611 1
151 234 1
151 249 1
151 306 1
151 438 1
151 453 1
151 510 1
151 540 1
151 555 1
151 612 1
152 235 1
152 250 1
152 290 1
152 439 1
152 454 1
152 494 1
152 541 1
152 556 1
152 596 1
153 236 1
153 251 1
153 291 1
153 440 1
153 455 1
153 495 1
153 542 1
153 557 1
153 597 1
154 1 1
154 18 1
154 52 1
154 205 1
154 222 1
154 256 1
154 410 1
154 427 1
154 461 1
155 2 1
155 19 1
155 53 1
155 206 1
155 223 1
155 257 1
155 411 1
155 428 1
155 462 1
156 3 1
156 20 1
156 54 1
156 207 1
156 224 1
156 258 1
156 412 1
156 429 1
156 463 1
157 4 1
157 21 1
157 55 1
157 208 1
157 225 1
157 259 1
157 413 1
157 430 1
157 464 1
158 5 1
158 22 1
158 56 1
158 209 1
158 226 1
158 260 1
158 414 1
158 431 1
158 465 1
159 6 1
159 23 1
159 57 1
159 210 1
159 227 1
159 261 1
159 415 1
159 432 1
159 466 1
160 7 1
160 24 1
160 58 1
160 211 1
160 228 1
160 262 1
160 416 1
160 433 1
160 467 1
161 8 1
161 25 1
161 59 1
161 212 1
161 229 1
161 263 1
161 417 1
161 434 1
161 468 1
162 9 1
162 26 1
162 60 1
162 213 1
162 230 1
162 264 1
162 418 1
162 435 1
162 469 1
163 10 1
163 27 1
163 61 1
163 214 1
163 231 1
163 265 1
163 419 1
163 436 1
163 470 1
164 11 1
164 28 1
164 62 1
164 215 1
164 232 1
164 266 1
164 420 1
164 437 1
164 471 1
165 12 1
165 29 1
165 63 1
165 216 1
165 233 1
165 267 1
165 421 1
165 438 1
165 472 1
166 13 1
166 30 1
166 64 1
166 217 1
166 234 1
166 268 1
166 422 1
166 439 1
166 473 1
167 14 1
167 31 1
167 65 1
167 218 1
167 235 1
167 269 1
167 423 1
167 440 1
167 474 1
168 15 1
168 32 1
168 66 1
168 219 1
168 236 1
168 270 1
168 424 1
168 441 1
168 475 1
169 16 1
169 33 1
169 67 1
169 220 1
169 237 1
169 271 1
169 425 1
169 442 1
169 476 1
170 17 1
170 34 1
170 68 1
170 221 1
170 238 1
170 272 1
170 409 1
170 426 1
170 460 1
171 1 1
171 35 1
171 69 1
171 205 1
171 239 1
171 273 1
171 410 1
171 444 1
171 478 1
172 2 1
172 36 1
172 70 1
172 206 1
172 240 1
172 274 1
172 411 1
172 445 1
172 479 1
173 3 1
173 37 1
173 71 1
173 207 1
173 241 1
173 275 1
173 412 1
173 446 1
173 480 1
174 4 1
174 38 1
174 72 1
174 208 1
174 242 1
174 276 1
174 413 1
174 447 1
174 481 1
175 5 1
175 39 1
175 73 1
175 209 1
175 243 1
175 277 1
175 414 1
175 448 1
175 482 1
176 6 1
176 40 1
176 74 1
176 210 1
176 244 1
176 278 1
176 415 1
176 449 1
176 483 1
177 7 1
177 41 1
177 75 1
177 211 1
177 245 1
177 279 1
177 416 1
177 450 1
177 484 1
178 8 1
178 42 1
178 76 1
178 212 1
178 246 1
178 280 1
178 417 1
178 451 1
178 485 1
179 9 1
179 43 1
179 77 1
179 213 1
179 247 1
179 281 1
179 418 1
179 452 1
179 486 1
180 10 1
180 44 1
180 78 1
180 214 1
180 248 1
180 282 1
180 419 1
180 453 1
180 487 1
181 11 1
181 45 1
181 79 1
181 215 1
181 249 1
181 283 1
181 420 1
181 454 1
181 488 1
182 12 1
182 46 1
182 80 1
182 216 1
182 250 1
182 284 1
182 421 1
182 455 1
182 489 1
183 13 1
183 47 1
183 81 1
183 217 1
183 251 1
183 285 1
183 422 1
183 456 1
183 490 1
184 14 1
184 48 1
184 82 1
184 218 1
184 252 1
184 286 1
184 423 1
184 457 1
184 491 1
185 15 1
185 49 1
185 83 1
185 219 1
185 253 1
185 287 1
185 424 1
185 458 1
185 492 1
186 16 1
186 50 1
186 84 1
186 220 1
186 254 1
186 288 1
186 425 1
186 459 1
186 493 1
187 17 1
187 51 1
187 85 1
187 221 1
187 255 1
187 289 1
187 409 1
187 443 1
187 477 1
188 18 1
188 35 1
188 86 1
188 222 1
188 239 1
188 290 1
188 427 1
188 444 1
188 495 1
189 19 1
189 36 1
189 87 1
189 223 1
189 240 1
189 291 1
189 428 1
189 445 1
189 496 1
190 20 1
190 37 1
190 88 1
190 224 1
190 241 1
190 292 1
190 429 1
190 446 1
190 497 1
191 21 1
191 38 1
191 89 1
191 225 1
191 242 1
191 293 1
191 430 1
191 447 1
191 498 1
192 22 1
192 39 1
192 90 1
192 226 1
192 243 1
192 294 1
192 431 1
192 448 1
192 499 1
193 23 1
193 40 1
193 91 1
193 227 1
193 244 1
193 295 1
193 432 1
193 449 1
193 500 1
194 24 1
194 41 1
194 92 1
194 228 1
194 245 1
194 296 1
194 433 1
194 450 1
194 501 1
195 25 1
195 42 1
195 93 1
195 229 1
195 246 1
195 297 1
195 434 1
195 451 1
195 502 1
196 26 1
196 43 1
196 94 1
196 230 1
196 247 1
196 298 1
196 435 1
196 452 1
196 503 1
197 27 1
197 44 1
197 95 1
197 231 1
197 248 1
197 299 1
197 436 1
197 453 1
197 504 1
198 28 1
198 45 1
198 96 1
198 232 1
198 249 1
198 300 1
198 437 1
198 454 1
198 505 1
199 29 1
199 46 1
199 97 1
199 233 1
199 250 1
199 301 1
199 438 1
199 455 1
199 506 1
200 30 1
200 47 1
200 98 1
200 234 1
200 251 1
200 302 1
200 439 1
200 456 1
200 507 1
201 31 1
201 48 1
201 99 1
201 235 1
201 252 1
201 303 1
201 440 1
201 457 1
201 508 1
202 32 1
202 49 1
202 100 1
202 236 1
202 253 1
202 304 1
202 441 1
202 458 1
202 509 1
203 33 1
203 50 1
203 101 1
203 237 1
203 254 1
203 305 1
203 442 1
203 459 1
203 510 1
204 34 1
204 51 1
204 102 1
204 238 1
204 255 1
204 306 1
204 426 1
204 443 1
204 494 1
205 103 1
205 120 1
205 154 1
205 205 1
205 222 1
205 256 1
205 512 1
205 529 1
205 563 1
206 104 1
206 121 1
206 155 1
206 206 1
206 223 1
206 257 1
206 513 1
206 530 1
206 564 1
207 105 1
207 122 1
207 156 1
207 207 1
207 224 1
207 258 1
207 514 1
207 531 1
207 565 1
208 106 1
208 123 1
208 157 1
208 208 1
208 225 1
208 259 1
208 515 1
208 532 1
208 566 1
209 107 1
209 124 1
209 158 1
209 209 1
209 226 1
209 260 1
209 516 1
209 533 1
209 567 1
210 108 1
210 125 1
210 159 1
210 210 1
210 227 1
210 261 1
210 517 1
210 534 1
210 568 1
211 109 1
211 126 1
211 160 1
211 211 1
211 228 1
211 262 1
211 518 1
211 535 1
211 569 1
212 110 1
212 127 1
212 161 1
212 212 1
212 229 1
212 263 1
212 519 1
212 536 1
212 570 1
213 111 1
213 128 1
213 162 1
213 213 1
213 230 1
213 264 1
213 520 1
213 537 1
213 571 1
214 112 1
214 129 1
214 163 1
214 214 1
214 231 1
214 265 1
214 521 1
214 538 1
214 572 1
215 113 1
215 130 1
215 164 1
215 215 1
215 232 1
215 266 1
215 522 1
215 539 1
215 573 1
216 114 1
216 131 1
216 165 1
216 216 1
216 233 1
216 267 1
216 523 1
216 540 1
216 574 1
217 115 1
217 132 1
217 166 1
217 217 1
217 234 1
217 268 1
217 524 1
217 541 1
217 575 1
218 116 1
218 133 1
218 167 1
218 218 1
218 235 1
218 269 1
218 525 1
218 542 1
218 576 1
219 117 1
219 134 1
219 168 1
219 219 1
219 236 1
219 270 1
219 526 1
219 543 1
219 577 1
220 118 1
220 135 1
220 169 1
220 220 1
220 237 1
220 271 1
220 527 1
220 544 1
220 578 1
221 119 1
221 136 1
221 170 1
221 221 1
221 238 1
221 272 1
221 511 1
221 528 1
221 562 1
222 103 1
222 137 1
222 171 1
222 205 1
222 239 1
222 273 1
222 512 1
222 546 1
222 580 1
223 104 1
223 138 1
223 172 1
223 206 1
223 240 1
223 274 1
223 513 1
223 547 1
223 581 1
224 105 1
224 139 1
224 173 1
224 207 1
224 241 1
224 275 1
224 514 1
224 548 1
224 582 1
225 106 1
225 140 1
225 174 1
225 208 1
225 242 1
225 276 1
225 515 1
225 549 1
225 583 1
226 107 1
226 141 1
226 175 1
226 209 1
226 243 1
226 277 1
226 516 1
226 550 1
226 584 1
227 108 1
227 142 1
227 176 1
227 210 1
227 244 1
227 278 1
227 517 1
227 551 1
227 585 1
228 109 1
228 143 1
228 177 1
228 211 1
228 245 1
228 279 1
228 518 1
228 552 1
228 586 1
229 110 1
229 144 1
229 178 1
229 212 1
229 246 1
229 280 1
229 519 1
229 553 1
229 587 1
230 111 1
230 145 1
230 179 1
230 213 1
230 247 1
230 281 1
230 520 1
230 554 1
230 588 1
231 112 1
231 146 1
231 180 1
231 214 1
231 248 1
231 282 1
231 521 1
231 555 1
231 589 1
232 113 1
232 147 1
232 181 1
232 215 1
232 249 1
232 283 1
232 522 1
232 556 1
232 590 1
233 114 1
233 148 1
233 182 1
233 216 1
233 250 1
233 284 1
233 523 1
233 557 1
233 591 1
234 115 1
234 149 1
234 183 1
234 217 1
234 251 1
234 285 1
234 524 1
234 558 1
234 592 1
235 116 1
235 150 1
235 184 1
235 218 1
235 252 1
235 286 1
235 525 1
235 559 1
235 593 1
236 117 1
236 151 1
236 185 1
236 219 1
236 253 1
236 287 1
236 526 1
236 560 1
236 594 1
237 118 1
237 152 1
237 186 1
237 220 1
237 254 1
237 288 1
237 527 1
237 561 1
237 595 1
238 119 1
238 153 1
238 187 1
238 221 1
238 255 1
238 289 1
238 511 1
238 545 1
238 579 1
239 120 1
239 137 1
239 188 1
239 222 1
239 239 1
239 290 1
239 529 1
239 546 1
239 597 1
240 121 1
240 138 1
240 189 1
240 223 1
240 240 1
240 291 1
240 530 1
240 547 1
240 598 1
241 122 1
241 139 1
241 190 1
241 224 1
241 241 1
241 292 1
241 531 1
241 548 1
241 599 1
242 123 1
242 140 1
242 191 1
242 225 1
242 242 1
242 293 1
242 532 1
242 549 1
242 600 1
243 124 1
243 141 1
243 192 1
243 226 1
243 243 1
243 294 1
243 533 1
243 550 1
243 601 1
244 125 1
244 142 1
244 193 1
244 227 1
244 244 1
244 295 1
244 534 1
244 551 1
244 602 1
245 126 1
245 143 1
245 194 1
245 228 1
245 245 1
245 296 1
245 535 1
245 552 1
245 603 1
246 127 1
246 144 1
246 195 1
246 229 1
246 246 1
246 297 1
246 536 1
246 553 1
246 604 1
247 128 1
247 145 1
247 196 1
247 230 1
247 247 1
247 298 1
247 537 1
247 554 1
247 605 1
248 129 1
248 146 1
248 197 1
248 231 1
248 248 1
248 299 1
248 538 1
248 555 1
248 606 1
249 130 1
249 147 1
249 198 1
249 232 1
249 249 1
249 300 1
249 539 1
249 556 1
249 607 1
250 131 1
250 148 1
250 199 1
250 233 1
250 250 1
250 301 1
250 540 1
250 557 1
250 608 1
251 132 1
251 149 1
251 200 1
251 234 1
251 251 1
251 302 1
251 541 1
251 558 1
251 609 1
252 133 1
252 150 1
252 201 1
252 235 1
252 252 1
252 303 1
252 542 1
252 559 1
252 610 1
253 134 1
253 151 1
253 202 1
253 236 1
253 253 1
253 304 1
253 543 1
253 560 1
253 611 1
254 135 1
254 152 1
254 203 1
254 237 1
254 254 1
254 305 1
254 544 1
254 561 1
254 612 1
255 136 1
255 153 1
255 204 1
255 238 1
255 255 1
255 306 1
255 528 1
255 545 1
255 596 1
256 307 1
256 324 1
256 358 1
256 410 1
256 427 1
256 461 1
256 512 1
256 529 1
256 563 1
257 308 1
257 325 1
257 359 1
257 411 1
257 428 1
257 462 1
257 513 1
257 530 1
257 564 1
258 309 1
258 326 1
258 360 1
258 412 1
258 429 1
258 463 1
258 514 1
258 531 1
258 565 1
259 310 1
259 327 1
259 361 1
259 413 1
259 430 1
259 464 1
259 515 1
259 532 1
259 566 1
260 311 1
260 328 1
260 362 1
260 414 1
260 431 1
260 465 1
260 516 1
260 533 1
260 567 1
261 312 1
261 329 1
261 363 1
261 415 1
261 432 1
261 466 1
261 517 1
261 534 1
261 568 1
262 313 1
262 330 1
262 364 1
262 416 1
262 433 1
262 467 1
262 518 1
262 535 1
262 569 1
263 314 1
263 331 1
263 365 1
263 417 1
263 434 1
263 468 1
263 519 1
263 536 1
263 570 1
264 315 1
264 332 1
264 366 1
264 418 1
264 435 1
264 469 1
264 520 1
264 537 1
264 571 1
265 316 1
265 333 1
265 367 1
265 419 1
265 436 1
265 470 1
265 521 1
265 538 1
265 572 1
266 317 1
266 334 1
266 368 1
266 420 1
266 437 1
266 471 1
266 522 1
266 539 1
266 573 1
267 318 1
267 335 1
267 369 1
267 421 1
267 438 1
267 472 1
267 523 1
267 540 1
267 574 1
268 319 1
268 336 1
268 370 1
268 422 1
268 439 1
268 473 1
268 524 1
268 541 1
268 575 1
269 320 1
269 337 1
269 371 1
269 423 1
269 440 1
269 474 1
269 525 1
269 542 1
269 576 1
270 321 1
270 338 1
270 372 1
270 424 1
270 441 1
270 475 1
270 526 1
270 543 1
270 577 1
271 322 1
271 339 1
271 373 1
271 425 1
271 442 1
271 476 1
271 527 1
271 544 1
271 578 1
272 323 1
272 340 1
272 374 1
272 409 1
272 426 1
272 460 1
272 511 1
272 528 1
272 562 1
273 307 1
273 341 1
273 375 1
273 410 1
273 444 1
273 478 1
273 512 1
273 546 1
273 580 1
274 308 1
274 342 1
274 376 1
274 411 1
274 445 1
274 479 1
274 513 1
274 547 1
274 581 1
275 309 1
275 343 1
275 377 1
275 412 1
275 446 1
275 480 1
275 514 1
275 548 1
275 582 1
276 310 1
276 344 1
276 378 1
276 413 1
276 447 1
276 481 1
276 515 1
276 549 1
276 583 1
277 311 1
277 345 1
277 379 1
277 414 1
277 448 1
277 482 1
277 516 1
277 550 1
277 584 1
278 312 1
278 346 1
278 380 1
278 415 1
278 449 1
278 483 1
278 517 1
278 551 1
278 585 1
279 313 1
279 347 1
279 381 1
279 416 1
279 450 1
279 484 1
279 518 1
279 552 1
279 586 1
280 314 1
280 348 1
280 382 1
280 417 1
280 451 1
280 485 1
280 519 1
280 553 1
280 587 1
281 315 1
281 349 1
281 383 1
281 418 1
281 452 1
281 486 1
281 520 1
281 554 1
281 588 1
282 316 1
282 350 1
282 384 1
282 419 1
282 453 1
282 487 1
282 521 1
282 555 1
282 589 1
283 317 1
283 351 1
283 385 1
283 420 1
283 454 1
283 488 1
283 522 1
283 556 1
283 590 1
284 318 1
284 352 1
284 386 1
284 421 1
284 455 1
284 489 1
284 523 1
284 557 1
284 591 1
285 319 1
285 353 1
285 387 1
285 422 1
285 456 1
285 490 1
285 524 1
285 558 1
285 592 1
286 320 1
286 354 1
286 388 1
286 423 1
286 457 1
286 491 1
286 525 1
286 559 1
286 593 1
287 321 1
287 355 1
287 389 1
287 424 1
287 458 1
287 492 1
287 526 1
287 560 1
287 594 1
288 322 1
288 356 1
288 390 1
288 425 1
288 459 1
288 493 1
288 527 1
288 561 1
288 595 1
289 323 1
289 357 1
289 391 1
289 409 1
289 443 1
289 477 1
289 511 1
289 545 1
289 579 1
290 324 1
290 341 1
290 392 1
290 427 1
290 444 1
290 495 1
290 529 1
290 546 1
290 597 1
291 325 1
291 342 1
291 393 1
291 428 1
291 445 1
291 496 1
291 530 1
291 547 1
291 598 1
292 326 1
292 343 1
292 394 1
292 429 1
292 446 1
292 497 1
292 531 1
292 548 1
292 599 1
293 327 1
293 344 1
293 395 1
293 430 1
293 447 1
293 498 1
293 532 1
293 549 1
293 600 1
294 328 1
294 345 1
294 396 1
294 431 1
294 448 1
294 499 1
294 533 1
294 550 1
294 601 1
295 329 1
295 346 1
295 397 1
295 432 1
295 449 1
295 500 1
295 534 1
295 551 1
295 602 1
296 330 1
296 347 1
296 398 1
296 433 1
296 450 1
296 501 1
296 535 1
296 552 1
296 603 1
297 331 1
297 348 1
297 399 1
297 434 1
297 451 1
297 502 1
297 536 1
297 553 1
297 604 1
298 332 1
298 349 1
298 400 1
298 435 1
298 452 1
298 503 1
298 537 1
298 554 1
298 605 1
299 333 1
299 350 1
299 401 1
299 436 1
299 453 1
299 504 1
299 538 1
299 555 1
299 606 1
300 334 1
300 351 1
300 402 1
300 437 1
300 454 1
300 505 1
300 539 1
300 556 1
300 607 1
301 335 1
301 352 1
301 403 1
301 438 1
301 455 1
301 506 1
301 540 1
301 557 1
301 608 1
302 336 1
302 353 1
302 404 1
302 439 1
302 456 1
302 507 1
302 541 1
302 558 1
302 609 1
303 337 1
303 354 1
303 405 1
303 440 1
303 457 1
303 508 1
303 542 1
303 559 1
303 610 1
304 338 1
304 355 1
304 406 1
304 441 1
304 458 1
304 509 1
304 543 1
304 560 1
304 611 1
305 339 1
305 356 1
305 407 1
305 442 1
305 459 1
305 510 1
305 544 1
305 561 1
305 612 1
306 340 1
306 357 1
306 408 1
306 426 1
306 443 1
306 494 1
306 528 1
306 545 1
306 596 1
