%%MatrixMarket matrix coordinate integer general
288 576 2592
1 1 1
1 32 1
1 42 1
1 289 1
1 320 1
1 330 1
1 385 1
1 416 1
1 426 1
2 2 1
2 17 1
2 45 1
2 290 1
2 305 1
2 333 1
2 386 1
2 401 1
2 429 1
3 3 1
3 18 1
3 43 1
3 291 1
3 306 1
3 331 1
3 387 1
3 402 1
3 427 1
4 4 1
4 22 1
4 47 1
4 292 1
4 310 1
4 335 1
4 388 1
4 406 1
4 431 1
5 5 1
5 28 1
5 35 1
5 293 1
5 316 1
5 323 1
5 389 1
5 412 1
5 419 1
6 6 1
6 19 1
6 46 1
6 294 1
6 307 1
6 334 1
6 390 1
6 403 1
6 430 1
7 7 1
7 20 1
7 48 1
7 295 1
7 308 1
7 336 1
7 391 1
7 404 1
7 432 1
8 8 1
8 21 1
8 38 1
8 296 1
8 309 1
8 326 1
8 392 1
8 405 1
8 422 1
9 9 1
9 23 1
9 33 1
9 297 1
9 311 1
9 321 1
9 393 1
9 407 1
9 417 1
10 10 1
10 24 1
10 36 1
10 298 1
10 312 1
10 324 1
10 394 1
10 408 1
10 420 1
11 11 1
11 29 1
11 41 1
11 299 1
11 317 1
11 329 1
11 395 1
11 413 1
11 425 1
12 12 1
12 25 1
12 34 1
12 300 1
12 313 1
12 322 1
12 396 1
12 409 1
12 418 1
13 13 1
13 26 1
13 39 1
13 301 1
13 314 1
13 327 1
13 397 1
13 410 1
13 423 1
14 14 1
14 27 1
14 44 1
14 302 1
14 315 1
14 332 1
14 398 1
14 411 1
14 428 1
15 15 1
15 30 1
15 37 1
15 303 1
15 318 1
15 325 1
15 399 1
15 414 1
15 421 1
16 16 1
16 31 1
16 40 1
16 304 1
16 319 1
16 328 1
16 400 1
16 415 1
16 424 1
17 1 1
17 71 1
17 83 1
17 289 1
17 359 1
17 371 1
17 385 1
17 455 1
17 467 1
18 2 1
18 73 1
18 86 1
18 290 1
18 361 1
18 374 1
18 386 1
18 457 1
18 470 1
19 3 1
19 76 1
19 84 1
19 291 1
19 364 1
19 372 1
19 387 1
19 460 1
19 468 1
20 4 1
20 72 1
20 89 1
20 292 1
20 360 1
20 377 1
20 388 1
20 456 1
20 473 1
21 5 1
21 78 1
21 90 1
21 293 1
21 366 1
21 378 1
21 389 1
21 462 1
21 474 1
22 6 1
22 69 1
22 87 1
22 294 1
22 357 1
22 375 1
22 390 1
22 453 1
22 471 1
23 7 1
23 74 1
23 92 1
23 295 1
23 362 1
23 380 1
23 391 1
23 458 1
23 476 1
24 8 1
24 79 1
24 93 1
24 296 1
24 367 1
24 381 1
24 392 1
24 463 1
24 477 1
25 9 1
25 77 1
25 85 1
25 297 1
25 365 1
25 373 1
25 393 1
25 461 1
25 469 1
26 10 1
26 80 1
26 91 1
26 298 1
26 368 1
26 379 1
26 394 1
26 464 1
26 475 1
27 11 1
27 66 1
27 95 1
27 299 1
27 354 1
27 383 1
27 395 1
27 450 1
27 479 1
28 12 1
28 75 1
28 88 1
28 300 1
28 363 1
28 376 1
28 396 1
28 459 1
28 472 1
29 13 1
29 65 1
29 94 1
29 301 1
29 353 1
29 382 1
29 397 1
29 449 1
29 478 1
30 14 1
30 67 1
30 96 1
30 302 1
30 355 1
30 384 1
30 398 1
30 451 1
30 480 1
31 15 1
31 70 1
31 81 1
31 303 1
31 358 1
31 369 1
31 399 1
31 454 1
31 465 1
32 16 1
32 68 1
32 82 1
32 304 1
32 356 1
32 370 1
32 400 1
32 452 1
32 466 1
33 32 1
33 52 1
33 83 1
33 320 1
33 340 1
33 371 1
33 416 1
33 436 1
33 467 1
34 17 1
34 55 1
34 86 1
34 305 1
34 343 1
34 374 1
34 401 1
34 439 1
34 470 1
35 18 1
35 57 1
35 84 1
35 306 1
35 345 1
35 372 1
35 402 1
35 441 1
35 468 1
36 22 1
36 53 1
36 89 1
36 310 1
36 341 1
36 377 1
36 406 1
36 437 1
36 473 1
37 28 1
37 59 1
37 90 1
37 316 1
37 347 1
37 378 1
37 412 1
37 443 1
37 474 1
38 19 1
38 60 1
38 87 1
38 307 1
38 348 1
38 375 1
38 403 1
38 444 1
38 471 1
39 20 1
39 56 1
39 92 1
39 308 1
39 344 1
39 380 1
39 404 1
39 440 1
39 476 1
40 21 1
40 62 1
40 93 1
40 309 1
40 350 1
40 381 1
40 405 1
40 446 1
40 477 1
41 23 1
41 58 1
41 85 1
41 311 1
41 346 1
41 373 1
41 407 1
41 442 1
41 469 1
42 24 1
42 63 1
42 91 1
42 312 1
42 351 1
42 379 1
42 408 1
42 447 1
42 475 1
43 29 1
43 49 1
43 95 1
43 317 1
43 337 1
43 383 1
43 413 1
43 433 1
43 479 1
44 25 1
44 61 1
44 88 1
44 313 1
44 349 1
44 376 1
44 409 1
44 445 1
44 472 1
45 26 1
45 64 1
45 94 1
45 314 1
45 352 1
45 382 1
45 410 1
45 448 1
45 478 1
46 27 1
46 50 1
46 96 1
46 315 1
46 338 1
46 384 1
46 411 1
46 434 1
46 480 1
47 30 1
47 51 1
47 81 1
47 318 1
47 339 1
47 369 1
47 414 1
47 435 1
47 465 1
48 31 1
48 54 1
48 82 1
48 319 1
48 342 1
48 370 1
48 415 1
48 438 1
48 466 1
49 97 1
49 128 1
49 138 1
49 289 1
49 320 1
49 330 1
49 481 1
49 512 1
49 522 1
50 98 1
50 113 1
50 141 1
50 290 1
50 305 1
50 333 1
50 482 1
50 497 1
50 525 1
51 99 1
51 114 1
51 139 1
51 291 1
51 306 1
51 331 1
51 483 1
51 498 1
51 523 1
52 100 1
52 118 1
52 143 1
52 292 1
52 310 1
52 335 1
52 484 1
52 502 1
52 527 1
53 101 1
53 124 1
53 131 1
53 293 1
53 316 1
53 323 1
53 485 1
53 508 1
53 515 1
54 102 1
54 115 1
54 142 1
54 294 1
54 307 1
54 334 1
54 486 1
54 499 1
54 526 1
55 103 1
55 116 1
55 144 1
55 295 1
55 308 1
55 336 1
55 487 1
55 500 1
55 528 1
56 104 1
56 117 1
56 134 1
56 296 1
56 309 1
56 326 1
56 488 1
56 501 1
56 518 1
57 105 1
57 119 1
57 129 1
57 297 1
57 311 1
57 321 1
57 489 1
57 503 1
57 513 1
58 106 1
58 120 1
58 132 1
58 298 1
58 312 1
58 324 1
58 490 1
58 504 1
58 516 1
59 107 1
59 125 1
59 137 1
59 299 1
59 317 1
59 329 1
59 491 1
59 509 1
59 521 1
60 108 1
60 121 1
60 130 1
60 300 1
60 313 1
60 322 1
60 492 1
60 505 1
60 514 1
61 109 1
61 122 1
61 135 1
61 301 1
61 314 1
61 327 1
61 493 1
61 506 1
61 519 1
62 110 1
62 123 1
62 140 1
62 302 1
62 315 1
62 332 1
62 494 1
62 507 1
62 524 1
63 111 1
63 126 1
63 133 1
63 303 1
63 318 1
63 325 1
63 495 1
63 510 1
63 517 1
64 112 1
64 127 1
64 136 1
64 304 1
64 319 1
64 328 1
64 496 1
64 511 1
64 520 1
65 97 1
65 167 1
65 179 1
65 289 1
65 359 1
65 371 1
65 481 1
65 551 1
65 563 1
66 98 1
66 169 1
66 182 1
66 290 1
66 361 1
66 374 1
66 482 1
66 553 1
66 566 1
67 99 1
67 172 1
67 180 1
67 291 1
67 364 1
67 372 1
67 483 1
67 556 1
67 564 1
68 100 1
68 168 1
68 185 1
68 292 1
68 360 1
68 377 1
68 484 1
68 552 1
68 569 1
69 101 1
69 174 1
69 186 1
69 293 1
69 366 1
69 378 1
69 485 1
69 558 1
69 570 1
70 102 1
70 165 1
70 183 1
70 294 1
70 357 1
70 375 1
70 486 1
70 549 1
70 567 1
71 103 1
71 170 1
71 188 1
71 295 1
71 362 1
71 380 1
71 487 1
71 554 1
71 572 1
72 104 1
72 175 1
72 189 1
72 296 1
72 367 1
72 381 1
72 488 1
72 559 1
72 573 1
73 105 1
73 173 1
73 181 1
73 297 1
73 365 1
73 373 1
73 489 1
73 557 1
73 565 1
74 106 1
74 176 1
74 187 1
74 298 1
74 368 1
74 379 1
74 490 1
74 560 1
74 571 1
75 107 1
75 162 1
75 191 1
75 299 1
75 354 1
75 383 1
75 491 1
75 546 1
75 575 1
76 108 1
76 171 1
76 184 1
76 300 1
76 363 1
76 376 1
76 492 1
76 555 1
76 568 1
77 109 1
77 161 1
77 190 1
77 301 1
77 353 1
77 382 1
77 493 1
77 545 1
77 574 1
78 110 1
78 163 1
78 192 1
78 302 1
78 355 1
78 384 1
78 494 1
78 547 1
78 576 1
79 111 1
79 166 1
79 177 1
79 303 1
79 358 1
79 369 1
79 495 1
79 550 1
79 561 1
80 112 1
80 164 1
80 178 1
80 304 1
80 356 1
80 370 1
80 496 1
80 548 1
80 562 1
81 128 1
81 148 1
81 179 1
81 320 1
81 340 1
81 371 1
81 512 1
81 532 1
81 563 1
82 113 1
82 151 1
82 182 1
82 305 1
82 343 1
82 374 1
82 497 1
82 535 1
82 566 1
83 114 1
83 153 1
83 180 1
83 306 1
83 345 1
83 372 1
83 498 1
83 537 1
83 564 1
84 118 1
84 149 1
84 185 1
84 310 1
84 341 1
84 377 1
84 502 1
84 533 1
84 569 1
85 124 1
85 155 1
85 186 1
85 316 1
85 347 1
85 378 1
85 508 1
85 539 1
85 570 1
86 115 1
86 156 1
86 183 1
86 307 1
86 348 1
86 375 1
86 499 1
86 540 1
86 567 1
87 116 1
87 152 1
87 188 1
87 308 1
87 344 1
87 380 1
87 500 1
87 536 1
87 572 1
88 117 1
88 158 1
88 189 1
88 309 1
88 350 1
88 381 1
88 501 1
88 542 1
88 573 1
89 119 1
89 154 1
89 181 1
89 311 1
89 346 1
89 373 1
89 503 1
89 538 1
89 565 1
90 120 1
90 159 1
90 187 1
90 312 1
90 351 1
90 379 1
90 504 1
90 543 1
90 571 1
91 125 1
91 145 1
91 191 1
91 317 1
91 337 1
91 383 1
91 509 1
91 529 1
91 575 1
92 121 1
92 157 1
92 184 1
92 313 1
92 349 1
92 376 1
92 505 1
92 541 1
92 568 1
93 122 1
93 160 1
93 190 1
93 314 1
93 352 1
93 382 1
93 506 1
93 544 1
93 574 1
94 123 1
94 146 1
94 192 1
94 315 1
94 338 1
94 384 1
94 507 1
94 530 1
94 576 1
95 126 1
95 147 1
95 177 1
95 318 1
95 339 1
95 369 1
95 510 1
95 531 1
95 561 1
96 127 1
96 150 1
96 178 1
96 319 1
96 342 1
96 370 1
96 511 1
96 534 1
96 562 1
97 193 1
97 224 1
97 234 1
97 385 1
97 416 1
97 426 1
97 481 1
97 512 1
97 522 1
98 194 1
98 209 1
98 237 1
98 386 1
98 401 1
98 429 1
98 482 1
98 497 1
98 525 1
99 195 1
99 210 1
99 235 1
99 387 1
99 402 1
99 427 1
99 483 1
99 498 1
99 523 1
100 196 1
100 214 1
100 239 1
100 388 1
100 406 1
100 431 1
100 484 1
100 502 1
100 527 1
101 197 1
101 220 1
101 227 1
101 389 1
101 412 1
101 419 1
101 485 1
101 508 1
101 515 1
102 198 1
102 211 1
102 238 1
102 390 1
102 403 1
102 430 1
102 486 1
102 499 1
102 526 1
103 199 1
103 212 1
103 240 1
103 391 1
103 404 1
103 432 1
103 487 1
103 500 1
103 528 1
104 200 1
104 213 1
104 230 1
104 392 1
104 405 1
104 422 1
104 488 1
104 501 1
104 518 1
105 201 1
105 215 1
105 225 1
105 393 1
105 407 1
105 417 1
105 489 1
105 503 1
105 513 1
106 202 1
106 216 1
106 228 1
106 394 1
106 408 1
106 420 1
106 490 1
106 504 1
106 516 1
107 203 1
107 221 1
107 233 1
107 395 1
107 413 1
107 425 1
107 491 1
107 509 1
107 521 1
108 204 1
108 217 1
108 226 1
108 396 1
108 409 1
108 418 1
108 492 1
108 505 1
108 514 1
109 205 1
109 218 1
109 231 1
109 397 1
109 410 1
109 423 1
109 493 1
109 506 1
109 519 1
110 206 1
110 219 1
110 236 1
110 398 1
110 411 1
110 428 1
110 494 1
110 507 1
110 524 1
111 207 1
111 222 1
111 229 1
111 399 1
111 414 1
111 421 1
111 495 1
111 510 1
111 517 1
112 208 1
112 223 1
112 232 1
112 400 1
112 415 1
112 424 1
112 496 1
112 511 1
112 520 1
113 193 1
113 263 1
113 275 1
113 385 1
113 455 1
113 467 1
113 481 1
113 551 1
113 563 1
114 194 1
114 265 1
114 278 1
114 386 1
114 457 1
114 470 1
114 482 1
114 553 1
114 566 1
115 195 1
115 268 1
115 276 1
115 387 1
115 460 1
115 468 1
115 483 1
115 556 1
115 564 1
116 196 1
116 264 1
116 281 1
116 388 1
116 456 1
116 473 1
116 484 1
116 552 1
116 569 1
117 197 1
117 270 1
117 282 1
117 389 1
117 462 1
117 474 1
117 485 1
117 558 1
117 570 1
118 198 1
118 261 1
118 279 1
118 390 1
118 453 1
118 471 1
118 486 1
118 549 1
118 567 1
119 199 1
119 266 1
119 284 1
119 391 1
119 458 1
119 476 1
119 487 1
119 554 1
119 572 1
120 200 1
120 271 1
120 285 1
120 392 1
120 463 1
120 477 1
120 488 1
120 559 1
120 573 1
121 201 1
121 269 1
121 277 1
121 393 1
121 461 1
121 469 1
121 489 1
121 557 1
121 565 1
122 202 1
122 272 1
122 283 1
122 394 1
122 464 1
122 475 1
122 490 1
122 560 1
122 571 1
123 203 1
123 258 1
123 287 1
123 395 1
123 450 1
123 479 1
123 491 1
123 546 1
123 575 1
124 204 1
124 267 1
124 280 1
124 396 1
124 459 1
124 472 1
124 492 1
124 555 1
124 568 1
125 205 1
125 257 1
125 286 1
125 397 1
125 449 1
125 478 1
125 493 1
125 545 1
125 574 1
126 206 1
126 259 1
126 288 1
126 398 1
126 451 1
126 480 1
126 494 1
126 547 1
126 576 1
127 207 1
127 262 1
127 273 1
127 399 1
127 454 1
127 465 1
127 495 1
127 550 1
127 561 1
128 208 1
128 260 1
128 274 1
128 400 1
128 452 1
128 466 1
128 496 1
128 548 1
128 562 1
129 224 1
129 244 1
129 275 1
129 416 1
129 436 1
129 467 1
129 512 1
129 532 1
129 563 1
130 209 1
130 247 1
130 278 1
130 401 1
130 439 1
130 470 1
130 497 1
130 535 1
130 566 1
131 210 1
131 249 1
131 276 1
131 402 1
131 441 1
131 468 1
131 498 1
131 537 1
131 564 1
132 214 1
132 245 1
132 281 1
132 406 1
132 437 1
132 473 1
132 502 1
132 533 1
132 569 1
133 220 1
133 251 1
133 282 1
133 412 1
133 443 1
133 474 1
133 508 1
133 539 1
133 570 1
134 211 1
134 252 1
134 279 1
134 403 1
134 444 1
134 471 1
134 499 1
134 540 1
134 567 1
135 212 1
135 248 1
135 284 1
135 404 1
135 440 1
135 476 1
135 500 1
135 536 1
135 572 1
136 213 1
136 254 1
136 285 1
136 405 1
136 446 1
136 477 1
136 501 1
136 542 1
136 573 1
137 215 1
137 250 1
137 277 1
137 407 1
137 442 1
137 469 1
137 503 1
137 538 1
137 565 1
138 216 1
138 255 1
138 283 1
138 408 1
138 447 1
138 475 1
138 504 1
138 543 1
138 571 1
139 221 1
139 241 1
139 287 1
139 413 1
139 433 1
139 479 1
139 509 1
139 529 1
139 575 1
140 217 1
140 253 1
140 280 1
140 409 1
140 445 1
140 472 1
140 505 1
140 541 1
140 568 1
141 218 1
141 256 1
141 286 1
141 410 1
141 448 1
141 478 1
141 506 1
141 544 1
141 574 1
142 219 1
142 242 1
142 288 1
142 411 1
142 434 1
142 480 1
142 507 1
142 530 1
142 576 1
143 222 1
143 243 1
143 273 1
143 414 1
143 435 1
143 465 1
143 510 1
143 531 1
143 561 1
144 223 1
144 246 1
144 274 1
144 415 1
144 438 1
144 466 1
144 511 1
144 534 1
144 562 1
145 1 1
145 17 1
145 49 1
145 396 1
145 412 1
145 444 1
145 494 1
145 510 1
145 542 1
146 2 1
146 18 1
146 50 1
146 389 1
146 405 1
146 437 1
146 495 1
146 511 1
146 543 1
147 3 1
147 19 1
147 51 1
147 392 1
147 408 1
147 440 1
147 496 1
147 512 1
147 544 1
148 4 1
148 20 1
148 52 1
148 397 1
148 413 1
148 445 1
148 482 1
148 498 1
148 530 1
149 5 1
149 21 1
149 53 1
149 400 1
149 416 1
149 448 1
149 487 1
149 503 1
149 535 1
150 6 1
150 22 1
150 54 1
150 394 1
150 410 1
150 442 1
150 481 1
150 497 1
150 529 1
151 7 1
151 23 1
151 55 1
151 395 1
151 411 1
151 443 1
151 483 1
151 499 1
151 531 1
152 8 1
152 24 1
152 56 1
152 385 1
152 401 1
152 433 1
152 489 1
152 505 1
152 537 1
153 9 1
153 25 1
153 57 1
153 398 1
153 414 1
153 446 1
153 486 1
153 502 1
153 534 1
154 10 1
154 26 1
154 58 1
154 386 1
154 402 1
154 434 1
154 492 1
154 508 1
154 540 1
155 11 1
155 27 1
155 59 1
155 390 1
155 406 1
155 438 1
155 488 1
155 504 1
155 536 1
156 12 1
156 28 1
156 60 1
156 399 1
156 415 1
156 447 1
156 484 1
156 500 1
156 532 1
157 13 1
157 29 1
157 61 1
157 387 1
157 403 1
157 435 1
157 485 1
157 501 1
157 533 1
158 14 1
158 30 1
158 62 1
158 388 1
158 404 1
158 436 1
158 490 1
158 506 1
158 538 1
159 15 1
159 31 1
159 63 1
159 391 1
159 407 1
159 439 1
159 493 1
159 509 1
159 541 1
160 16 1
160 32 1
160 64 1
160 393 1
160 409 1
160 441 1
160 491 1
160 507 1
160 539 1
161 1 1
161 33 1
161 65 1
161 396 1
161 428 1
161 460 1
161 494 1
161 526 1
161 558 1
162 2 1
162 34 1
162 66 1
162 389 1
162 421 1
162 453 1
162 495 1
162 527 1
162 559 1
163 3 1
163 35 1
163 67 1
163 392 1
163 424 1
163 456 1
163 496 1
163 528 1
163 560 1
164 4 1
164 36 1
164 68 1
164 397 1
164 429 1
164 461 1
164 482 1
164 514 1
164 546 1
165 5 1
165 37 1
165 69 1
165 400 1
165 432 1
165 464 1
165 487 1
165 519 1
165 551 1
166 6 1
166 38 1
166 70 1
166 394 1
166 426 1
166 458 1
166 481 1
166 513 1
166 545 1
167 7 1
167 39 1
167 71 1
167 395 1
167 427 1
167 459 1
167 483 1
167 515 1
167 547 1
168 8 1
168 40 1
168 72 1
168 385 1
168 417 1
168 449 1
168 489 1
168 521 1
168 553 1
169 9 1
169 41 1
169 73 1
169 398 1
169 430 1
169 462 1
169 486 1
169 518 1
169 550 1
170 10 1
170 42 1
170 74 1
170 386 1
170 418 1
170 450 1
170 492 1
170 524 1
170 556 1
171 11 1
171 43 1
171 75 1
171 390 1
171 422 1
171 454 1
171 488 1
171 520 1
171 552 1
172 12 1
172 44 1
172 76 1
172 399 1
172 431 1
172 463 1
172 484 1
172 516 1
172 548 1
173 13 1
173 45 1
173 77 1
173 387 1
173 419 1
173 451 1
173 485 1
173 517 1
173 549 1
174 14 1
174 46 1
174 78 1
174 388 1
174 420 1
174 452 1
174 490 1
174 522 1
174 554 1
175 15 1
175 47 1
175 79 1
175 391 1
175 423 1
175 455 1
175 493 1
175 525 1
175 557 1
176 16 1
176 48 1
176 80 1
176 393 1
176 425 1
176 457 1
176 491 1
176 523 1
176 555 1
177 17 1
177 33 1
177 81 1
177 412 1
177 428 1
177 476 1
177 510 1
177 526 1
177 574 1
178 18 1
178 34 1
178 82 1
178 405 1
178 421 1
178 469 1
178 511 1
178 527 1
178 575 1
179 19 1
179 35 1
179 83 1
179 408 1
179 424 1
179 472 1
179 512 1
179 528 1
179 576 1
180 20 1
180 36 1
180 84 1
180 413 1
180 429 1
180 477 1
180 498 1
180 514 1
180 562 1
181 21 1
181 37 1
181 85 1
181 416 1
181 432 1
181 480 1
181 503 1
181 519 1
181 567 1
182 22 1
182 38 1
182 86 1
182 410 1
182 426 1
182 474 1
182 497 1
182 513 1
182 561 1
183 23 1
183 39 1
183 87 1
183 411 1
183 427 1
183 475 1
183 499 1
183 515 1
183 563 1
184 24 1
184 40 1
184 88 1
184 401 1
184 417 1
184 465 1
184 505 1
184 521 1
184 569 1
185 25 1
185 41 1
185 89 1
185 414 1
185 430 1
185 478 1
185 502 1
185 518 1
185 566 1
186 26 1
186 42 1
186 90 1
186 402 1
186 418 1
186 466 1
186 508 1
186 524 1
186 572 1
187 27 1
187 43 1
187 91 1
187 406 1
187 422 1
187 470 1
187 504 1
187 520 1
187 568 1
188 28 1
188 44 1
188 92 1
188 415 1
188 431 1
188 479 1
188 500 1
188 516 1
188 564 1
189 29 1
189 45 1
189 93 1
189 403 1
189 419 1
189 467 1
189 501 1
189 517 1
189 565 1
190 30 1
190 46 1
190 94 1
190 404 1
190 420 1
190 468 1
190 506 1
190 522 1
190 570 1
191 31 1
191 47 1
191 95 1
191 407 1
191 423 1
191 471 1
191 509 1
191 525 1
191 573 1
192 32 1
192 48 1
192 96 1
192 409 1
192 425 1
192 473 1
192 507 1
192 523 1
192 571 1
193 98 1
193 114 1
193 146 1
193 200 1
193 216 1
193 248 1
193 494 1
193 510 1
193 542 1
194 99 1
194 115 1
194 147 1
194 202 1
194 218 1
194 250 1
194 495 1
194 511 1
194 543 1
195 102 1
195 118 1
195 150 1
195 205 1
195 221 1
195 253 1
195 496 1
195 512 1
195 544 1
196 103 1
196 119 1
196 151 1
196 206 1
196 222 1
196 254 1
196 482 1
196 498 1
196 530 1
197 104 1
197 120 1
197 152 1
197 194 1
197 210 1
197 242 1
197 487 1
197 503 1
197 535 1
198 100 1
198 116 1
198 148 1
198 203 1
198 219 1
198 251 1
198 481 1
198 497 1
198 529 1
199 105 1
199 121 1
199 153 1
199 207 1
199 223 1
199 255 1
199 483 1
199 499 1
199 531 1
200 106 1
200 122 1
200 154 1
200 195 1
200 211 1
200 243 1
200 489 1
200 505 1
200 537 1
201 108 1
201 124 1
201 156 1
201 208 1
201 224 1
201 256 1
201 486 1
201 502 1
201 534 1
202 109 1
202 125 1
202 157 1
202 198 1
202 214 1
202 246 1
202 492 1
202 508 1
202 540 1
203 110 1
203 126 1
203 158 1
203 199 1
203 215 1
203 247 1
203 488 1
203 504 1
203 536 1
204 101 1
204 117 1
204 149 1
204 193 1
204 209 1
204 241 1
204 484 1
204 500 1
204 532 1
205 107 1
205 123 1
205 155 1
205 196 1
205 212 1
205 244 1
205 485 1
205 501 1
205 533 1
206 111 1
206 127 1
206 159 1
206 201 1
206 217 1
206 249 1
206 490 1
206 506 1
206 538 1
207 112 1
207 128 1
207 160 1
207 204 1
207 220 1
207 252 1
207 493 1
207 509 1
207 541 1
208 97 1
208 113 1
208 145 1
208 197 1
208 213 1
208 245 1
208 491 1
208 507 1
208 539 1
209 98 1
209 130 1
209 162 1
209 200 1
209 232 1
209 264 1
209 494 1
209 526 1
209 558 1
210 99 1
210 131 1
210 163 1
210 202 1
210 234 1
210 266 1
210 495 1
210 527 1
210 559 1
211 102 1
211 134 1
211 166 1
211 205 1
211 237 1
211 269 1
211 496 1
211 528 1
211 560 1
212 103 1
212 135 1
212 167 1
212 206 1
212 238 1
212 270 1
212 482 1
212 514 1
212 546 1
213 104 1
213 136 1
213 168 1
213 194 1
213 226 1
213 258 1
213 487 1
213 519 1
213 551 1
214 100 1
214 132 1
214 164 1
214 203 1
214 235 1
214 267 1
214 481 1
214 513 1
214 545 1
215 105 1
215 137 1
215 169 1
215 207 1
215 239 1
215 271 1
215 483 1
215 515 1
215 547 1
216 106 1
216 138 1
216 170 1
216 195 1
216 227 1
216 259 1
216 489 1
216 521 1
216 553 1
217 108 1
217 140 1
217 172 1
217 208 1
217 240 1
217 272 1
217 486 1
217 518 1
217 550 1
218 109 1
218 141 1
218 173 1
218 198 1
218 230 1
218 262 1
218 492 1
218 524 1
218 556 1
219 110 1
219 142 1
219 174 1
219 199 1
219 231 1
219 263 1
219 488 1
219 520 1
219 552 1
220 101 1
220 133 1
220 165 1
220 193 1
220 225 1
220 257 1
220 484 1
220 516 1
220 548 1
221 107 1
221 139 1
221 171 1
221 196 1
221 228 1
221 260 1
221 485 1
221 517 1
221 549 1
222 111 1
222 143 1
222 175 1
222 201 1
222 233 1
222 265 1
222 490 1
222 522 1
222 554 1
223 112 1
223 144 1
223 176 1
223 204 1
223 236 1
223 268 1
223 493 1
223 525 1
223 557 1
224 97 1
224 129 1
224 161 1
224 197 1
224 229 1
224 261 1
224 491 1
224 523 1
224 555 1
225 114 1
225 130 1
225 178 1
225 216 1
225 232 1
225 280 1
225 510 1
225 526 1
225 574 1
226 115 1
226 131 1
226 179 1
226 218 1
226 234 1
226 282 1
226 511 1
226 527 1
226 575 1
227 118 1
227 134 1
227 182 1
227 221 1
227 237 1
227 285 1
227 512 1
227 528 1
227 576 1
228 119 1
228 135 1
228 183 1
228 222 1
228 238 1
228 286 1
228 498 1
228 514 1
228 562 1
229 120 1
229 136 1
229 184 1
229 210 1
229 226 1
229 274 1
229 503 1
229 519 1
229 567 1
230 116 1
230 132 1
230 180 1
230 219 1
230 235 1
230 283 1
230 497 1
230 513 1
230 561 1
231 121 1
231 137 1
231 185 1
231 223 1
231 239 1
231 287 1
231 499 1
231 515 1
231 563 1
232 122 1
232 138 1
232 186 1
232 211 1
232 227 1
232 275 1
232 505 1
232 521 1
232 569 1
233 124 1
233 140 1
233 188 1
233 224 1
233 240 1
233 288 1
233 502 1
233 518 1
233 566 1
234 125 1
234 141 1
234 189 1
234 214 1
234 230 1
234 278 1
234 508 1
234 524 1
234 572 1
235 126 1
235 142 1
235 190 1
235 215 1
235 231 1
235 279 1
235 504 1
235 520 1
235 568 1
236 117 1
236 133 1
236 181 1
236 209 1
236 225 1
236 273 1
236 500 1
236 516 1
236 564 1
237 123 1
237 139 1
237 187 1
237 212 1
237 228 1
237 276 1
237 501 1
237 517 1
237 565 1
238 127 1
238 143 1
238 191 1
238 217 1
238 233 1
238 281 1
238 506 1
238 522 1
238 570 1
239 128 1
239 144 1
239 192 1
239 220 1
239 236 1
239 284 1
239 509 1
239 525 1
239 573 1
240 113 1
240 129 1
240 177 1
240 213 1
240 229 1
240 277 1
240 507 1
240 523 1
240 571 1
241 200 1
241 216 1
241 248 1
241 298 1
241 314 1
241 346 1
241 396 1
241 412 1
241 444 1
242 202 1
242 218 1
242 250 1
242 301 1
242 317 1
242 349 1
242 389 1
242 405 1
242 437 1
243 205 1
243 221 1
243 253 1
243 299 1
243 315 1
243 347 1
243 392 1
243 408 1
243 440 1
244 206 1
244 222 1
244 254 1
244 303 1
244 319 1
244 351 1
244 397 1
244 413 1
244 445 1
245 194 1
245 210 1
245 242 1
245 291 1
245 307 1
245 339 1
245 400 1
245 416 1
245 448 1
246 203 1
246 219 1
246 251 1
246 302 1
246 318 1
246 350 1
246 394 1
246 410 1
246 442 1
247 207 1
247 223 1
247 255 1
247 304 1
247 320 1
247 352 1
247 395 1
247 411 1
247 443 1
248 195 1
248 211 1
248 243 1
248 294 1
248 310 1
248 342 1
248 385 1
248 401 1
248 433 1
249 208 1
249 224 1
249 256 1
249 289 1
249 305 1
249 337 1
249 398 1
249 414 1
249 446 1
250 198 1
250 214 1
250 246 1
250 292 1
250 308 1
250 340 1
250 386 1
250 402 1
250 434 1
251 199 1
251 215 1
251 247 1
251 297 1
251 313 1
251 345 1
251 390 1
251 406 1
251 438 1
252 193 1
252 209 1
252 241 1
252 290 1
252 306 1
252 338 1
252 399 1
252 415 1
252 447 1
253 196 1
253 212 1
253 244 1
253 295 1
253 311 1
253 343 1
253 387 1
253 403 1
253 435 1
254 201 1
254 217 1
254 249 1
254 300 1
254 316 1
254 348 1
254 388 1
254 404 1
254 436 1
255 204 1
255 220 1
255 252 1
255 293 1
255 309 1
255 341 1
255 391 1
255 407 1
255 439 1
256 197 1
256 213 1
256 245 1
256 296 1
256 312 1
256 344 1
256 393 1
256 409 1
256 441 1
257 200 1
257 232 1
257 264 1
257 298 1
257 330 1
257 362 1
257 396 1
257 428 1
257 460 1
258 202 1
258 234 1
258 266 1
258 301 1
258 333 1
258 365 1
258 389 1
258 421 1
258 453 1
259 205 1
259 237 1
259 269 1
259 299 1
259 331 1
259 363 1
259 392 1
259 424 1
259 456 1
260 206 1
260 238 1
260 270 1
260 303 1
260 335 1
260 367 1
260 397 1
260 429 1
260 461 1
261 194 1
261 226 1
261 258 1
261 291 1
261 323 1
261 355 1
261 400 1
261 432 1
261 464 1
262 203 1
262 235 1
262 267 1
262 302 1
262 334 1
262 366 1
262 394 1
262 426 1
262 458 1
263 207 1
263 239 1
263 271 1
263 304 1
263 336 1
263 368 1
263 395 1
263 427 1
263 459 1
264 195 1
264 227 1
264 259 1
264 294 1
264 326 1
264 358 1
264 385 1
264 417 1
264 449 1
265 208 1
265 240 1
265 272 1
265 289 1
265 321 1
265 353 1
265 398 1
265 430 1
265 462 1
266 198 1
266 230 1
266 262 1
266 292 1
266 324 1
266 356 1
266 386 1
266 418 1
266 450 1
267 199 1
267 231 1
267 263 1
267 297 1
267 329 1
267 361 1
267 390 1
267 422 1
267 454 1
268 193 1
268 225 1
268 257 1
268 290 1
268 322 1
268 354 1
268 399 1
268 431 1
268 463 1
269 196 1
269 228 1
269 260 1
269 295 1
269 327 1
269 359 1
269 387 1
269 419 1
269 451 1
270 201 1
270 233 1
270 265 1
270 300 1
270 332 1
270 364 1
270 388 1
270 420 1
270 452 1
271 204 1
271 236 1
271 268 1
271 293 1
271 325 1
271 357 1
271 391 1
271 423 1
271 455 1
272 197 1
272 229 1
272 261 1
272 296 1
272 328 1
272 360 1
272 393 1
272 425 1
272 457 1
273 216 1
273 232 1
273 280 1
273 314 1
273 330 1
273 378 1
273 412 1
273 428 1
273 476 1
274 218 1
274 234 1
274 282 1
274 317 1
274 333 1
274 381 1
274 405 1
274 421 1
274 469 1
275 221 1
275 237 1
275 285 1
275 315 1
275 331 1
275 379 1
275 408 1
275 424 1
275 472 1
276 222 1
276 238 1
276 286 1
276 319 1
276 335 1
276 383 1
276 413 1
276 429 1
276 477 1
277 210 1
277 226 1
277 274 1
277 307 1
277 323 1
277 371 1
277 416 1
277 432 1
277 480 1
278 219 1
278 235 1
278 283 1
278 318 1
278 334 1
278 382 1
278 410 1
278 426 1
278 474 1
279 223 1
279 239 1
279 287 1
279 320 1
279 336 1
279 384 1
279 411 1
279 427 1
279 475 1
280 211 1
280 227 1
280 275 1
280 310 1
280 326 1
280 374 1
280 401 1
280 417 1
280 465 1
281 224 1
281 240 1
281 288 1
281 305 1
281 321 1
281 369 1
281 414 1
281 430 1
281 478 1
282 214 1
282 230 1
282 278 1
282 308 1
282 324 1
282 372 1
282 402 1
282 418 1
282 466 1
283 215 1
283 231 1
283 279 1
283 313 1
283 329 1
283 377 1
283 406 1
283 422 1
283 470 1
284 209 1
284 225 1
284 273 1
284 306 1
284 322 1
284 370 1
284 415 1
284 431 1
284 479 1
285 212 1
285 228 1
285 276 1
285 311 1
285 327 1
285 375 1
285 403 1
285 419 1
285 467 1
286 217 1
286 233 1
286 281 1
286 316 1
286 332 1
286 380 1
286 404 1
286 420 1
286 468 1
287 220 1
287 236 1
287 284 1
287 309 1
287 325 1
287 373 1
287 407 1
287 423 1
287 471 1
288 213 1
288 229 1
288 277 1
288 312 1
288 328 1
288 376 1
288 409 1
288 425 1
288 473 1
