%%MatrixMarket matrix coordinate integer general
342 684 3078
1 1 1
1 58 1
1 77 1
1 115 1
1 172 1
1 191 1
1 343 1
1 400 1
1 419 1
2 2 1
2 59 1
2 78 1
2 116 1
2 173 1
2 192 1
2 344 1
2 401 1
2 420 1
3 3 1
3 60 1
3 79 1
3 117 1
3 174 1
3 193 1
3 345 1
3 402 1
3 421 1
4 4 1
4 61 1
4 80 1
4 118 1
4 175 1
4 194 1
4 346 1
4 403 1
4 422 1
5 5 1
5 62 1
5 81 1
5 119 1
5 176 1
5 195 1
5 347 1
5 404 1
5 423 1
6 6 1
6 63 1
6 82 1
6 120 1
6 177 1
6 196 1
6 348 1
6 405 1
6 424 1
7 7 1
7 64 1
7 83 1
7 121 1
7 178 1
7 197 1
7 349 1
7 406 1
7 425 1
8 8 1
8 65 1
8 84 1
8 122 1
8 179 1
8 198 1
8 350 1
8 407 1
8 426 1
9 9 1
9 66 1
9 85 1
9 123 1
9 180 1
9 199 1
9 351 1
9 408 1
9 427 1
10 10 1
10 67 1
10 86 1
10 124 1
10 181 1
10 200 1
10 352 1
10 409 1
10 428 1
11 11 1
11 68 1
11 87 1
11 125 1
11 182 1
11 201 1
11 353 1
11 410 1
11 429 1
12 12 1
12 69 1
12 88 1
12 126 1
12 183 1
12 202 1
12 354 1
12 411 1
12 430 1
13 13 1
13 70 1
13 89 1
13 127 1
13 184 1
13 203 1
13 355 1
13 412 1
13 431 1
14 14 1
14 71 1
14 90 1
14 128 1
14 185 1
14 204 1
14 356 1
14 413 1
14 432 1
15 15 1
15 72 1
15 91 1
15 129 1
15 186 1
15 205 1
15 357 1
15 414 1
15 433 1
16 16 1
16 73 1
16 92 1
16 130 1
16 187 1
16 206 1
16 358 1
16 415 1
16 434 1
17 17 1
17 74 1
17 93 1
17 131 1
17 188 1
17 207 1
17 359 1
17 416 1
17 435 1
18 18 1
18 75 1
18 94 1
18 132 1
18 189 1
18 208 1
18 360 1
18 417 1
18 436 1
19 19 1
19 76 1
19 95 1
19 133 1
19 190 1
19 209 1
19 361 1
19 418 1
19 437 1
20 20 1
20 58 1
20 96 1
20 134 1
20 172 1
20 210 1
20 362 1
20 400 1
20 438 1
21 21 1
21 59 1
21 97 1
21 135 1
21 173 1
21 211 1
21 363 1
21 401 1
21 439 1
22 22 1
22 60 1
22 98 1
22 136 1
22 174 1
22 212 1
22 364 1
22 402 1
22 440 1
23 23 1
23 61 1
23 99 1
23 137 1
23 175 1
23 213 1
23 365 1
23 403 1
23 441 1
24 24 1
24 62 1
24 100 1
24 138 1
24 176 1
24 214 1
24 366 1
24 404 1
24 442 1
25 25 1
25 63 1
25 101 1
25 139 1
25 177 1
25 215 1
25 367 1
25 405 1
25 443 1
26 26 1
26 64 1
26 102 1
26 140 1
26 178 1
26 216 1
26 368 1
26 406 1
26 444 1
27 27 1
27 65 1
27 103 1
27 141 1
27 179 1
27 217 1
27 369 1
27 407 1
27 445 1
28 28 1
28 66 1
28 104 1
28 142 1
28 180 1
28 218 1
28 370 1
28 408 1
28 446 1
29 29 1
29 67 1
29 105 1
29 143 1
29 181 1
29 219 1
29 371 1
29 409 1
29 447 1
30 30 1
30 68 1
30 106 1
30 144 1
30 182 1
30 220 1
30 372 1
30 410 1
30 448 1
31 31 1
31 69 1
31 107 1
31 145 1
31 183 1
31 221 1
31 373 1
31 411 1
31 449 1
32 32 1
32 70 1
32 108 1
32 146 1
32 184 1
32 222 1
32 374 1
32 412 1
32 450 1
33 33 1
33 71 1
33 109 1
33 147 1
33 185 1
33 223 1
33 375 1
33 413 1
33 451 1
34 34 1
34 72 1
34 110 1
34 148 1
34 186 1
34 224 1
34 376 1
34 414 1
34 452 1
35 35 1
35 73 1
35 111 1
35 149 1
35 187 1
35 225 1
35 377 1
35 415 1
35 453 1
36 36 1
36 74 1
36 112 1
36 150 1
36 188 1
36 226 1
36 378 1
36 416 1
36 454 1
37 37 1
37 75 1
37 113 1
37 151 1
37 189 1
37 227 1
37 379 1
37 417 1
37 455 1
38 38 1
38 76 1
38 114 1
38 152 1
38 190 1
38 228 1
38 380 1
38 418 1
38 456 1
39 39 1
39 77 1
39 96 1
39 153 1
39 191 1
39 210 1
39 381 1
39 419 1
39 438 1
40 40 1
40 78 1
40 97 1
40 154 1
40 192 1
40 211 1
40 382 1
40 420 1
40 439 1
41 41 1
41 79 1
41 98 1
41 155 1
41 193 1
41 212 1
41 383 1
41 421 1
41 440 1
42 42 1
42 80 1
42 99 1
42 156 1
42 194 1
42 213 1
42 384 1
42 422 1
42 441 1
43 43 1
43 81 1
43 100 1
43 157 1
43 195 1
43 214 1
43 385 1
43 423 1
43 442 1
44 44 1
44 82 1
44 101 1
44 158 1
44 196 1
44 215 1
44 386 1
44 424 1
44 443 1
45 45 1
45 83 1
45 102 1
45 159 1
45 197 1
45 216 1
45 387 1
45 425 1
45 444 1
46 46 1
46 84 1
46 103 1
46 160 1
46 198 1
46 217 1
46 388 1
46 426 1
46 445 1
47 47 1
47 85 1
47 104 1
47 161 1
47 199 1
47 218 1
47 389 1
47 427 1
47 446 1
48 48 1
48 86 1
48 105 1
48 162 1
48 200 1
48 219 1
48 390 1
48 428 1
48 447 1
49 49 1
49 87 1
49 106 1
49 163 1
49 201 1
49 220 1
49 391 1
49 429 1
49 448 1
50 50 1
50 88 1
50 107 1
50 164 1
50 202 1
50 221 1
50 392 1
50 430 1
50 449 1
51 51 1
51 89 1
51 108 1
51 165 1
51 203 1
51 222 1
51 393 1
51 431 1
51 450 1
52 52 1
52 90 1
52 109 1
52 166 1
52 204 1
52 223 1
52 394 1
52 432 1
52 451 1
53 53 1
53 91 1
53 110 1
53 167 1
53 205 1
53 224 1
53 395 1
53 433 1
53 452 1
54 54 1
54 92 1
54 111 1
54 168 1
54 206 1
54 225 1
54 396 1
54 434 1
54 453 1
55 55 1
55 93 1
55 112 1
55 169 1
55 207 1
55 226 1
55 397 1
55 435 1
55 454 1
56 56 1
56 94 1
56 113 1
56 170 1
56 208 1
56 227 1
56 398 1
56 436 1
56 455 1
57 57 1
57 95 1
57 114 1
57 171 1
57 209 1
57 228 1
57 399 1
57 437 1
57 456 1
58 1 1
58 58 1
58 77 1
58 229 1
58 286 1
58 305 1
58 457 1
58 514 1
58 533 1
59 2 1
59 59 1
59 78 1
59 230 1
59 287 1
59 306 1
59 458 1
59 515 1
59 534 1
60 3 1
60 60 1
60 79 1
60 231 1
60 288 1
60 307 1
60 459 1
60 516 1
60 535 1
61 4 1
61 61 1
61 80 1
61 232 1
61 289 1
61 308 1
61 460 1
61 517 1
61 536 1
62 5 1
62 62 1
62 81 1
62 233 1
62 290 1
62 309 1
62 461 1
62 518 1
62 537 1
63 6 1
63 63 1
63 82 1
63 234 1
63 291 1
63 310 1
63 462 1
63 519 1
63 538 1
64 7 1
64 64 1
64 83 1
64 235 1
64 292 1
64 311 1
64 463 1
64 520 1
64 539 1
65 8 1
65 65 1
65 84 1
65 236 1
65 293 1
65 312 1
65 464 1
65 521 1
65 540 1
66 9 1
66 66 1
66 85 1
66 237 1
66 294 1
66 313 1
66 465 1
66 522 1
66 541 1
67 10 1
67 67 1
67 86 1
67 238 1
67 295 1
67 314 1
67 466 1
67 523 1
67 542 1
68 11 1
68 68 1
68 87 1
68 239 1
68 296 1
68 315 1
68 467 1
68 524 1
68 543 1
69 12 1
69 69 1
69 88 1
69 240 1
69 297 1
69 316 1
69 468 1
69 525 1
69 544 1
70 13 1
70 70 1
70 89 1
70 241 1
70 298 1
70 317 1
70 469 1
70 526 1
70 545 1
71 14 1
71 71 1
71 90 1
71 242 1
71 299 1
71 318 1
71 470 1
71 527 1
71 546 1
72 15 1
72 72 1
72 91 1
72 243 1
72 300 1
72 319 1
72 471 1
72 528 1
72 547 1
73 16 1
73 73 1
73 92 1
73 244 1
73 301 1
73 320 1
73 472 1
73 529 1
73 548 1
74 17 1
74 74 1
74 93 1
74 245 1
74 302 1
74 321 1
74 473 1
74 530 1
74 549 1
75 18 1
75 75 1
75 94 1
75 246 1
75 303 1
75 322 1
75 474 1
75 531 1
75 550 1
76 19 1
76 76 1
76 95 1
76 247 1
76 304 1
76 323 1
76 475 1
76 532 1
76 551 1
77 20 1
77 58 1
77 96 1
77 248 1
77 286 1
77 324 1
77 476 1
77 514 1
77 552 1
78 21 1
78 59 1
78 97 1
78 249 1
78 287 1
78 325 1
78 477 1
78 515 1
78 553 1
79 22 1
79 60 1
79 98 1
79 250 1
79 288 1
79 326 1
79 478 1
79 516 1
79 554 1
80 23 1
80 61 1
80 99 1
80 251 1
80 289 1
80 327 1
80 479 1
80 517 1
80 555 1
81 24 1
81 62 1
81 100 1
81 252 1
81 290 1
81 328 1
81 480 1
81 518 1
81 556 1
82 25 1
82 63 1
82 101 1
82 253 1
82 291 1
82 329 1
82 481 1
82 519 1
82 557 1
83 26 1
83 64 1
83 102 1
83 254 1
83 292 1
83 330 1
83 482 1
83 520 1
83 558 1
84 27 1
84 65 1
84 103 1
84 255 1
84 293 1
84 331 1
84 483 1
84 521 1
84 559 1
85 28 1
85 66 1
85 104 1
85 256 1
85 294 1
85 332 1
85 484 1
85 522 1
85 560 1
86 29 1
86 67 1
86 105 1
86 257 1
86 295 1
86 333 1
86 485 1
86 523 1
86 561 1
87 30 1
87 68 1
87 106 1
87 258 1
87 296 1
87 334 1
87 486 1
87 524 1
87 562 1
88 31 1
88 69 1
88 107 1
88 259 1
88 297 1
88 335 1
88 487 1
88 525 1
88 563 1
89 32 1
89 70 1
89 108 1
89 260 1
89 298 1
89 336 1
89 488 1
89 526 1
89 564 1
90 33 1
90 71 1
90 109 1
90 261 1
90 299 1
90 337 1
90 489 1
90 527 1
90 565 1
91 34 1
91 72 1
91 110 1
91 262 1
91 300 1
91 338 1
91 490 1
91 528 1
91 566 1
92 35 1
92 73 1
92 111 1
92 263 1
92 301 1
92 339 1
92 491 1
92 529 1
92 567 1
93 36 1
93 74 1
93 112 1
93 264 1
93 302 1
93 340 1
93 492 1
93 530 1
93 568 1
94 37 1
94 75 1
94 113 1
94 265 1
94 303 1
94 341 1
94 493 1
94 531 1
94 569 1
95 38 1
95 76 1
95 114 1
95 266 1
95 304 1
95 342 1
95 494 1
95 532 1
95 570 1
96 39 1
96 77 1
96 96 1
96 267 1
96 305 1
96 324 1
96 495 1
96 533 1
96 552 1
97 40 1
97 78 1
97 97 1
97 268 1
97 306 1
97 325 1
97 496 1
97 534 1
97 553 1
98 41 1
98 79 1
98 98 1
98 269 1
98 307 1
98 326 1
98 497 1
98 535 1
98 554 1
99 42 1
99 80 1
99 99 1
99 270 1
99 308 1
99 327 1
99 498 1
99 536 1
99 555 1
100 43 1
100 81 1
100 100 1
100 271 1
100 309 1
100 328 1
100 499 1
100 537 1
100 556 1
101 44 1
101 82 1
101 101 1
101 272 1
101 310 1
101 329 1
101 500 1
101 538 1
101 557 1
102 45 1
102 83 1
102 102 1
102 273 1
102 311 1
102 330 1
102 501 1
102 539 1
102 558 1
103 46 1
103 84 1
103 103 1
103 274 1
103 312 1
103 331 1
103 502 1
103 540 1
103 559 1
104 47 1
104 85 1
104 104 1
104 275 1
104 313 1
104 332 1
104 503 1
104 541 1
104 560 1
105 48 1
105 86 1
105 105 1
105 276 1
105 314 1
105 333 1
105 504 1
105 542 1
105 561 1
106 49 1
106 87 1
106 106 1
106 277 1
106 315 1
106 334 1
106 505 1
106 543 1
106 562 1
107 50 1
107 88 1
107 107 1
107 278 1
107 316 1
107 335 1
107 506 1
107 544 1
107 563 1
108 51 1
108 89 1
108 108 1
108 279 1
108 317 1
108 336 1
108 507 1
108 545 1
108 564 1
109 52 1
109 90 1
109 109 1
109 280 1
109 318 1
109 337 1
109 508 1
109 546 1
109 565 1
110 53 1
110 91 1
110 110 1
110 281 1
110 319 1
110 338 1
110 509 1
110 547 1
110 566 1
111 54 1
111 92 1
111 111 1
111 282 1
111 320 1
111 339 1
111 510 1
111 548 1
111 567 1
112 55 1
112 93 1
112 112 1
112 283 1
112 321 1
112 340 1
112 511 1
112 549 1
112 568 1
113 56 1
113 94 1
113 113 1
113 284 1
113 322 1
113 341 1
113 512 1
113 550 1
113 569 1
114 57 1
114 95 1
114 114 1
114 285 1
114 323 1
114 342 1
114 513 1
114 551 1
114 570 1
115 115 1
115 172 1
115 191 1
115 229 1
115 286 1
115 305 1
115 571 1
115 628 1
115 647 1
116 116 1
116 173 1
116 192 1
116 230 1
116 287 1
116 306 1
116 572 1
116 629 1
116 648 1
117 117 1
117 174 1
117 193 1
117 231 1
117 288 1
117 307 1
117 573 1
117 630 1
117 649 1
118 118 1
118 175 1
118 194 1
118 232 1
118 289 1
118 308 1
118 574 1
118 631 1
118 650 1
119 119 1
119 176 1
119 195 1
119 233 1
119 290 1
119 309 1
119 575 1
119 632 1
119 651 1
120 120 1
120 177 1
120 196 1
120 234 1
120 291 1
120 310 1
120 576 1
120 633 1
120 652 1
121 121 1
121 178 1
121 197 1
121 235 1
121 292 1
121 311 1
121 577 1
121 634 1
121 653 1
122 122 1
122 179 1
122 198 1
122 236 1
122 293 1
122 312 1
122 578 1
122 635 1
122 654 1
123 123 1
123 180 1
123 199 1
123 237 1
123 294 1
123 313 1
123 579 1
123 636 1
123 655 1
124 124 1
124 181 1
124 200 1
124 238 1
124 295 1
124 314 1
124 580 1
124 637 1
124 656 1
125 125 1
125 182 1
125 201 1
125 239 1
125 296 1
125 315 1
125 581 1
125 638 1
125 657 1
126 126 1
126 183 1
126 202 1
126 240 1
126 297 1
126 316 1
126 582 1
126 639 1
126 658 1
127 127 1
127 184 1
127 203 1
127 241 1
127 298 1
127 317 1
127 583 1
127 640 1
127 659 1
128 128 1
128 185 1
128 204 1
128 242 1
128 299 1
128 318 1
128 584 1
128 641 1
128 660 1
129 129 1
129 186 1
129 205 1
129 243 1
129 300 1
129 319 1
129 585 1
129 642 1
129 661 1
130 130 1
130 187 1
130 206 1
130 244 1
130 301 1
130 320 1
130 586 1
130 643 1
130 662 1
131 131 1
131 188 1
131 207 1
131 245 1
131 302 1
131 321 1
131 587 1
131 644 1
131 663 1
132 132 1
132 189 1
132 208 1
132 246 1
132 303 1
132 322 1
132 588 1
132 645 1
132 664 1
133 133 1
133 190 1
133 209 1
133 247 1
133 304 1
133 323 1
133 589 1
133 646 1
133 665 1
134 134 1
134 172 1
134 210 1
134 248 1
134 286 1
134 324 1
134 590 1
134 628 1
134 666 1
135 135 1
135 173 1
135 211 1
135 249 1
135 287 1
135 325 1
135 591 1
135 629 1
135 667 1
136 136 1
136 174 1
136 212 1
136 250 1
136 288 1
136 326 1
136 592 1
136 630 1
136 668 1
137 137 1
137 175 1
137 213 1
137 251 1
137 289 1
137 327 1
137 593 1
137 631 1
137 669 1
138 138 1
138 176 1
138 214 1
138 252 1
138 290 1
138 328 1
138 594 1
138 632 1
138 670 1
139 139 1
139 177 1
139 215 1
139 253 1
139 291 1
139 329 1
139 595 1
139 633 1
139 671 1
140 140 1
140 178 1
140 216 1
140 254 1
140 292 1
140 330 1
140 596 1
140 634 1
140 672 1
141 141 1
141 179 1
141 217 1
141 255 1
141 293 1
141 331 1
141 597 1
141 635 1
141 673 1
142 142 1
142 180 1
142 218 1
142 256 1
142 294 1
142 332 1
142 598 1
142 636 1
142 674 1
143 143 1
143 181 1
143 219 1
143 257 1
143 295 1
143 333 1
143 599 1
143 637 1
143 675 1
144 144 1
144 182 1
144 220 1
144 258 1
144 296 1
144 334 1
144 600 1
144 638 1
144 676 1
145 145 1
145 183 1
145 221 1
145 259 1
145 297 1
145 335 1
145 601 1
145 639 1
145 677 1
146 146 1
146 184 1
146 222 1
146 260 1
146 298 1
146 336 1
146 602 1
146 640 1
146 678 1
147 147 1
147 185 1
147 223 1
147 261 1
147 299 1
147 337 1
147 603 1
147 641 1
147 679 1
148 148 1
148 186 1
148 224 1
148 262 1
148 300 1
148 338 1
148 604 1
148 642 1
148 680 1
149 149 1
149 187 1
149 225 1
149 263 1
149 301 1
149 339 1
149 605 1
149 643 1
149 681 1
150 150 1
150 188 1
150 226 1
150 264 1
150 302 1
150 340 1
150 606 1
150 644 1
150 682 1
151 151 1
151 189 1
151 227 1
151 265 1
151 303 1
151 341 1
151 607 1
151 645 1
151 683 1
152 152 1
152 190 1
152 228 1
152 266 1
152 304 1
152 342 1
152 608 1
152 646 1
152 684 1
153 153 1
153 191 1
153 210 1
153 267 1
153 305 1
153 324 1
153 609 1
153 647 1
153 666 1
154 154 1
154 192 1
154 211 1
154 268 1
154 306 1
154 325 1
154 610 1
154 648 1
154 667 1
155 155 1
155 193 1
155 212 1
155 269 1
155 307 1
155 326 1
155 611 1
155 649 1
155 668 1
156 156 1
156 194 1
156 213 1
156 270 1
156 308 1
156 327 1
156 612 1
156 650 1
156 669 1
157 157 1
157 195 1
157 214 1
157 271 1
157 309 1
157 328 1
157 613 1
157 651 1
157 670 1
158 158 1
158 196 1
158 215 1
158 272 1
158 310 1
158 329 1
158 614 1
158 652 1
158 671 1
159 159 1
159 197 1
159 216 1
159 273 1
159 311 1
159 330 1
159 615 1
159 653 1
159 672 1
160 160 1
160 198 1
160 217 1
160 274 1
160 312 1
160 331 1
160 616 1
160 654 1
160 673 1
161 161 1
161 199 1
161 218 1
161 275 1
161 313 1
161 332 1
161 617 1
161 655 1
161 674 1
162 162 1
162 200 1
162 219 1
162 276 1
162 314 1
162 333 1
162 618 1
162 656 1
162 675 1
163 163 1
163 201 1
163 220 1
163 277 1
163 315 1
163 334 1
163 619 1
163 657 1
163 676 1
164 164 1
164 202 1
164 221 1
164 278 1
164 316 1
164 335 1
164 620 1
164 658 1
164 677 1
165 165 1
165 203 1
165 222 1
165 279 1
165 317 1
165 336 1
165 621 1
165 659 1
165 678 1
166 166 1
166 204 1
166 223 1
166 280 1
166 318 1
166 337 1
166 622 1
166 660 1
166 679 1
167 167 1
167 205 1
167 224 1
167 281 1
167 319 1
167 338 1
167 623 1
167 661 1
167 680 1
168 168 1
168 206 1
168 225 1
168 282 1
168 320 1
168 339 1
168 624 1
168 662 1
168 681 1
169 169 1
169 207 1
169 226 1
169 283 1
169 321 1
169 340 1
169 625 1
169 663 1
169 682 1
170 170 1
170 208 1
170 227 1
170 284 1
170 322 1
170 341 1
170 626 1
170 664 1
170 683 1
171 171 1
171 209 1
171 228 1
171 285 1
171 323 1
171 342 1
171 627 1
171 665 1
171 684 1
172 1 1
172 52 1
172 86 1
172 116 1
172 167 1
172 201 1
172 354 1
172 386 1
172 420 1
173 2 1
173 53 1
173 87 1
173 117 1
173 168 1
173 202 1
173 355 1
173 387 1
173 421 1
174 3 1
174 54 1
174 88 1
174 118 1
174 169 1
174 203 1
174 356 1
174 388 1
174 422 1
175 4 1
175 55 1
175 89 1
175 119 1
175 170 1
175 204 1
175 357 1
175 389 1
175 423 1
176 5 1
176 56 1
176 90 1
176 120 1
176 171 1
176 205 1
176 358 1
176 390 1
176 424 1
177 6 1
177 57 1
177 91 1
177 121 1
177 153 1
177 206 1
177 359 1
177 391 1
177 425 1
178 7 1
178 39 1
178 92 1
178 122 1
178 154 1
178 207 1
178 360 1
178 392 1
178 426 1
179 8 1
179 40 1
179 93 1
179 123 1
179 155 1
179 208 1
179 361 1
179 393 1
179 427 1
180 9 1
180 41 1
180 94 1
180 124 1
180 156 1
180 209 1
180 343 1
180 394 1
180 428 1
181 10 1
181 42 1
181 95 1
181 125 1
181 157 1
181 191 1
181 344 1
181 395 1
181 429 1
182 11 1
182 43 1
182 77 1
182 126 1
182 158 1
182 192 1
182 345 1
182 396 1
182 430 1
183 12 1
183 44 1
183 78 1
183 127 1
183 159 1
183 193 1
183 346 1
183 397 1
183 431 1
184 13 1
184 45 1
184 79 1
184 128 1
184 160 1
184 194 1
184 347 1
184 398 1
184 432 1
185 14 1
185 46 1
185 80 1
185 129 1
185 161 1
185 195 1
185 348 1
185 399 1
185 433 1
186 15 1
186 47 1
186 81 1
186 130 1
186 162 1
186 196 1
186 349 1
186 381 1
186 434 1
187 16 1
187 48 1
187 82 1
187 131 1
187 163 1
187 197 1
187 350 1
187 382 1
187 435 1
188 17 1
188 49 1
188 83 1
188 132 1
188 164 1
188 198 1
188 351 1
188 383 1
188 436 1
189 18 1
189 50 1
189 84 1
189 133 1
189 165 1
189 199 1
189 352 1
189 384 1
189 437 1
190 19 1
190 51 1
190 85 1
190 115 1
190 166 1
190 200 1
190 353 1
190 385 1
190 419 1
191 34 1
191 52 1
191 100 1
191 149 1
191 167 1
191 215 1
191 368 1
191 386 1
191 453 1
192 35 1
192 53 1
192 101 1
192 150 1
192 168 1
192 216 1
192 369 1
192 387 1
192 454 1
193 36 1
193 54 1
193 102 1
193 151 1
193 169 1
193 217 1
193 370 1
193 388 1
193 455 1
194 37 1
194 55 1
194 103 1
194 152 1
194 170 1
194 218 1
194 371 1
194 389 1
194 456 1
195 38 1
195 56 1
195 104 1
195 134 1
195 171 1
195 219 1
195 372 1
195 390 1
195 438 1
196 20 1
196 57 1
196 105 1
196 135 1
196 153 1
196 220 1
196 373 1
196 391 1
196 439 1
197 21 1
197 39 1
197 106 1
197 136 1
197 154 1
197 221 1
197 374 1
197 392 1
197 440 1
198 22 1
198 40 1
198 107 1
198 137 1
198 155 1
198 222 1
198 375 1
198 393 1
198 441 1
199 23 1
199 41 1
199 108 1
199 138 1
199 156 1
199 223 1
199 376 1
199 394 1
199 442 1
200 24 1
200 42 1
200 109 1
200 139 1
200 157 1
200 224 1
200 377 1
200 395 1
200 443 1
201 25 1
201 43 1
201 110 1
201 140 1
201 158 1
201 225 1
201 378 1
201 396 1
201 444 1
202 26 1
202 44 1
202 111 1
202 141 1
202 159 1
202 226 1
202 379 1
202 397 1
202 445 1
203 27 1
203 45 1
203 112 1
203 142 1
203 160 1
203 227 1
203 380 1
203 398 1
203 446 1
204 28 1
204 46 1
204 113 1
204 143 1
204 161 1
204 228 1
204 362 1
204 399 1
204 447 1
205 29 1
205 47 1
205 114 1
205 144 1
205 162 1
205 210 1
205 363 1
205 381 1
205 448 1
206 30 1
206 48 1
206 96 1
206 145 1
206 163 1
206 211 1
206 364 1
206 382 1
206 449 1
207 31 1
207 49 1
207 97 1
207 146 1
207 164 1
207 212 1
207 365 1
207 383 1
207 450 1
208 32 1
208 50 1
208 98 1
208 147 1
208 165 1
208 213 1
208 366 1
208 384 1
208 451 1
209 33 1
209 51 1
209 99 1
209 148 1
209 166 1
209 214 1
209 367 1
209 385 1
209 452 1
210 67 1
210 86 1
210 100 1
210 182 1
210 201 1
210 215 1
210 401 1
210 420 1
210 453 1
211 68 1
211 87 1
211 101 1
211 183 1
211 202 1
211 216 1
211 402 1
211 421 1
211 454 1
212 69 1
212 88 1
212 102 1
212 184 1
212 203 1
212 217 1
212 403 1
212 422 1
212 455 1
213 70 1
213 89 1
213 103 1
213 185 1
213 204 1
213 218 1
213 404 1
213 423 1
213 456 1
214 71 1
214 90 1
214 104 1
214 186 1
214 205 1
214 219 1
214 405 1
214 424 1
214 438 1
215 72 1
215 91 1
215 105 1
215 187 1
215 206 1
215 220 1
215 406 1
215 425 1
215 439 1
216 73 1
216 92 1
216 106 1
216 188 1
216 207 1
216 221 1
216 407 1
216 426 1
216 440 1
217 74 1
217 93 1
217 107 1
217 189 1
217 208 1
217 222 1
217 408 1
217 427 1
217 441 1
218 75 1
218 94 1
218 108 1
218 190 1
218 209 1
218 223 1
218 409 1
218 428 1
218 442 1
219 76 1
219 95 1
219 109 1
219 172 1
219 191 1
219 224 1
219 410 1
219 429 1
219 443 1
220 58 1
220 77 1
220 110 1
220 173 1
220 192 1
220 225 1
220 411 1
220 430 1
220 444 1
221 59 1
221 78 1
221 111 1
221 174 1
221 193 1
221 226 1
221 412 1
221 431 1
221 445 1
222 60 1
222 79 1
222 112 1
222 175 1
222 194 1
222 227 1
222 413 1
222 432 1
222 446 1
223 61 1
223 80 1
223 113 1
223 176 1
223 195 1
223 228 1
223 414 1
223 433 1
223 447 1
224 62 1
224 81 1
224 114 1
224 177 1
224 196 1
224 210 1
224 415 1
224 434 1
224 448 1
225 63 1
225 82 1
225 96 1
225 178 1
225 197 1
225 211 1
225 416 1
225 435 1
225 449 1
226 64 1
226 83 1
226 97 1
226 179 1
226 198 1
226 212 1
226 417 1
226 436 1
226 450 1
227 65 1
227 84 1
227 98 1
227 180 1
227 199 1
227 213 1
227 418 1
227 437 1
227 451 1
228 66 1
228 85 1
228 99 1
228 181 1
228 200 1
228 214 1
228 400 1
228 419 1
228 452 1
229 1 1
229 52 1
229 86 1
229 232 1
229 283 1
229 317 1
229 470 1
229 502 1
229 536 1
230 2 1
230 53 1
230 87 1
230 233 1
230 284 1
230 318 1
230 471 1
230 503 1
230 537 1
231 3 1
231 54 1
231 88 1
231 234 1
231 285 1
231 319 1
231 472 1
231 504 1
231 538 1
232 4 1
232 55 1
232 89 1
232 235 1
232 267 1
232 320 1
232 473 1
232 505 1
232 539 1
233 5 1
233 56 1
233 90 1
233 236 1
233 268 1
233 321 1
233 474 1
233 506 1
233 540 1
234 6 1
234 57 1
234 91 1
234 237 1
234 269 1
234 322 1
234 475 1
234 507 1
234 541 1
235 7 1
235 39 1
235 92 1
235 238 1
235 270 1
235 323 1
235 457 1
235 508 1
235 542 1
236 8 1
236 40 1
236 93 1
236 239 1
236 271 1
236 305 1
236 458 1
236 509 1
236 543 1
237 9 1
237 41 1
237 94 1
237 240 1
237 272 1
237 306 1
237 459 1
237 510 1
237 544 1
238 10 1
238 42 1
238 95 1
238 241 1
238 273 1
238 307 1
238 460 1
238 511 1
238 545 1
239 11 1
239 43 1
239 77 1
239 242 1
239 274 1
239 308 1
239 461 1
239 512 1
239 546 1
240 12 1
240 44 1
240 78 1
240 243 1
240 275 1
240 309 1
240 462 1
240 513 1
240 547 1
241 13 1
241 45 1
241 79 1
241 244 1
241 276 1
241 310 1
241 463 1
241 495 1
241 548 1
242 14 1
242 46 1
242 80 1
242 245 1
242 277 1
242 311 1
242 464 1
242 496 1
242 549 1
243 15 1
243 47 1
243 81 1
243 246 1
243 278 1
243 312 1
243 465 1
243 497 1
243 550 1
244 16 1
244 48 1
244 82 1
244 247 1
244 279 1
244 313 1
244 466 1
244 498 1
244 551 1
245 17 1
245 49 1
245 83 1
245 229 1
245 280 1
245 314 1
245 467 1
245 499 1
245 533 1
246 18 1
246 50 1
246 84 1
246 230 1
246 281 1
246 315 1
246 468 1
246 500 1
246 534 1
247 19 1
247 51 1
247 85 1
247 231 1
247 282 1
247 316 1
247 469 1
247 501 1
247 535 1
248 34 1
248 52 1
248 100 1
248 265 1
248 283 1
248 331 1
248 484 1
248 502 1
248 569 1
249 35 1
249 53 1
249 101 1
249 266 1
249 284 1
249 332 1
249 485 1
249 503 1
249 570 1
250 36 1
250 54 1
250 102 1
250 248 1
250 285 1
250 333 1
250 486 1
250 504 1
250 552 1
251 37 1
251 55 1
251 103 1
251 249 1
251 267 1
251 334 1
251 487 1
251 505 1
251 553 1
252 38 1
252 56 1
252 104 1
252 250 1
252 268 1
252 335 1
252 488 1
252 506 1
252 554 1
253 20 1
253 57 1
253 105 1
253 251 1
253 269 1
253 336 1
253 489 1
253 507 1
253 555 1
254 21 1
254 39 1
254 106 1
254 252 1
254 270 1
254 337 1
254 490 1
254 508 1
254 556 1
255 22 1
255 40 1
255 107 1
255 253 1
255 271 1
255 338 1
255 491 1
255 509 1
255 557 1
256 23 1
256 41 1
256 108 1
256 254 1
256 272 1
256 339 1
256 492 1
256 510 1
256 558 1
257 24 1
257 42 1
257 109 1
257 255 1
257 273 1
257 340 1
257 493 1
257 511 1
257 559 1
258 25 1
258 43 1
258 110 1
258 256 1
258 274 1
258 341 1
258 494 1
258 512 1
258 560 1
259 26 1
259 44 1
259 111 1
259 257 1
259 275 1
259 342 1
259 476 1
259 513 1
259 561 1
260 27 1
260 45 1
260 112 1
260 258 1
260 276 1
260 324 1
260 477 1
260 495 1
260 562 1
261 28 1
261 46 1
261 113 1
261 259 1
261 277 1
261 325 1
261 478 1
261 496 1
261 563 1
262 29 1
262 47 1
262 114 1
262 260 1
262 278 1
262 326 1
262 479 1
262 497 1
262 564 1
263 30 1
263 48 1
263 96 1
263 261 1
263 279 1
263 327 1
263 480 1
263 498 1
263 565 1
264 31 1
264 49 1
264 97 1
264 262 1
264 280 1
264 328 1
264 481 1
264 499 1
264 566 1
265 32 1
265 50 1
265 98 1
265 263 1
265 281 1
265 329 1
265 482 1
265 500 1
265 567 1
266 33 1
266 51 1
266 99 1
266 264 1
266 282 1
266 330 1
266 483 1
266 501 1
266 568 1
267 67 1
267 86 1
267 100 1
267 298 1
267 317 1
267 331 1
267 517 1
267 536 1
267 569 1
268 68 1
268 87 1
268 101 1
268 299 1
268 318 1
268 332 1
268 518 1
268 537 1
268 570 1
269 69 1
269 88 1
269 102 1
269 300 1
269 319 1
269 333 1
269 519 1
269 538 1
269 552 1
270 70 1
270 89 1
270 103 1
270 301 1
270 320 1
270 334 1
270 520 1
270 539 1
270 553 1
271 71 1
271 90 1
271 104 1
271 302 1
271 321 1
271 335 1
271 521 1
271 540 1
271 554 1
272 72 1
272 91 1
272 105 1
272 303 1
272 322 1
272 336 1
272 522 1
272 541 1
272 555 1
273 73 1
273 92 1
273 106 1
273 304 1
273 323 1
273 337 1
273 523 1
273 542 1
273 556 1
274 74 1
274 93 1
274 107 1
274 286 1
274 305 1
274 338 1
274 524 1
274 543 1
274 557 1
275 75 1
275 94 1
275 108 1
275 287 1
275 306 1
275 339 1
275 525 1
275 544 1
275 558 1
276 76 1
276 95 1
276 109 1
276 288 1
276 307 1
276 340 1
276 526 1
276 545 1
276 559 1
277 58 1
277 77 1
277 110 1
277 289 1
277 308 1
277 341 1
277 527 1
277 546 1
277 560 1
278 59 1
278 78 1
278 111 1
278 290 1
278 309 1
278 342 1
278 528 1
278 547 1
278 561 1
279 60 1
279 79 1
279 112 1
279 291 1
279 310 1
279 324 1
279 529 1
279 548 1
279 562 1
280 61 1
280 80 1
280 113 1
280 292 1
280 311 1
280 325 1
280 530 1
280 549 1
280 563 1
281 62 1
281 81 1
281 114 1
281 293 1
281 312 1
281 326 1
281 531 1
281 550 1
281 564 1
282 63 1
282 82 1
282 96 1
282 294 1
282 313 1
282 327 1
282 532 1
282 551 1
282 565 1
283 64 1
283 83 1
283 97 1
283 295 1
283 314 1
283 328 1
283 514 1
283 533 1
283 566 1
284 65 1
284 84 1
284 98 1
284 296 1
284 315 1
284 329 1
284 515 1
284 534 1
284 567 1
285 66 1
285 85 1
285 99 1
285 297 1
285 316 1
285 330 1
285 516 1
285 535 1
285 568 1
286 116 1
286 167 1
286 201 1
286 232 1
286 283 1
286 317 1
286 585 1
286 617 1
286 651 1
287 117 1
287 168 1
287 202 1
287 233 1
287 284 1
287 318 1
287 586 1
287 618 1
287 652 1
288 118 1
288 169 1
288 203 1
288 234 1
288 285 1
288 319 1
288 587 1
288 619 1
288 653 1
289 119 1
289 170 1
289 204 1
289 235 1
289 267 1
289 320 1
289 588 1
289 620 1
289 654 1
290 120 1
290 171 1
290 205 1
290 236 1
290 268 1
290 321 1
290 589 1
290 621 1
290 655 1
291 121 1
291 153 1
291 206 1
291 237 1
291 269 1
291 322 1
291 571 1
291 622 1
291 656 1
292 122 1
292 154 1
292 207 1
292 238 1
292 270 1
292 323 1
292 572 1
292 623 1
292 657 1
293 123 1
293 155 1
293 208 1
293 239 1
293 271 1
293 305 1
293 573 1
293 624 1
293 658 1
294 124 1
294 156 1
294 209 1
294 240 1
294 272 1
294 306 1
294 574 1
294 625 1
294 659 1
295 125 1
295 157 1
295 191 1
295 241 1
295 273 1
295 307 1
295 575 1
295 626 1
295 660 1
296 126 1
296 158 1
296 192 1
296 242 1
296 274 1
296 308 1
296 576 1
296 627 1
296 661 1
297 127 1
297 159 1
297 193 1
297 243 1
297 275 1
297 309 1
297 577 1
297 609 1
297 662 1
298 128 1
298 160 1
298 194 1
298 244 1
298 276 1
298 310 1
298 578 1
298 610 1
298 663 1
299 129 1
299 161 1
299 195 1
299 245 1
299 277 1
299 311 1
299 579 1
299 611 1
299 664 1
300 130 1
300 162 1
300 196 1
300 246 1
300 278 1
300 312 1
300 580 1
300 612 1
300 665 1
301 131 1
301 163 1
301 197 1
301 247 1
301 279 1
301 313 1
301 581 1
301 613 1
301 647 1
302 132 1
302 164 1
302 198 1
302 229 1
302 280 1
302 314 1
302 582 1
302 614 1
302 648 1
303 133 1
303 165 1
303 199 1
303 230 1
303 281 1
303 315 1
303 583 1
303 615 1
303 649 1
304 115 1
304 166 1
304 200 1
304 231 1
304 282 1
304 316 1
304 584 1
304 616 1
304 650 1
305 149 1
305 167 1
305 215 1
305 265 1
305 283 1
305 331 1
305 599 1
305 617 1
305 684 1
306 150 1
306 168 1
306 216 1
306 266 1
306 284 1
306 332 1
306 600 1
306 618 1
306 666 1
307 151 1
307 169 1
307 217 1
307 248 1
307 285 1
307 333 1
307 601 1
307 619 1
307 667 1
308 152 1
308 170 1
308 218 1
308 249 1
308 267 1
308 334 1
308 602 1
308 620 1
308 668 1
309 134 1
309 171 1
309 219 1
309 250 1
309 268 1
309 335 1
309 603 1
309 621 1
309 669 1
310 135 1
310 153 1
310 220 1
310 251 1
310 269 1
310 336 1
310 604 1
310 622 1
310 670 1
311 136 1
311 154 1
311 221 1
311 252 1
311 270 1
311 337 1
311 605 1
311 623 1
311 671 1
312 137 1
312 155 1
312 222 1
312 253 1
312 271 1
312 338 1
312 606 1
312 624 1
312 672 1
313 138 1
313 156 1
313 223 1
313 254 1
313 272 1
313 339 1
313 607 1
313 625 1
313 673 1
314 139 1
314 157 1
314 224 1
314 255 1
314 273 1
314 340 1
314 608 1
314 626 1
314 674 1
315 140 1
315 158 1
315 225 1
315 256 1
315 274 1
315 341 1
315 590 1
315 627 1
315 675 1
316 141 1
316 159 1
316 226 1
316 257 1
316 275 1
316 342 1
316 591 1
316 609 1
316 676 1
317 142 1
317 160 1
317 227 1
317 258 1
317 276 1
317 324 1
317 592 1
317 610 1
317 677 1
318 143 1
318 161 1
318 228 1
318 259 1
318 277 1
318 325 1
318 593 1
318 611 1
318 678 1
319 144 1
319 162 1
319 210 1
319 260 1
319 278 1
319 326 1
319 594 1
319 612 1
319 679 1
320 145 1
320 163 1
320 211 1
320 261 1
320 279 1
320 327 1
320 595 1
320 613 1
320 680 1
321 146 1
321 164 1
321 212 1
321 262 1
321 280 1
321 328 1
321 596 1
321 614 1
321 681 1
322 147 1
322 165 1
322 213 1
322 263 1
322 281 1
322 329 1
322 597 1
322 615 1
322 682 1
323 148 1
323 166 1
323 214 1
323 264 1
323 282 1
323 330 1
323 598 1
323 616 1
323 683 1
324 182 1
324 201 1
324 215 1
324 298 1
324 317 1
324 331 1
324 632 1
324 651 1
324 684 1
325 183 1
325 202 1
325 216 1
325 299 1
325 318 1
325 332 1
325 633 1
325 652 1
325 666 1
326 184 1
326 203 1
326 217 1
326 300 1
326 319 1
326 333 1
326 634 1
326 653 1
326 667 1
327 185 1
327 204 1
327 218 1
327 301 1
327 320 1
327 334 1
327 635 1
327 654 1
327 668 1
328 186 1
328 205 1
328 219 1
328 302 1
328 321 1
328 335 1
328 636 1
328 655 1
328 669 1
329 187 1
329 206 1
329 220 1
329 303 1
329 322 1
329 336 1
329 637 1
329 656 1
329 670 1
330 188 1
330 207 1
330 221 1
330 304 1
330 323 1
330 337 1
330 638 1
330 657 1
330 671 1
331 189 1
331 208 1
331 222 1
331 286 1
331 305 1
331 338 1
331 639 1
331 658 1
331 672 1
332 190 1
332 209 1
332 223 1
332 287 1
332 306 1
332 339 1
332 640 1
332 659 1
332 673 1
333 172 1
333 191 1
333 224 1
333 288 1
333 307 1
333 340 1
333 641 1
333 660 1
333 674 1
334 173 1
334 192 1
334 225 1
334 289 1
334 308 1
334 341 1
334 642 1
334 661 1
334 675 1
335 174 1
335 193 1
335 226 1
335 290 1
335 309 1
335 342 1
335 643 1
335 662 1
335 676 1
336 175 1
336 194 1
336 227 1
336 291 1
336 310 1
336 324 1
336 644 1
336 663 1
336 677 1
337 176 1
337 195 1
337 228 1
337 292 1
337 311 1
337 325 1
337 645 1
337 664 1
337 678 1
338 177 1
338 196 1
338 210 1
338 293 1
338 312 1
338 326 1
338 646 1
338 665 1
338 679 1
339 178 1
339 197 1
339 211 1
339 294 1
339 313 1
339 327 1
339 628 1
339 647 1
339 680 1
340 179 1
340 198 1
340 212 1
340 295 1
340 314 1
340 328 1
340 629 1
340 648 1
340 681 1
341 180 1
341 199 1
341 213 1
341 296 1
341 315 1
341 329 1
341 630 1
341 649 1
341 682 1
342 181 1
342 200 1
342 214 1
342 297 1
342 316 1
342 330 1
342 631 1
342 650 1
342 683 1
