%%MatrixMarket matrix coordinate integer general
162 324 1458
1 1 1
1 28 1
1 37 1
1 55 1
1 82 1
1 91 1
1 163 1
1 190 1
1 199 1
2 2 1
2 29 1
2 38 1
2 56 1
2 83 1
2 92 1
2 164 1
2 191 1
2 200 1
3 3 1
3 30 1
3 39 1
3 57 1
3 84 1
3 93 1
3 165 1
3 192 1
3 201 1
4 4 1
4 31 1
4 40 1
4 58 1
4 85 1
4 94 1
4 166 1
4 193 1
4 202 1
5 5 1
5 32 1
5 41 1
5 59 1
5 86 1
5 95 1
5 167 1
5 194 1
5 203 1
6 6 1
6 33 1
6 42 1
6 60 1
6 87 1
6 96 1
6 168 1
6 195 1
6 204 1
7 7 1
7 34 1
7 43 1
7 61 1
7 88 1
7 97 1
7 169 1
7 196 1
7 205 1
8 8 1
8 35 1
8 44 1
8 62 1
8 89 1
8 98 1
8 170 1
8 197 1
8 206 1
9 9 1
9 36 1
9 45 1
9 63 1
9 90 1
9 99 1
9 171 1
9 198 1
9 207 1
10 10 1
10 28 1
10 46 1
10 64 1
10 82 1
10 100 1
10 172 1
10 190 1
10 208 1
11 11 1
11 29 1
11 47 1
11 65 1
11 83 1
11 101 1
11 173 1
11 191 1
11 209 1
12 12 1
12 30 1
12 48 1
12 66 1
12 84 1
12 102 1
12 174 1
12 192 1
12 210 1
13 13 1
13 31 1
13 49 1
13 67 1
13 85 1
13 103 1
13 175 1
13 193 1
13 211 1
14 14 1
14 32 1
14 50 1
14 68 1
14 86 1
14 104 1
14 176 1
14 194 1
14 212 1
15 15 1
15 33 1
15 51 1
15 69 1
15 87 1
15 105 1
15 177 1
15 195 1
15 213 1
16 16 1
16 34 1
16 52 1
16 70 1
16 88 1
16 106 1
16 178 1
16 196 1
16 214 1
17 17 1
17 35 1
17 53 1
17 71 1
17 89 1
17 107 1
17 179 1
17 197 1
17 215 1
18 18 1
18 36 1
18 54 1
18 72 1
18 90 1
18 108 1
18 180 1
18 198 1
18 216 1
19 19 1
19 37 1
19 46 1
19 73 1
19 91 1
19 100 1
19 181 1
19 199 1
19 208 1
20 20 1
20 38 1
20 47 1
20 74 1
20 92 1
20 101 1
20 182 1
20 200 1
20 209 1
21 21 1
21 39 1
21 48 1
21 75 1
21 93 1
21 102 1
21 183 1
21 201 1
21 210 1
22 22 1
22 40 1
22 49 1
22 76 1
22 94 1
22 103 1
22 184 1
22 202 1
22 211 1
23 23 1
23 41 1
23 50 1
23 77 1
23 95 1
23 104 1
23 185 1
23 203 1
23 212 1
24 24 1
24 42 1
24 51 1
24 78 1
24 96 1
24 105 1
24 186 1
24 204 1
24 213 1
25 25 1
25 43 1
25 52 1
25 79 1
25 97 1
25 106 1
25 187 1
25 205 1
25 214 1
26 26 1
26 44 1
26 53 1
26 80 1
26 98 1
26 107 1
26 188 1
26 206 1
26 215 1
27 27 1
27 45 1
27 54 1
27 81 1
27 99 1
27 108 1
27 189 1
27 207 1
27 216 1
28 1 1
28 28 1
28 37 1
28 109 1
28 136 1
28 145 1
28 217 1
28 244 1
28 253 1
29 2 1
29 29 1
29 38 1
29 110 1
29 137 1
29 146 1
29 218 1
29 245 1
29 254 1
30 3 1
30 30 1
30 39 1
30 111 1
30 138 1
30 147 1
30 219 1
30 246 1
30 255 1
31 4 1
31 31 1
31 40 1
31 112 1
31 139 1
31 148 1
31 220 1
31 247 1
31 256 1
32 5 1
32 32 1
32 41 1
32 113 1
32 140 1
32 149 1
32 221 1
32 248 1
32 257 1
33 6 1
33 33 1
33 42 1
33 114 1
33 141 1
33 150 1
33 222 1
33 249 1
33 258 1
34 7 1
34 34 1
34 43 1
34 115 1
34 142 1
34 151 1
34 223 1
34 250 1
34 259 1
35 8 1
35 35 1
35 44 1
35 116 1
35 143 1
35 152 1
35 224 1
35 251 1
35 260 1
36 9 1
36 36 1
36 45 1
36 117 1
36 144 1
36 153 1
36 225 1
36 252 1
36 261 1
37 10 1
37 28 1
37 46 1
37 118 1
37 136 1
37 154 1
37 226 1
37 244 1
37 262 1
38 11 1
38 29 1
38 47 1
38 119 1
38 137 1
38 155 1
38 227 1
38 245 1
38 263 1
39 12 1
39 30 1
39 48 1
39 120 1
39 138 1
39 156 1
39 228 1
39 246 1
39 264 1
40 13 1
40 31 1
40 49 1
40 121 1
40 139 1
40 157 1
40 229 1
40 247 1
40 265 1
41 14 1
41 32 1
41 50 1
41 122 1
41 140 1
41 158 1
41 230 1
41 248 1
41 266 1
42 15 1
42 33 1
42 51 1
42 123 1
42 141 1
42 159 1
42 231 1
42 249 1
42 267 1
43 16 1
43 34 1
43 52 1
43 124 1
43 142 1
43 160 1
43 232 1
43 250 1
43 268 1
44 17 1
44 35 1
44 53 1
44 125 1
44 143 1
44 161 1
44 233 1
44 251 1
44 269 1
45 18 1
45 36 1
45 54 1
45 126 1
45 144 1
45 162 1
45 234 1
45 252 1
45 270 1
46 19 1
46 37 1
46 46 1
46 127 1
46 145 1
46 154 1
46 235 1
46 253 1
46 262 1
47 20 1
47 38 1
47 47 1
47 128 1
47 146 1
47 155 1
47 236 1
47 254 1
47 263 1
48 21 1
48 39 1
48 48 1
48 129 1
48 147 1
48 156 1
48 237 1
48 255 1
48 264 1
49 22 1
49 40 1
49 49 1
49 130 1
49 148 1
49 157 1
49 238 1
49 256 1
49 265 1
50 23 1
50 41 1
50 50 1
50 131 1
50 149 1
50 158 1
50 239 1
50 257 1
50 266 1
51 24 1
51 42 1
51 51 1
51 132 1
51 150 1
51 159 1
51 240 1
51 258 1
51 267 1
52 25 1
52 43 1
52 52 1
52 133 1
52 151 1
52 160 1
52 241 1
52 259 1
52 268 1
53 26 1
53 44 1
53 53 1
53 134 1
53 152 1
53 161 1
53 242 1
53 260 1
53 269 1
54 27 1
54 45 1
54 54 1
54 135 1
54 153 1
54 162 1
54 243 1
54 261 1
54 270 1
55 55 1
55 82 1
55 91 1
55 109 1
55 136 1
55 145 1
55 271 1
55 298 1
55 307 1
56 56 1
56 83 1
56 92 1
56 110 1
56 137 1
56 146 1
56 272 1
56 299 1
56 308 1
57 57 1
57 84 1
57 93 1
57 111 1
57 138 1
57 147 1
57 273 1
57 300 1
57 309 1
58 58 1
58 85 1
58 94 1
58 112 1
58 139 1
58 148 1
58 274 1
58 301 1
58 310 1
59 59 1
59 86 1
59 95 1
59 113 1
59 140 1
59 149 1
59 275 1
59 302 1
59 311 1
60 60 1
60 87 1
60 96 1
60 114 1
60 141 1
60 150 1
60 276 1
60 303 1
60 312 1
61 61 1
61 88 1
61 97 1
61 115 1
61 142 1
61 151 1
61 277 1
61 304 1
61 313 1
62 62 1
62 89 1
62 98 1
62 116 1
62 143 1
62 152 1
62 278 1
62 305 1
62 314 1
63 63 1
63 90 1
63 99 1
63 117 1
63 144 1
63 153 1
63 279 1
63 306 1
63 315 1
64 64 1
64 82 1
64 100 1
64 118 1
64 136 1
64 154 1
64 280 1
64 298 1
64 316 1
65 65 1
65 83 1
65 101 1
65 119 1
65 137 1
65 155 1
65 281 1
65 299 1
65 317 1
66 66 1
66 84 1
66 102 1
66 120 1
66 138 1
66 156 1
66 282 1
66 300 1
66 318 1
67 67 1
67 85 1
67 103 1
67 121 1
67 139 1
67 157 1
67 283 1
67 301 1
67 319 1
68 68 1
68 86 1
68 104 1
68 122 1
68 140 1
68 158 1
68 284 1
68 302 1
68 320 1
69 69 1
69 87 1
69 105 1
69 123 1
69 141 1
69 159 1
69 285 1
69 303 1
69 321 1
70 70 1
70 88 1
70 106 1
70 124 1
70 142 1
70 160 1
70 286 1
70 304 1
70 322 1
71 71 1
71 89 1
71 107 1
71 125 1
71 143 1
71 161 1
71 287 1
71 305 1
71 323 1
72 72 1
72 90 1
72 108 1
72 126 1
72 144 1
72 162 1
72 288 1
72 306 1
72 324 1
73 73 1
73 91 1
73 100 1
73 127 1
73 145 1
73 154 1
73 289 1
73 307 1
73 316 1
74 74 1
74 92 1
74 101 1
74 128 1
74 146 1
74 155 1
74 290 1
74 308 1
74 317 1
75 75 1
75 93 1
75 102 1
75 129 1
75 147 1
75 156 1
75 291 1
75 309 1
75 318 1
76 76 1
76 94 1
76 103 1
76 130 1
76 148 1
76 157 1
76 292 1
76 310 1
76 319 1
77 77 1
77 95 1
77 104 1
77 131 1
77 149 1
77 158 1
77 293 1
77 311 1
77 320 1
78 78 1
78 96 1
78 105 1
78 132 1
78 150 1
78 159 1
78 294 1
78 312 1
78 321 1
79 79 1
79 97 1
79 106 1
79 133 1
79 151 1
79 160 1
79 295 1
79 313 1
79 322 1
80 80 1
80 98 1
80 107 1
80 134 1
80 152 1
80 161 1
80 296 1
80 314 1
80 323 1
81 81 1
81 99 1
81 108 1
81 135 1
81 153 1
81 162 1
81 297 1
81 315 1
81 324 1
82 1 1
82 35 1
82 40 1
82 111 1
82 137 1
82 151 1
82 275 1
82 301 1
82 312 1
83 2 1
83 36 1
83 39 1
83 113 1
83 139 1
83 150 1
83 277 1
83 300 1
83 314 1
84 3 1
84 29 1
84 43 1
84 114 1
84 140 1
84 153 1
84 278 1
84 304 1
84 307 1
85 4 1
85 28 1
85 41 1
85 115 1
85 138 1
85 152 1
85 276 1
85 302 1
85 315 1
86 5 1
86 31 1
86 42 1
86 116 1
86 142 1
86 145 1
86 279 1
86 303 1
86 308 1
87 6 1
87 32 1
87 45 1
87 109 1
87 143 1
87 148 1
87 272 1
87 306 1
87 309 1
88 7 1
88 30 1
88 44 1
88 117 1
88 141 1
88 146 1
88 271 1
88 305 1
88 310 1
89 8 1
89 34 1
89 37 1
89 110 1
89 144 1
89 147 1
89 274 1
89 298 1
89 311 1
90 9 1
90 33 1
90 38 1
90 112 1
90 136 1
90 149 1
90 273 1
90 299 1
90 313 1
91 10 1
91 27 1
91 40 1
91 120 1
91 130 1
91 151 1
91 284 1
91 291 1
91 312 1
92 11 1
92 19 1
92 39 1
92 122 1
92 129 1
92 150 1
92 286 1
92 293 1
92 314 1
93 12 1
93 22 1
93 43 1
93 123 1
93 133 1
93 153 1
93 287 1
93 294 1
93 307 1
94 13 1
94 20 1
94 41 1
94 124 1
94 131 1
94 152 1
94 285 1
94 295 1
94 315 1
95 14 1
95 21 1
95 42 1
95 125 1
95 132 1
95 145 1
95 288 1
95 296 1
95 308 1
96 15 1
96 25 1
96 45 1
96 118 1
96 135 1
96 148 1
96 281 1
96 289 1
96 309 1
97 16 1
97 23 1
97 44 1
97 126 1
97 134 1
97 146 1
97 280 1
97 297 1
97 310 1
98 17 1
98 24 1
98 37 1
98 119 1
98 127 1
98 147 1
98 283 1
98 290 1
98 311 1
99 18 1
99 26 1
99 38 1
99 121 1
99 128 1
99 149 1
99 282 1
99 292 1
99 313 1
100 27 1
100 35 1
100 47 1
100 130 1
100 137 1
100 158 1
100 291 1
100 301 1
100 322 1
101 19 1
101 36 1
101 49 1
101 129 1
101 139 1
101 160 1
101 293 1
101 300 1
101 321 1
102 22 1
102 29 1
102 50 1
102 133 1
102 140 1
102 161 1
102 294 1
102 304 1
102 324 1
103 20 1
103 28 1
103 48 1
103 131 1
103 138 1
103 159 1
103 295 1
103 302 1
103 323 1
104 21 1
104 31 1
104 52 1
104 132 1
104 142 1
104 162 1
104 296 1
104 303 1
104 316 1
105 25 1
105 32 1
105 53 1
105 135 1
105 143 1
105 155 1
105 289 1
105 306 1
105 319 1
106 23 1
106 30 1
106 51 1
106 134 1
106 141 1
106 154 1
106 297 1
106 305 1
106 317 1
107 24 1
107 34 1
107 54 1
107 127 1
107 144 1
107 157 1
107 290 1
107 298 1
107 318 1
108 26 1
108 33 1
108 46 1
108 128 1
108 136 1
108 156 1
108 292 1
108 299 1
108 320 1
109 1 1
109 35 1
109 40 1
109 165 1
109 191 1
109 205 1
109 220 1
109 244 1
109 257 1
110 2 1
110 36 1
110 39 1
110 167 1
110 193 1
110 204 1
110 219 1
110 245 1
110 259 1
111 3 1
111 29 1
111 43 1
111 168 1
111 194 1
111 207 1
111 223 1
111 246 1
111 260 1
112 4 1
112 28 1
112 41 1
112 169 1
112 192 1
112 206 1
112 221 1
112 247 1
112 258 1
113 5 1
113 31 1
113 42 1
113 170 1
113 196 1
113 199 1
113 222 1
113 248 1
113 261 1
114 6 1
114 32 1
114 45 1
114 163 1
114 197 1
114 202 1
114 225 1
114 249 1
114 254 1
115 7 1
115 30 1
115 44 1
115 171 1
115 195 1
115 200 1
115 224 1
115 250 1
115 253 1
116 8 1
116 34 1
116 37 1
116 164 1
116 198 1
116 201 1
116 217 1
116 251 1
116 256 1
117 9 1
117 33 1
117 38 1
117 166 1
117 190 1
117 203 1
117 218 1
117 252 1
117 255 1
118 10 1
118 27 1
118 40 1
118 174 1
118 184 1
118 205 1
118 229 1
118 236 1
118 257 1
119 11 1
119 19 1
119 39 1
119 176 1
119 183 1
119 204 1
119 228 1
119 238 1
119 259 1
120 12 1
120 22 1
120 43 1
120 177 1
120 187 1
120 207 1
120 232 1
120 239 1
120 260 1
121 13 1
121 20 1
121 41 1
121 178 1
121 185 1
121 206 1
121 230 1
121 237 1
121 258 1
122 14 1
122 21 1
122 42 1
122 179 1
122 186 1
122 199 1
122 231 1
122 241 1
122 261 1
123 15 1
123 25 1
123 45 1
123 172 1
123 189 1
123 202 1
123 234 1
123 242 1
123 254 1
124 16 1
124 23 1
124 44 1
124 180 1
124 188 1
124 200 1
124 233 1
124 240 1
124 253 1
125 17 1
125 24 1
125 37 1
125 173 1
125 181 1
125 201 1
125 226 1
125 243 1
125 256 1
126 18 1
126 26 1
126 38 1
126 175 1
126 182 1
126 203 1
126 227 1
126 235 1
126 255 1
127 27 1
127 35 1
127 47 1
127 184 1
127 191 1
127 212 1
127 236 1
127 244 1
127 264 1
128 19 1
128 36 1
128 49 1
128 183 1
128 193 1
128 214 1
128 238 1
128 245 1
128 266 1
129 22 1
129 29 1
129 50 1
129 187 1
129 194 1
129 215 1
129 239 1
129 246 1
129 267 1
130 20 1
130 28 1
130 48 1
130 185 1
130 192 1
130 213 1
130 237 1
130 247 1
130 268 1
131 21 1
131 31 1
131 52 1
131 186 1
131 196 1
131 216 1
131 241 1
131 248 1
131 269 1
132 25 1
132 32 1
132 53 1
132 189 1
132 197 1
132 209 1
132 242 1
132 249 1
132 262 1
133 23 1
133 30 1
133 51 1
133 188 1
133 195 1
133 208 1
133 240 1
133 250 1
133 270 1
134 24 1
134 34 1
134 54 1
134 181 1
134 198 1
134 211 1
134 243 1
134 251 1
134 263 1
135 26 1
135 33 1
135 46 1
135 182 1
135 190 1
135 210 1
135 235 1
135 252 1
135 265 1
136 56 1
136 90 1
136 93 1
136 111 1
136 137 1
136 151 1
136 220 1
136 244 1
136 257 1
137 58 1
137 82 1
137 95 1
137 113 1
137 139 1
137 150 1
137 219 1
137 245 1
137 259 1
138 59 1
138 85 1
138 96 1
138 114 1
138 140 1
138 153 1
138 223 1
138 246 1
138 260 1
139 57 1
139 83 1
139 97 1
139 115 1
139 138 1
139 152 1
139 221 1
139 247 1
139 258 1
140 61 1
140 84 1
140 98 1
140 116 1
140 142 1
140 145 1
140 222 1
140 248 1
140 261 1
141 62 1
141 88 1
141 91 1
141 109 1
141 143 1
141 148 1
141 225 1
141 249 1
141 254 1
142 60 1
142 86 1
142 99 1
142 117 1
142 141 1
142 146 1
142 224 1
142 250 1
142 253 1
143 63 1
143 87 1
143 92 1
143 110 1
143 144 1
143 147 1
143 217 1
143 251 1
143 256 1
144 55 1
144 89 1
144 94 1
144 112 1
144 136 1
144 149 1
144 218 1
144 252 1
144 255 1
145 65 1
145 73 1
145 93 1
145 120 1
145 130 1
145 151 1
145 229 1
145 236 1
145 257 1
146 67 1
146 74 1
146 95 1
146 122 1
146 129 1
146 150 1
146 228 1
146 238 1
146 259 1
147 68 1
147 75 1
147 96 1
147 123 1
147 133 1
147 153 1
147 232 1
147 239 1
147 260 1
148 66 1
148 76 1
148 97 1
148 124 1
148 131 1
148 152 1
148 230 1
148 237 1
148 258 1
149 70 1
149 77 1
149 98 1
149 125 1
149 132 1
149 145 1
149 231 1
149 241 1
149 261 1
150 71 1
150 78 1
150 91 1
150 118 1
150 135 1
150 148 1
150 234 1
150 242 1
150 254 1
151 69 1
151 79 1
151 99 1
151 126 1
151 134 1
151 146 1
151 233 1
151 240 1
151 253 1
152 72 1
152 80 1
152 92 1
152 119 1
152 127 1
152 147 1
152 226 1
152 243 1
152 256 1
153 64 1
153 81 1
153 94 1
153 121 1
153 128 1
153 149 1
153 227 1
153 235 1
153 255 1
154 73 1
154 90 1
154 103 1
154 130 1
154 137 1
154 158 1
154 236 1
154 244 1
154 264 1
155 74 1
155 82 1
155 102 1
155 129 1
155 139 1
155 160 1
155 238 1
155 245 1
155 266 1
156 75 1
156 85 1
156 106 1
156 133 1
156 140 1
156 161 1
156 239 1
156 246 1
156 267 1
157 76 1
157 83 1
157 104 1
157 131 1
157 138 1
157 159 1
157 237 1
157 247 1
157 268 1
158 77 1
158 84 1
158 105 1
158 132 1
158 142 1
158 162 1
158 241 1
158 248 1
158 269 1
159 78 1
159 88 1
159 108 1
159 135 1
159 143 1
159 155 1
159 242 1
159 249 1
159 262 1
160 79 1
160 86 1
160 107 1
160 134 1
160 141 1
160 154 1
160 240 1
160 250 1
160 270 1
161 80 1
161 87 1
161 100 1
161 127 1
161 144 1
161 157 1
161 243 1
161 251 1
161 263 1
162 81 1
162 89 1
162 101 1
162 128 1
162 136 1
162 156 1
162 235 1
162 252 1
162 265 1
