%%MatrixMarket matrix coordinate integer general
270 540 2430
1 1 1
1 34 1
1 71 1
1 271 1
1 304 1
1 341 1
1 361 1
1 394 1
1 431 1
2 2 1
2 31 1
2 73 1
2 272 1
2 301 1
2 343 1
2 362 1
2 391 1
2 433 1
3 3 1
3 37 1
3 74 1
3 273 1
3 307 1
3 344 1
3 363 1
3 397 1
3 434 1
4 4 1
4 32 1
4 69 1
4 274 1
4 302 1
4 339 1
4 364 1
4 392 1
4 429 1
5 5 1
5 33 1
5 75 1
5 275 1
5 303 1
5 345 1
5 365 1
5 393 1
5 435 1
6 6 1
6 40 1
6 62 1
6 276 1
6 310 1
6 332 1
6 366 1
6 400 1
6 422 1
7 7 1
7 35 1
7 72 1
7 277 1
7 305 1
7 342 1
7 367 1
7 395 1
7 432 1
8 8 1
8 36 1
8 64 1
8 278 1
8 306 1
8 334 1
8 368 1
8 396 1
8 424 1
9 9 1
9 43 1
9 65 1
9 279 1
9 313 1
9 335 1
9 369 1
9 403 1
9 425 1
10 10 1
10 38 1
10 61 1
10 280 1
10 308 1
10 331 1
10 370 1
10 398 1
10 421 1
11 11 1
11 39 1
11 67 1
11 281 1
11 309 1
11 337 1
11 371 1
11 399 1
11 427 1
12 12 1
12 45 1
12 68 1
12 282 1
12 315 1
12 338 1
12 372 1
12 405 1
12 428 1
13 13 1
13 41 1
13 63 1
13 283 1
13 311 1
13 333 1
13 373 1
13 401 1
13 423 1
14 14 1
14 42 1
14 70 1
14 284 1
14 312 1
14 340 1
14 374 1
14 402 1
14 430 1
15 15 1
15 44 1
15 66 1
15 285 1
15 314 1
15 336 1
15 375 1
15 404 1
15 426 1
16 1 1
16 58 1
16 78 1
16 271 1
16 328 1
16 348 1
16 361 1
16 418 1
16 438 1
17 2 1
17 54 1
17 80 1
17 272 1
17 324 1
17 350 1
17 362 1
17 414 1
17 440 1
18 3 1
18 60 1
18 81 1
18 273 1
18 330 1
18 351 1
18 363 1
18 420 1
18 441 1
19 4 1
19 56 1
19 82 1
19 274 1
19 326 1
19 352 1
19 364 1
19 416 1
19 442 1
20 5 1
20 57 1
20 83 1
20 275 1
20 327 1
20 353 1
20 365 1
20 417 1
20 443 1
21 6 1
21 49 1
21 84 1
21 276 1
21 319 1
21 354 1
21 366 1
21 409 1
21 444 1
22 7 1
22 59 1
22 85 1
22 277 1
22 329 1
22 355 1
22 367 1
22 419 1
22 445 1
23 8 1
23 46 1
23 86 1
23 278 1
23 316 1
23 356 1
23 368 1
23 406 1
23 446 1
24 9 1
24 52 1
24 87 1
24 279 1
24 322 1
24 357 1
24 369 1
24 412 1
24 447 1
25 10 1
25 47 1
25 88 1
25 280 1
25 317 1
25 358 1
25 370 1
25 407 1
25 448 1
26 11 1
26 48 1
26 89 1
26 281 1
26 318 1
26 359 1
26 371 1
26 408 1
26 449 1
27 12 1
27 55 1
27 76 1
27 282 1
27 325 1
27 346 1
27 372 1
27 415 1
27 436 1
28 13 1
28 50 1
28 90 1
28 283 1
28 320 1
28 360 1
28 373 1
28 410 1
28 450 1
29 14 1
29 51 1
29 77 1
29 284 1
29 321 1
29 347 1
29 374 1
29 411 1
29 437 1
30 15 1
30 53 1
30 79 1
30 285 1
30 323 1
30 349 1
30 375 1
30 413 1
30 439 1
31 16 1
31 34 1
31 58 1
31 286 1
31 304 1
31 328 1
31 376 1
31 394 1
31 418 1
32 17 1
32 31 1
32 54 1
32 287 1
32 301 1
32 324 1
32 377 1
32 391 1
32 414 1
33 18 1
33 37 1
33 60 1
33 288 1
33 307 1
33 330 1
33 378 1
33 397 1
33 420 1
34 19 1
34 32 1
34 56 1
34 289 1
34 302 1
34 326 1
34 379 1
34 392 1
34 416 1
35 20 1
35 33 1
35 57 1
35 290 1
35 303 1
35 327 1
35 380 1
35 393 1
35 417 1
36 21 1
36 40 1
36 49 1
36 291 1
36 310 1
36 319 1
36 381 1
36 400 1
36 409 1
37 22 1
37 35 1
37 59 1
37 292 1
37 305 1
37 329 1
37 382 1
37 395 1
37 419 1
38 23 1
38 36 1
38 46 1
38 293 1
38 306 1
38 316 1
38 383 1
38 396 1
38 406 1
39 24 1
39 43 1
39 52 1
39 294 1
39 313 1
39 322 1
39 384 1
39 403 1
39 412 1
40 25 1
40 38 1
40 47 1
40 295 1
40 308 1
40 317 1
40 385 1
40 398 1
40 407 1
41 26 1
41 39 1
41 48 1
41 296 1
41 309 1
41 318 1
41 386 1
41 399 1
41 408 1
42 27 1
42 45 1
42 55 1
42 297 1
42 315 1
42 325 1
42 387 1
42 405 1
42 415 1
43 28 1
43 41 1
43 50 1
43 298 1
43 311 1
43 320 1
43 388 1
43 401 1
43 410 1
44 29 1
44 42 1
44 51 1
44 299 1
44 312 1
44 321 1
44 389 1
44 402 1
44 411 1
45 30 1
45 44 1
45 53 1
45 300 1
45 314 1
45 323 1
45 390 1
45 404 1
45 413 1
46 91 1
46 124 1
46 161 1
46 271 1
46 304 1
46 341 1
46 451 1
46 484 1
46 521 1
47 92 1
47 121 1
47 163 1
47 272 1
47 301 1
47 343 1
47 452 1
47 481 1
47 523 1
48 93 1
48 127 1
48 164 1
48 273 1
48 307 1
48 344 1
48 453 1
48 487 1
48 524 1
49 94 1
49 122 1
49 159 1
49 274 1
49 302 1
49 339 1
49 454 1
49 482 1
49 519 1
50 95 1
50 123 1
50 165 1
50 275 1
50 303 1
50 345 1
50 455 1
50 483 1
50 525 1
51 96 1
51 130 1
51 152 1
51 276 1
51 310 1
51 332 1
51 456 1
51 490 1
51 512 1
52 97 1
52 125 1
52 162 1
52 277 1
52 305 1
52 342 1
52 457 1
52 485 1
52 522 1
53 98 1
53 126 1
53 154 1
53 278 1
53 306 1
53 334 1
53 458 1
53 486 1
53 514 1
54 99 1
54 133 1
54 155 1
54 279 1
54 313 1
54 335 1
54 459 1
54 493 1
54 515 1
55 100 1
55 128 1
55 151 1
55 280 1
55 308 1
55 331 1
55 460 1
55 488 1
55 511 1
56 101 1
56 129 1
56 157 1
56 281 1
56 309 1
56 337 1
56 461 1
56 489 1
56 517 1
57 102 1
57 135 1
57 158 1
57 282 1
57 315 1
57 338 1
57 462 1
57 495 1
57 518 1
58 103 1
58 131 1
58 153 1
58 283 1
58 311 1
58 333 1
58 463 1
58 491 1
58 513 1
59 104 1
59 132 1
59 160 1
59 284 1
59 312 1
59 340 1
59 464 1
59 492 1
59 520 1
60 105 1
60 134 1
60 156 1
60 285 1
60 314 1
60 336 1
60 465 1
60 494 1
60 516 1
61 91 1
61 148 1
61 168 1
61 271 1
61 328 1
61 348 1
61 451 1
61 508 1
61 528 1
62 92 1
62 144 1
62 170 1
62 272 1
62 324 1
62 350 1
62 452 1
62 504 1
62 530 1
63 93 1
63 150 1
63 171 1
63 273 1
63 330 1
63 351 1
63 453 1
63 510 1
63 531 1
64 94 1
64 146 1
64 172 1
64 274 1
64 326 1
64 352 1
64 454 1
64 506 1
64 532 1
65 95 1
65 147 1
65 173 1
65 275 1
65 327 1
65 353 1
65 455 1
65 507 1
65 533 1
66 96 1
66 139 1
66 174 1
66 276 1
66 319 1
66 354 1
66 456 1
66 499 1
66 534 1
67 97 1
67 149 1
67 175 1
67 277 1
67 329 1
67 355 1
67 457 1
67 509 1
67 535 1
68 98 1
68 136 1
68 176 1
68 278 1
68 316 1
68 356 1
68 458 1
68 496 1
68 536 1
69 99 1
69 142 1
69 177 1
69 279 1
69 322 1
69 357 1
69 459 1
69 502 1
69 537 1
70 100 1
70 137 1
70 178 1
70 280 1
70 317 1
70 358 1
70 460 1
70 497 1
70 538 1
71 101 1
71 138 1
71 179 1
71 281 1
71 318 1
71 359 1
71 461 1
71 498 1
71 539 1
72 102 1
72 145 1
72 166 1
72 282 1
72 325 1
72 346 1
72 462 1
72 505 1
72 526 1
73 103 1
73 140 1
73 180 1
73 283 1
73 320 1
73 360 1
73 463 1
73 500 1
73 540 1
74 104 1
74 141 1
74 167 1
74 284 1
74 321 1
74 347 1
74 464 1
74 501 1
74 527 1
75 105 1
75 143 1
75 169 1
75 285 1
75 323 1
75 349 1
75 465 1
75 503 1
75 529 1
76 106 1
76 124 1
76 148 1
76 286 1
76 304 1
76 328 1
76 466 1
76 484 1
76 508 1
77 107 1
77 121 1
77 144 1
77 287 1
77 301 1
77 324 1
77 467 1
77 481 1
77 504 1
78 108 1
78 127 1
78 150 1
78 288 1
78 307 1
78 330 1
78 468 1
78 487 1
78 510 1
79 109 1
79 122 1
79 146 1
79 289 1
79 302 1
79 326 1
79 469 1
79 482 1
79 506 1
80 110 1
80 123 1
80 147 1
80 290 1
80 303 1
80 327 1
80 470 1
80 483 1
80 507 1
81 111 1
81 130 1
81 139 1
81 291 1
81 310 1
81 319 1
81 471 1
81 490 1
81 499 1
82 112 1
82 125 1
82 149 1
82 292 1
82 305 1
82 329 1
82 472 1
82 485 1
82 509 1
83 113 1
83 126 1
83 136 1
83 293 1
83 306 1
83 316 1
83 473 1
83 486 1
83 496 1
84 114 1
84 133 1
84 142 1
84 294 1
84 313 1
84 322 1
84 474 1
84 493 1
84 502 1
85 115 1
85 128 1
85 137 1
85 295 1
85 308 1
85 317 1
85 475 1
85 488 1
85 497 1
86 116 1
86 129 1
86 138 1
86 296 1
86 309 1
86 318 1
86 476 1
86 489 1
86 498 1
87 117 1
87 135 1
87 145 1
87 297 1
87 315 1
87 325 1
87 477 1
87 495 1
87 505 1
88 118 1
88 131 1
88 140 1
88 298 1
88 311 1
88 320 1
88 478 1
88 491 1
88 500 1
89 119 1
89 132 1
89 141 1
89 299 1
89 312 1
89 321 1
89 479 1
89 492 1
89 501 1
90 120 1
90 134 1
90 143 1
90 300 1
90 314 1
90 323 1
90 480 1
90 494 1
90 503 1
91 181 1
91 214 1
91 251 1
91 361 1
91 394 1
91 431 1
91 451 1
91 484 1
91 521 1
92 182 1
92 211 1
92 253 1
92 362 1
92 391 1
92 433 1
92 452 1
92 481 1
92 523 1
93 183 1
93 217 1
93 254 1
93 363 1
93 397 1
93 434 1
93 453 1
93 487 1
93 524 1
94 184 1
94 212 1
94 249 1
94 364 1
94 392 1
94 429 1
94 454 1
94 482 1
94 519 1
95 185 1
95 213 1
95 255 1
95 365 1
95 393 1
95 435 1
95 455 1
95 483 1
95 525 1
96 186 1
96 220 1
96 242 1
96 366 1
96 400 1
96 422 1
96 456 1
96 490 1
96 512 1
97 187 1
97 215 1
97 252 1
97 367 1
97 395 1
97 432 1
97 457 1
97 485 1
97 522 1
98 188 1
98 216 1
98 244 1
98 368 1
98 396 1
98 424 1
98 458 1
98 486 1
98 514 1
99 189 1
99 223 1
99 245 1
99 369 1
99 403 1
99 425 1
99 459 1
99 493 1
99 515 1
100 190 1
100 218 1
100 241 1
100 370 1
100 398 1
100 421 1
100 460 1
100 488 1
100 511 1
101 191 1
101 219 1
101 247 1
101 371 1
101 399 1
101 427 1
101 461 1
101 489 1
101 517 1
102 192 1
102 225 1
102 248 1
102 372 1
102 405 1
102 428 1
102 462 1
102 495 1
102 518 1
103 193 1
103 221 1
103 243 1
103 373 1
103 401 1
103 423 1
103 463 1
103 491 1
103 513 1
104 194 1
104 222 1
104 250 1
104 374 1
104 402 1
104 430 1
104 464 1
104 492 1
104 520 1
105 195 1
105 224 1
105 246 1
105 375 1
105 404 1
105 426 1
105 465 1
105 494 1
105 516 1
106 181 1
106 238 1
106 258 1
106 361 1
106 418 1
106 438 1
106 451 1
106 508 1
106 528 1
107 182 1
107 234 1
107 260 1
107 362 1
107 414 1
107 440 1
107 452 1
107 504 1
107 530 1
108 183 1
108 240 1
108 261 1
108 363 1
108 420 1
108 441 1
108 453 1
108 510 1
108 531 1
109 184 1
109 236 1
109 262 1
109 364 1
109 416 1
109 442 1
109 454 1
109 506 1
109 532 1
110 185 1
110 237 1
110 263 1
110 365 1
110 417 1
110 443 1
110 455 1
110 507 1
110 533 1
111 186 1
111 229 1
111 264 1
111 366 1
111 409 1
111 444 1
111 456 1
111 499 1
111 534 1
112 187 1
112 239 1
112 265 1
112 367 1
112 419 1
112 445 1
112 457 1
112 509 1
112 535 1
113 188 1
113 226 1
113 266 1
113 368 1
113 406 1
113 446 1
113 458 1
113 496 1
113 536 1
114 189 1
114 232 1
114 267 1
114 369 1
114 412 1
114 447 1
114 459 1
114 502 1
114 537 1
115 190 1
115 227 1
115 268 1
115 370 1
115 407 1
115 448 1
115 460 1
115 497 1
115 538 1
116 191 1
116 228 1
116 269 1
116 371 1
116 408 1
116 449 1
116 461 1
116 498 1
116 539 1
117 192 1
117 235 1
117 256 1
117 372 1
117 415 1
117 436 1
117 462 1
117 505 1
117 526 1
118 193 1
118 230 1
118 270 1
118 373 1
118 410 1
118 450 1
118 463 1
118 500 1
118 540 1
119 194 1
119 231 1
119 257 1
119 374 1
119 411 1
119 437 1
119 464 1
119 501 1
119 527 1
120 195 1
120 233 1
120 259 1
120 375 1
120 413 1
120 439 1
120 465 1
120 503 1
120 529 1
121 196 1
121 214 1
121 238 1
121 376 1
121 394 1
121 418 1
121 466 1
121 484 1
121 508 1
122 197 1
122 211 1
122 234 1
122 377 1
122 391 1
122 414 1
122 467 1
122 481 1
122 504 1
123 198 1
123 217 1
123 240 1
123 378 1
123 397 1
123 420 1
123 468 1
123 487 1
123 510 1
124 199 1
124 212 1
124 236 1
124 379 1
124 392 1
124 416 1
124 469 1
124 482 1
124 506 1
125 200 1
125 213 1
125 237 1
125 380 1
125 393 1
125 417 1
125 470 1
125 483 1
125 507 1
126 201 1
126 220 1
126 229 1
126 381 1
126 400 1
126 409 1
126 471 1
126 490 1
126 499 1
127 202 1
127 215 1
127 239 1
127 382 1
127 395 1
127 419 1
127 472 1
127 485 1
127 509 1
128 203 1
128 216 1
128 226 1
128 383 1
128 396 1
128 406 1
128 473 1
128 486 1
128 496 1
129 204 1
129 223 1
129 232 1
129 384 1
129 403 1
129 412 1
129 474 1
129 493 1
129 502 1
130 205 1
130 218 1
130 227 1
130 385 1
130 398 1
130 407 1
130 475 1
130 488 1
130 497 1
131 206 1
131 219 1
131 228 1
131 386 1
131 399 1
131 408 1
131 476 1
131 489 1
131 498 1
132 207 1
132 225 1
132 235 1
132 387 1
132 405 1
132 415 1
132 477 1
132 495 1
132 505 1
133 208 1
133 221 1
133 230 1
133 388 1
133 401 1
133 410 1
133 478 1
133 491 1
133 500 1
134 209 1
134 222 1
134 231 1
134 389 1
134 402 1
134 411 1
134 479 1
134 492 1
134 501 1
135 210 1
135 224 1
135 233 1
135 390 1
135 404 1
135 413 1
135 480 1
135 494 1
135 503 1
136 1 1
136 16 1
136 46 1
136 373 1
136 388 1
136 418 1
136 464 1
136 479 1
136 509 1
137 2 1
137 17 1
137 47 1
137 369 1
137 384 1
137 414 1
137 465 1
137 480 1
137 510 1
138 3 1
138 18 1
138 48 1
138 375 1
138 390 1
138 420 1
138 452 1
138 467 1
138 497 1
139 4 1
139 19 1
139 49 1
139 371 1
139 386 1
139 416 1
139 462 1
139 477 1
139 507 1
140 5 1
140 20 1
140 50 1
140 372 1
140 387 1
140 417 1
140 454 1
140 469 1
140 499 1
141 6 1
141 21 1
141 51 1
141 364 1
141 379 1
141 409 1
141 455 1
141 470 1
141 500 1
142 7 1
142 22 1
142 52 1
142 374 1
142 389 1
142 419 1
142 451 1
142 466 1
142 496 1
143 8 1
143 23 1
143 53 1
143 361 1
143 376 1
143 406 1
143 457 1
143 472 1
143 502 1
144 9 1
144 24 1
144 54 1
144 367 1
144 382 1
144 412 1
144 458 1
144 473 1
144 503 1
145 10 1
145 25 1
145 55 1
145 362 1
145 377 1
145 407 1
145 453 1
145 468 1
145 498 1
146 11 1
146 26 1
146 56 1
146 363 1
146 378 1
146 408 1
146 460 1
146 475 1
146 505 1
147 12 1
147 27 1
147 57 1
147 370 1
147 385 1
147 415 1
147 461 1
147 476 1
147 506 1
148 13 1
148 28 1
148 58 1
148 365 1
148 380 1
148 410 1
148 456 1
148 471 1
148 501 1
149 14 1
149 29 1
149 59 1
149 366 1
149 381 1
149 411 1
149 463 1
149 478 1
149 508 1
150 15 1
150 30 1
150 60 1
150 368 1
150 383 1
150 413 1
150 459 1
150 474 1
150 504 1
151 1 1
151 31 1
151 61 1
151 373 1
151 403 1
151 433 1
151 464 1
151 494 1
151 524 1
152 2 1
152 32 1
152 62 1
152 369 1
152 399 1
152 429 1
152 465 1
152 495 1
152 525 1
153 3 1
153 33 1
153 63 1
153 375 1
153 405 1
153 435 1
153 452 1
153 482 1
153 512 1
154 4 1
154 34 1
154 64 1
154 371 1
154 401 1
154 431 1
154 462 1
154 492 1
154 522 1
155 5 1
155 35 1
155 65 1
155 372 1
155 402 1
155 432 1
155 454 1
155 484 1
155 514 1
156 6 1
156 36 1
156 66 1
156 364 1
156 394 1
156 424 1
156 455 1
156 485 1
156 515 1
157 7 1
157 37 1
157 67 1
157 374 1
157 404 1
157 434 1
157 451 1
157 481 1
157 511 1
158 8 1
158 38 1
158 68 1
158 361 1
158 391 1
158 421 1
158 457 1
158 487 1
158 517 1
159 9 1
159 39 1
159 69 1
159 367 1
159 397 1
159 427 1
159 458 1
159 488 1
159 518 1
160 10 1
160 40 1
160 70 1
160 362 1
160 392 1
160 422 1
160 453 1
160 483 1
160 513 1
161 11 1
161 41 1
161 71 1
161 363 1
161 393 1
161 423 1
161 460 1
161 490 1
161 520 1
162 12 1
162 42 1
162 72 1
162 370 1
162 400 1
162 430 1
162 461 1
162 491 1
162 521 1
163 13 1
163 43 1
163 73 1
163 365 1
163 395 1
163 425 1
163 456 1
163 486 1
163 516 1
164 14 1
164 44 1
164 74 1
164 366 1
164 396 1
164 426 1
164 463 1
164 493 1
164 523 1
165 15 1
165 45 1
165 75 1
165 368 1
165 398 1
165 428 1
165 459 1
165 489 1
165 519 1
166 16 1
166 31 1
166 76 1
166 388 1
166 403 1
166 448 1
166 479 1
166 494 1
166 539 1
167 17 1
167 32 1
167 77 1
167 384 1
167 399 1
167 444 1
167 480 1
167 495 1
167 540 1
168 18 1
168 33 1
168 78 1
168 390 1
168 405 1
168 450 1
168 467 1
168 482 1
168 527 1
169 19 1
169 34 1
169 79 1
169 386 1
169 401 1
169 446 1
169 477 1
169 492 1
169 537 1
170 20 1
170 35 1
170 80 1
170 387 1
170 402 1
170 447 1
170 469 1
170 484 1
170 529 1
171 21 1
171 36 1
171 81 1
171 379 1
171 394 1
171 439 1
171 470 1
171 485 1
171 530 1
172 22 1
172 37 1
172 82 1
172 389 1
172 404 1
172 449 1
172 466 1
172 481 1
172 526 1
173 23 1
173 38 1
173 83 1
173 376 1
173 391 1
173 436 1
173 472 1
173 487 1
173 532 1
174 24 1
174 39 1
174 84 1
174 382 1
174 397 1
174 442 1
174 473 1
174 488 1
174 533 1
175 25 1
175 40 1
175 85 1
175 377 1
175 392 1
175 437 1
175 468 1
175 483 1
175 528 1
176 26 1
176 41 1
176 86 1
176 378 1
176 393 1
176 438 1
176 475 1
176 490 1
176 535 1
177 27 1
177 42 1
177 87 1
177 385 1
177 400 1
177 445 1
177 476 1
177 491 1
177 536 1
178 28 1
178 43 1
178 88 1
178 380 1
178 395 1
178 440 1
178 471 1
178 486 1
178 531 1
179 29 1
179 44 1
179 89 1
179 381 1
179 396 1
179 441 1
179 478 1
179 493 1
179 538 1
180 30 1
180 45 1
180 90 1
180 383 1
180 398 1
180 443 1
180 474 1
180 489 1
180 534 1
181 97 1
181 112 1
181 142 1
181 188 1
181 203 1
181 233 1
181 464 1
181 479 1
181 509 1
182 93 1
182 108 1
182 138 1
182 190 1
182 205 1
182 235 1
182 465 1
182 480 1
182 510 1
183 100 1
183 115 1
183 145 1
183 191 1
183 206 1
183 236 1
183 452 1
183 467 1
183 497 1
184 95 1
184 110 1
184 140 1
184 186 1
184 201 1
184 231 1
184 462 1
184 477 1
184 507 1
185 96 1
185 111 1
185 141 1
185 193 1
185 208 1
185 238 1
185 454 1
185 469 1
185 499 1
186 103 1
186 118 1
186 148 1
186 194 1
186 209 1
186 239 1
186 455 1
186 470 1
186 500 1
187 98 1
187 113 1
187 143 1
187 189 1
187 204 1
187 234 1
187 451 1
187 466 1
187 496 1
188 99 1
188 114 1
188 144 1
188 195 1
188 210 1
188 240 1
188 457 1
188 472 1
188 502 1
189 105 1
189 120 1
189 150 1
189 182 1
189 197 1
189 227 1
189 458 1
189 473 1
189 503 1
190 101 1
190 116 1
190 146 1
190 192 1
190 207 1
190 237 1
190 453 1
190 468 1
190 498 1
191 102 1
191 117 1
191 147 1
191 184 1
191 199 1
191 229 1
191 460 1
191 475 1
191 505 1
192 94 1
192 109 1
192 139 1
192 185 1
192 200 1
192 230 1
192 461 1
192 476 1
192 506 1
193 104 1
193 119 1
193 149 1
193 181 1
193 196 1
193 226 1
193 456 1
193 471 1
193 501 1
194 91 1
194 106 1
194 136 1
194 187 1
194 202 1
194 232 1
194 463 1
194 478 1
194 508 1
195 92 1
195 107 1
195 137 1
195 183 1
195 198 1
195 228 1
195 459 1
195 474 1
195 504 1
196 97 1
196 127 1
196 157 1
196 188 1
196 218 1
196 248 1
196 464 1
196 494 1
196 524 1
197 93 1
197 123 1
197 153 1
197 190 1
197 220 1
197 250 1
197 465 1
197 495 1
197 525 1
198 100 1
198 130 1
198 160 1
198 191 1
198 221 1
198 251 1
198 452 1
198 482 1
198 512 1
199 95 1
199 125 1
199 155 1
199 186 1
199 216 1
199 246 1
199 462 1
199 492 1
199 522 1
200 96 1
200 126 1
200 156 1
200 193 1
200 223 1
200 253 1
200 454 1
200 484 1
200 514 1
201 103 1
201 133 1
201 163 1
201 194 1
201 224 1
201 254 1
201 455 1
201 485 1
201 515 1
202 98 1
202 128 1
202 158 1
202 189 1
202 219 1
202 249 1
202 451 1
202 481 1
202 511 1
203 99 1
203 129 1
203 159 1
203 195 1
203 225 1
203 255 1
203 457 1
203 487 1
203 517 1
204 105 1
204 135 1
204 165 1
204 182 1
204 212 1
204 242 1
204 458 1
204 488 1
204 518 1
205 101 1
205 131 1
205 161 1
205 192 1
205 222 1
205 252 1
205 453 1
205 483 1
205 513 1
206 102 1
206 132 1
206 162 1
206 184 1
206 214 1
206 244 1
206 460 1
206 490 1
206 520 1
207 94 1
207 124 1
207 154 1
207 185 1
207 215 1
207 245 1
207 461 1
207 491 1
207 521 1
208 104 1
208 134 1
208 164 1
208 181 1
208 211 1
208 241 1
208 456 1
208 486 1
208 516 1
209 91 1
209 121 1
209 151 1
209 187 1
209 217 1
209 247 1
209 463 1
209 493 1
209 523 1
210 92 1
210 122 1
210 152 1
210 183 1
210 213 1
210 243 1
210 459 1
210 489 1
210 519 1
211 112 1
211 127 1
211 172 1
211 203 1
211 218 1
211 263 1
211 479 1
211 494 1
211 539 1
212 108 1
212 123 1
212 168 1
212 205 1
212 220 1
212 265 1
212 480 1
212 495 1
212 540 1
213 115 1
213 130 1
213 175 1
213 206 1
213 221 1
213 266 1
213 467 1
213 482 1
213 527 1
214 110 1
214 125 1
214 170 1
214 201 1
214 216 1
214 261 1
214 477 1
214 492 1
214 537 1
215 111 1
215 126 1
215 171 1
215 208 1
215 223 1
215 268 1
215 469 1
215 484 1
215 529 1
216 118 1
216 133 1
216 178 1
216 209 1
216 224 1
216 269 1
216 470 1
216 485 1
216 530 1
217 113 1
217 128 1
217 173 1
217 204 1
217 219 1
217 264 1
217 466 1
217 481 1
217 526 1
218 114 1
218 129 1
218 174 1
218 210 1
218 225 1
218 270 1
218 472 1
218 487 1
218 532 1
219 120 1
219 135 1
219 180 1
219 197 1
219 212 1
219 257 1
219 473 1
219 488 1
219 533 1
220 116 1
220 131 1
220 176 1
220 207 1
220 222 1
220 267 1
220 468 1
220 483 1
220 528 1
221 117 1
221 132 1
221 177 1
221 199 1
221 214 1
221 259 1
221 475 1
221 490 1
221 535 1
222 109 1
222 124 1
222 169 1
222 200 1
222 215 1
222 260 1
222 476 1
222 491 1
222 536 1
223 119 1
223 134 1
223 179 1
223 196 1
223 211 1
223 256 1
223 471 1
223 486 1
223 531 1
224 106 1
224 121 1
224 166 1
224 202 1
224 217 1
224 262 1
224 478 1
224 493 1
224 538 1
225 107 1
225 122 1
225 167 1
225 198 1
225 213 1
225 258 1
225 474 1
225 489 1
225 534 1
226 188 1
226 203 1
226 233 1
226 278 1
226 293 1
226 323 1
226 373 1
226 388 1
226 418 1
227 190 1
227 205 1
227 235 1
227 280 1
227 295 1
227 325 1
227 369 1
227 384 1
227 414 1
228 191 1
228 206 1
228 236 1
228 281 1
228 296 1
228 326 1
228 375 1
228 390 1
228 420 1
229 186 1
229 201 1
229 231 1
229 276 1
229 291 1
229 321 1
229 371 1
229 386 1
229 416 1
230 193 1
230 208 1
230 238 1
230 283 1
230 298 1
230 328 1
230 372 1
230 387 1
230 417 1
231 194 1
231 209 1
231 239 1
231 284 1
231 299 1
231 329 1
231 364 1
231 379 1
231 409 1
232 189 1
232 204 1
232 234 1
232 279 1
232 294 1
232 324 1
232 374 1
232 389 1
232 419 1
233 195 1
233 210 1
233 240 1
233 285 1
233 300 1
233 330 1
233 361 1
233 376 1
233 406 1
234 182 1
234 197 1
234 227 1
234 272 1
234 287 1
234 317 1
234 367 1
234 382 1
234 412 1
235 192 1
235 207 1
235 237 1
235 282 1
235 297 1
235 327 1
235 362 1
235 377 1
235 407 1
236 184 1
236 199 1
236 229 1
236 274 1
236 289 1
236 319 1
236 363 1
236 378 1
236 408 1
237 185 1
237 200 1
237 230 1
237 275 1
237 290 1
237 320 1
237 370 1
237 385 1
237 415 1
238 181 1
238 196 1
238 226 1
238 271 1
238 286 1
238 316 1
238 365 1
238 380 1
238 410 1
239 187 1
239 202 1
239 232 1
239 277 1
239 292 1
239 322 1
239 366 1
239 381 1
239 411 1
240 183 1
240 198 1
240 228 1
240 273 1
240 288 1
240 318 1
240 368 1
240 383 1
240 413 1
241 188 1
241 218 1
241 248 1
241 278 1
241 308 1
241 338 1
241 373 1
241 403 1
241 433 1
242 190 1
242 220 1
242 250 1
242 280 1
242 310 1
242 340 1
242 369 1
242 399 1
242 429 1
243 191 1
243 221 1
243 251 1
243 281 1
243 311 1
243 341 1
243 375 1
243 405 1
243 435 1
244 186 1
244 216 1
244 246 1
244 276 1
244 306 1
244 336 1
244 371 1
244 401 1
244 431 1
245 193 1
245 223 1
245 253 1
245 283 1
245 313 1
245 343 1
245 372 1
245 402 1
245 432 1
246 194 1
246 224 1
246 254 1
246 284 1
246 314 1
246 344 1
246 364 1
246 394 1
246 424 1
247 189 1
247 219 1
247 249 1
247 279 1
247 309 1
247 339 1
247 374 1
247 404 1
247 434 1
248 195 1
248 225 1
248 255 1
248 285 1
248 315 1
248 345 1
248 361 1
248 391 1
248 421 1
249 182 1
249 212 1
249 242 1
249 272 1
249 302 1
249 332 1
249 367 1
249 397 1
249 427 1
250 192 1
250 222 1
250 252 1
250 282 1
250 312 1
250 342 1
250 362 1
250 392 1
250 422 1
251 184 1
251 214 1
251 244 1
251 274 1
251 304 1
251 334 1
251 363 1
251 393 1
251 423 1
252 185 1
252 215 1
252 245 1
252 275 1
252 305 1
252 335 1
252 370 1
252 400 1
252 430 1
253 181 1
253 211 1
253 241 1
253 271 1
253 301 1
253 331 1
253 365 1
253 395 1
253 425 1
254 187 1
254 217 1
254 247 1
254 277 1
254 307 1
254 337 1
254 366 1
254 396 1
254 426 1
255 183 1
255 213 1
255 243 1
255 273 1
255 303 1
255 333 1
255 368 1
255 398 1
255 428 1
256 203 1
256 218 1
256 263 1
256 293 1
256 308 1
256 353 1
256 388 1
256 403 1
256 448 1
257 205 1
257 220 1
257 265 1
257 295 1
257 310 1
257 355 1
257 384 1
257 399 1
257 444 1
258 206 1
258 221 1
258 266 1
258 296 1
258 311 1
258 356 1
258 390 1
258 405 1
258 450 1
259 201 1
259 216 1
259 261 1
259 291 1
259 306 1
259 351 1
259 386 1
259 401 1
259 446 1
260 208 1
260 223 1
260 268 1
260 298 1
260 313 1
260 358 1
260 387 1
260 402 1
260 447 1
261 209 1
261 224 1
261 269 1
261 299 1
261 314 1
261 359 1
261 379 1
261 394 1
261 439 1
262 204 1
262 219 1
262 264 1
262 294 1
262 309 1
262 354 1
262 389 1
262 404 1
262 449 1
263 210 1
263 225 1
263 270 1
263 300 1
263 315 1
263 360 1
263 376 1
263 391 1
263 436 1
264 197 1
264 212 1
264 257 1
264 287 1
264 302 1
264 347 1
264 382 1
264 397 1
264 442 1
265 207 1
265 222 1
265 267 1
265 297 1
265 312 1
265 357 1
265 377 1
265 392 1
265 437 1
266 199 1
266 214 1
266 259 1
266 289 1
266 304 1
266 349 1
266 378 1
266 393 1
266 438 1
267 200 1
267 215 1
267 260 1
267 290 1
267 305 1
267 350 1
267 385 1
267 400 1
267 445 1
268 196 1
268 211 1
268 256 1
268 286 1
268 301 1
268 346 1
268 380 1
268 395 1
268 440 1
269 202 1
269 217 1
269 262 1
269 292 1
269 307 1
269 352 1
269 381 1
269 396 1
269 441 1
270 198 1
270 213 1
270 258 1
270 288 1
270 303 1
270 348 1
270 383 1
270 398 1
270 443 1
