%%MatrixMarket matrix coordinate integer general
306 612 2754
1 1 1
1 34 1
1 62 1
1 307 1
1 340 1
1 368 1
1 409 1
1 442 1
1 470 1
2 2 1
2 18 1
2 63 1
2 308 1
2 324 1
2 369 1
2 410 1
2 426 1
2 471 1
3 3 1
3 19 1
3 64 1
3 309 1
3 325 1
3 370 1
3 411 1
3 427 1
3 472 1
4 4 1
4 20 1
4 65 1
4 310 1
4 326 1
4 371 1
4 412 1
4 428 1
4 473 1
5 5 1
5 21 1
5 66 1
5 311 1
5 327 1
5 372 1
5 413 1
5 429 1
5 474 1
6 6 1
6 22 1
6 67 1
6 312 1
6 328 1
6 373 1
6 414 1
6 430 1
6 475 1
7 7 1
7 23 1
7 68 1
7 313 1
7 329 1
7 374 1
7 415 1
7 431 1
7 476 1
8 8 1
8 24 1
8 52 1
8 314 1
8 330 1
8 358 1
8 416 1
8 432 1
8 460 1
9 9 1
9 25 1
9 53 1
9 315 1
9 331 1
9 359 1
9 417 1
9 433 1
9 461 1
10 10 1
10 26 1
10 54 1
10 316 1
10 332 1
10 360 1
10 418 1
10 434 1
10 462 1
11 11 1
11 27 1
11 55 1
11 317 1
11 333 1
11 361 1
11 419 1
11 435 1
11 463 1
12 12 1
12 28 1
12 56 1
12 318 1
12 334 1
12 362 1
12 420 1
12 436 1
12 464 1
13 13 1
13 29 1
13 57 1
13 319 1
13 335 1
13 363 1
13 421 1
13 437 1
13 465 1
14 14 1
14 30 1
14 58 1
14 320 1
14 336 1
14 364 1
14 422 1
14 438 1
14 466 1
15 15 1
15 31 1
15 59 1
15 321 1
15 337 1
15 365 1
15 423 1
15 439 1
15 467 1
16 16 1
16 32 1
16 60 1
16 322 1
16 338 1
16 366 1
16 424 1
16 440 1
16 468 1
17 17 1
17 33 1
17 61 1
17 323 1
17 339 1
17 367 1
17 425 1
17 441 1
17 469 1
18 1 1
18 48 1
18 75 1
18 307 1
18 354 1
18 381 1
18 409 1
18 456 1
18 483 1
19 2 1
19 49 1
19 76 1
19 308 1
19 355 1
19 382 1
19 410 1
19 457 1
19 484 1
20 3 1
20 50 1
20 77 1
20 309 1
20 356 1
20 383 1
20 411 1
20 458 1
20 485 1
21 4 1
21 51 1
21 78 1
21 310 1
21 357 1
21 384 1
21 412 1
21 459 1
21 486 1
22 5 1
22 35 1
22 79 1
22 311 1
22 341 1
22 385 1
22 413 1
22 443 1
22 487 1
23 6 1
23 36 1
23 80 1
23 312 1
23 342 1
23 386 1
23 414 1
23 444 1
23 488 1
24 7 1
24 37 1
24 81 1
24 313 1
24 343 1
24 387 1
24 415 1
24 445 1
24 489 1
25 8 1
25 38 1
25 82 1
25 314 1
25 344 1
25 388 1
25 416 1
25 446 1
25 490 1
26 9 1
26 39 1
26 83 1
26 315 1
26 345 1
26 389 1
26 417 1
26 447 1
26 491 1
27 10 1
27 40 1
27 84 1
27 316 1
27 346 1
27 390 1
27 418 1
27 448 1
27 492 1
28 11 1
28 41 1
28 85 1
28 317 1
28 347 1
28 391 1
28 419 1
28 449 1
28 493 1
29 12 1
29 42 1
29 69 1
29 318 1
29 348 1
29 375 1
29 420 1
29 450 1
29 477 1
30 13 1
30 43 1
30 70 1
30 319 1
30 349 1
30 376 1
30 421 1
30 451 1
30 478 1
31 14 1
31 44 1
31 71 1
31 320 1
31 350 1
31 377 1
31 422 1
31 452 1
31 479 1
32 15 1
32 45 1
32 72 1
32 321 1
32 351 1
32 378 1
32 423 1
32 453 1
32 480 1
33 16 1
33 46 1
33 73 1
33 322 1
33 352 1
33 379 1
33 424 1
33 454 1
33 481 1
34 17 1
34 47 1
34 74 1
34 323 1
34 353 1
34 380 1
34 425 1
34 455 1
34 482 1
35 34 1
35 48 1
35 89 1
35 340 1
35 354 1
35 395 1
35 442 1
35 456 1
35 497 1
36 18 1
36 49 1
36 90 1
36 324 1
36 355 1
36 396 1
36 426 1
36 457 1
36 498 1
37 19 1
37 50 1
37 91 1
37 325 1
37 356 1
37 397 1
37 427 1
37 458 1
37 499 1
38 20 1
38 51 1
38 92 1
38 326 1
38 357 1
38 398 1
38 428 1
38 459 1
38 500 1
39 21 1
39 35 1
39 93 1
39 327 1
39 341 1
39 399 1
39 429 1
39 443 1
39 501 1
40 22 1
40 36 1
40 94 1
40 328 1
40 342 1
40 400 1
40 430 1
40 444 1
40 502 1
41 23 1
41 37 1
41 95 1
41 329 1
41 343 1
41 401 1
41 431 1
41 445 1
41 503 1
42 24 1
42 38 1
42 96 1
42 330 1
42 344 1
42 402 1
42 432 1
42 446 1
42 504 1
43 25 1
43 39 1
43 97 1
43 331 1
43 345 1
43 403 1
43 433 1
43 447 1
43 505 1
44 26 1
44 40 1
44 98 1
44 332 1
44 346 1
44 404 1
44 434 1
44 448 1
44 506 1
45 27 1
45 41 1
45 99 1
45 333 1
45 347 1
45 405 1
45 435 1
45 449 1
45 507 1
46 28 1
46 42 1
46 100 1
46 334 1
46 348 1
46 406 1
46 436 1
46 450 1
46 508 1
47 29 1
47 43 1
47 101 1
47 335 1
47 349 1
47 407 1
47 437 1
47 451 1
47 509 1
48 30 1
48 44 1
48 102 1
48 336 1
48 350 1
48 408 1
48 438 1
48 452 1
48 510 1
49 31 1
49 45 1
49 86 1
49 337 1
49 351 1
49 392 1
49 439 1
49 453 1
49 494 1
50 32 1
50 46 1
50 87 1
50 338 1
50 352 1
50 393 1
50 440 1
50 454 1
50 495 1
51 33 1
51 47 1
51 88 1
51 339 1
51 353 1
51 394 1
51 441 1
51 455 1
51 496 1
52 103 1
52 136 1
52 164 1
52 307 1
52 340 1
52 368 1
52 511 1
52 544 1
52 572 1
53 104 1
53 120 1
53 165 1
53 308 1
53 324 1
53 369 1
53 512 1
53 528 1
53 573 1
54 105 1
54 121 1
54 166 1
54 309 1
54 325 1
54 370 1
54 513 1
54 529 1
54 574 1
55 106 1
55 122 1
55 167 1
55 310 1
55 326 1
55 371 1
55 514 1
55 530 1
55 575 1
56 107 1
56 123 1
56 168 1
56 311 1
56 327 1
56 372 1
56 515 1
56 531 1
56 576 1
57 108 1
57 124 1
57 169 1
57 312 1
57 328 1
57 373 1
57 516 1
57 532 1
57 577 1
58 109 1
58 125 1
58 170 1
58 313 1
58 329 1
58 374 1
58 517 1
58 533 1
58 578 1
59 110 1
59 126 1
59 154 1
59 314 1
59 330 1
59 358 1
59 518 1
59 534 1
59 562 1
60 111 1
60 127 1
60 155 1
60 315 1
60 331 1
60 359 1
60 519 1
60 535 1
60 563 1
61 112 1
61 128 1
61 156 1
61 316 1
61 332 1
61 360 1
61 520 1
61 536 1
61 564 1
62 113 1
62 129 1
62 157 1
62 317 1
62 333 1
62 361 1
62 521 1
62 537 1
62 565 1
63 114 1
63 130 1
63 158 1
63 318 1
63 334 1
63 362 1
63 522 1
63 538 1
63 566 1
64 115 1
64 131 1
64 159 1
64 319 1
64 335 1
64 363 1
64 523 1
64 539 1
64 567 1
65 116 1
65 132 1
65 160 1
65 320 1
65 336 1
65 364 1
65 524 1
65 540 1
65 568 1
66 117 1
66 133 1
66 161 1
66 321 1
66 337 1
66 365 1
66 525 1
66 541 1
66 569 1
67 118 1
67 134 1
67 162 1
67 322 1
67 338 1
67 366 1
67 526 1
67 542 1
67 570 1
68 119 1
68 135 1
68 163 1
68 323 1
68 339 1
68 367 1
68 527 1
68 543 1
68 571 1
69 103 1
69 150 1
69 177 1
69 307 1
69 354 1
69 381 1
69 511 1
69 558 1
69 585 1
70 104 1
70 151 1
70 178 1
70 308 1
70 355 1
70 382 1
70 512 1
70 559 1
70 586 1
71 105 1
71 152 1
71 179 1
71 309 1
71 356 1
71 383 1
71 513 1
71 560 1
71 587 1
72 106 1
72 153 1
72 180 1
72 310 1
72 357 1
72 384 1
72 514 1
72 561 1
72 588 1
73 107 1
73 137 1
73 181 1
73 311 1
73 341 1
73 385 1
73 515 1
73 545 1
73 589 1
74 108 1
74 138 1
74 182 1
74 312 1
74 342 1
74 386 1
74 516 1
74 546 1
74 590 1
75 109 1
75 139 1
75 183 1
75 313 1
75 343 1
75 387 1
75 517 1
75 547 1
75 591 1
76 110 1
76 140 1
76 184 1
76 314 1
76 344 1
76 388 1
76 518 1
76 548 1
76 592 1
77 111 1
77 141 1
77 185 1
77 315 1
77 345 1
77 389 1
77 519 1
77 549 1
77 593 1
78 112 1
78 142 1
78 186 1
78 316 1
78 346 1
78 390 1
78 520 1
78 550 1
78 594 1
79 113 1
79 143 1
79 187 1
79 317 1
79 347 1
79 391 1
79 521 1
79 551 1
79 595 1
80 114 1
80 144 1
80 171 1
80 318 1
80 348 1
80 375 1
80 522 1
80 552 1
80 579 1
81 115 1
81 145 1
81 172 1
81 319 1
81 349 1
81 376 1
81 523 1
81 553 1
81 580 1
82 116 1
82 146 1
82 173 1
82 320 1
82 350 1
82 377 1
82 524 1
82 554 1
82 581 1
83 117 1
83 147 1
83 174 1
83 321 1
83 351 1
83 378 1
83 525 1
83 555 1
83 582 1
84 118 1
84 148 1
84 175 1
84 322 1
84 352 1
84 379 1
84 526 1
84 556 1
84 583 1
85 119 1
85 149 1
85 176 1
85 323 1
85 353 1
85 380 1
85 527 1
85 557 1
85 584 1
86 136 1
86 150 1
86 191 1
86 340 1
86 354 1
86 395 1
86 544 1
86 558 1
86 599 1
87 120 1
87 151 1
87 192 1
87 324 1
87 355 1
87 396 1
87 528 1
87 559 1
87 600 1
88 121 1
88 152 1
88 193 1
88 325 1
88 356 1
88 397 1
88 529 1
88 560 1
88 601 1
89 122 1
89 153 1
89 194 1
89 326 1
89 357 1
89 398 1
89 530 1
89 561 1
89 602 1
90 123 1
90 137 1
90 195 1
90 327 1
90 341 1
90 399 1
90 531 1
90 545 1
90 603 1
91 124 1
91 138 1
91 196 1
91 328 1
91 342 1
91 400 1
91 532 1
91 546 1
91 604 1
92 125 1
92 139 1
92 197 1
92 329 1
92 343 1
92 401 1
92 533 1
92 547 1
92 605 1
93 126 1
93 140 1
93 198 1
93 330 1
93 344 1
93 402 1
93 534 1
93 548 1
93 606 1
94 127 1
94 141 1
94 199 1
94 331 1
94 345 1
94 403 1
94 535 1
94 549 1
94 607 1
95 128 1
95 142 1
95 200 1
95 332 1
95 346 1
95 404 1
95 536 1
95 550 1
95 608 1
96 129 1
96 143 1
96 201 1
96 333 1
96 347 1
96 405 1
96 537 1
96 551 1
96 609 1
97 130 1
97 144 1
97 202 1
97 334 1
97 348 1
97 406 1
97 538 1
97 552 1
97 610 1
98 131 1
98 145 1
98 203 1
98 335 1
98 349 1
98 407 1
98 539 1
98 553 1
98 611 1
99 132 1
99 146 1
99 204 1
99 336 1
99 350 1
99 408 1
99 540 1
99 554 1
99 612 1
100 133 1
100 147 1
100 188 1
100 337 1
100 351 1
100 392 1
100 541 1
100 555 1
100 596 1
101 134 1
101 148 1
101 189 1
101 338 1
101 352 1
101 393 1
101 542 1
101 556 1
101 597 1
102 135 1
102 149 1
102 190 1
102 339 1
102 353 1
102 394 1
102 543 1
102 557 1
102 598 1
103 205 1
103 238 1
103 266 1
103 409 1
103 442 1
103 470 1
103 511 1
103 544 1
103 572 1
104 206 1
104 222 1
104 267 1
104 410 1
104 426 1
104 471 1
104 512 1
104 528 1
104 573 1
105 207 1
105 223 1
105 268 1
105 411 1
105 427 1
105 472 1
105 513 1
105 529 1
105 574 1
106 208 1
106 224 1
106 269 1
106 412 1
106 428 1
106 473 1
106 514 1
106 530 1
106 575 1
107 209 1
107 225 1
107 270 1
107 413 1
107 429 1
107 474 1
107 515 1
107 531 1
107 576 1
108 210 1
108 226 1
108 271 1
108 414 1
108 430 1
108 475 1
108 516 1
108 532 1
108 577 1
109 211 1
109 227 1
109 272 1
109 415 1
109 431 1
109 476 1
109 517 1
109 533 1
109 578 1
110 212 1
110 228 1
110 256 1
110 416 1
110 432 1
110 460 1
110 518 1
110 534 1
110 562 1
111 213 1
111 229 1
111 257 1
111 417 1
111 433 1
111 461 1
111 519 1
111 535 1
111 563 1
112 214 1
112 230 1
112 258 1
112 418 1
112 434 1
112 462 1
112 520 1
112 536 1
112 564 1
113 215 1
113 231 1
113 259 1
113 419 1
113 435 1
113 463 1
113 521 1
113 537 1
113 565 1
114 216 1
114 232 1
114 260 1
114 420 1
114 436 1
114 464 1
114 522 1
114 538 1
114 566 1
115 217 1
115 233 1
115 261 1
115 421 1
115 437 1
115 465 1
115 523 1
115 539 1
115 567 1
116 218 1
116 234 1
116 262 1
116 422 1
116 438 1
116 466 1
116 524 1
116 540 1
116 568 1
117 219 1
117 235 1
117 263 1
117 423 1
117 439 1
117 467 1
117 525 1
117 541 1
117 569 1
118 220 1
118 236 1
118 264 1
118 424 1
118 440 1
118 468 1
118 526 1
118 542 1
118 570 1
119 221 1
119 237 1
119 265 1
119 425 1
119 441 1
119 469 1
119 527 1
119 543 1
119 571 1
120 205 1
120 252 1
120 279 1
120 409 1
120 456 1
120 483 1
120 511 1
120 558 1
120 585 1
121 206 1
121 253 1
121 280 1
121 410 1
121 457 1
121 484 1
121 512 1
121 559 1
121 586 1
122 207 1
122 254 1
122 281 1
122 411 1
122 458 1
122 485 1
122 513 1
122 560 1
122 587 1
123 208 1
123 255 1
123 282 1
123 412 1
123 459 1
123 486 1
123 514 1
123 561 1
123 588 1
124 209 1
124 239 1
124 283 1
124 413 1
124 443 1
124 487 1
124 515 1
124 545 1
124 589 1
125 210 1
125 240 1
125 284 1
125 414 1
125 444 1
125 488 1
125 516 1
125 546 1
125 590 1
126 211 1
126 241 1
126 285 1
126 415 1
126 445 1
126 489 1
126 517 1
126 547 1
126 591 1
127 212 1
127 242 1
127 286 1
127 416 1
127 446 1
127 490 1
127 518 1
127 548 1
127 592 1
128 213 1
128 243 1
128 287 1
128 417 1
128 447 1
128 491 1
128 519 1
128 549 1
128 593 1
129 214 1
129 244 1
129 288 1
129 418 1
129 448 1
129 492 1
129 520 1
129 550 1
129 594 1
130 215 1
130 245 1
130 289 1
130 419 1
130 449 1
130 493 1
130 521 1
130 551 1
130 595 1
131 216 1
131 246 1
131 273 1
131 420 1
131 450 1
131 477 1
131 522 1
131 552 1
131 579 1
132 217 1
132 247 1
132 274 1
132 421 1
132 451 1
132 478 1
132 523 1
132 553 1
132 580 1
133 218 1
133 248 1
133 275 1
133 422 1
133 452 1
133 479 1
133 524 1
133 554 1
133 581 1
134 219 1
134 249 1
134 276 1
134 423 1
134 453 1
134 480 1
134 525 1
134 555 1
134 582 1
135 220 1
135 250 1
135 277 1
135 424 1
135 454 1
135 481 1
135 526 1
135 556 1
135 583 1
136 221 1
136 251 1
136 278 1
136 425 1
136 455 1
136 482 1
136 527 1
136 557 1
136 584 1
137 238 1
137 252 1
137 293 1
137 442 1
137 456 1
137 497 1
137 544 1
137 558 1
137 599 1
138 222 1
138 253 1
138 294 1
138 426 1
138 457 1
138 498 1
138 528 1
138 559 1
138 600 1
139 223 1
139 254 1
139 295 1
139 427 1
139 458 1
139 499 1
139 529 1
139 560 1
139 601 1
140 224 1
140 255 1
140 296 1
140 428 1
140 459 1
140 500 1
140 530 1
140 561 1
140 602 1
141 225 1
141 239 1
141 297 1
141 429 1
141 443 1
141 501 1
141 531 1
141 545 1
141 603 1
142 226 1
142 240 1
142 298 1
142 430 1
142 444 1
142 502 1
142 532 1
142 546 1
142 604 1
143 227 1
143 241 1
143 299 1
143 431 1
143 445 1
143 503 1
143 533 1
143 547 1
143 605 1
144 228 1
144 242 1
144 300 1
144 432 1
144 446 1
144 504 1
144 534 1
144 548 1
144 606 1
145 229 1
145 243 1
145 301 1
145 433 1
145 447 1
145 505 1
145 535 1
145 549 1
145 607 1
146 230 1
146 244 1
146 302 1
146 434 1
146 448 1
146 506 1
146 536 1
146 550 1
146 608 1
147 231 1
147 245 1
147 303 1
147 435 1
147 449 1
147 507 1
147 537 1
147 551 1
147 609 1
148 232 1
148 246 1
148 304 1
148 436 1
148 450 1
148 508 1
148 538 1
148 552 1
148 610 1
149 233 1
149 247 1
149 305 1
149 437 1
149 451 1
149 509 1
149 539 1
149 553 1
149 611 1
150 234 1
150 248 1
150 306 1
150 438 1
150 452 1
150 510 1
150 540 1
150 554 1
150 612 1
151 235 1
151 249 1
151 290 1
151 439 1
151 453 1
151 494 1
151 541 1
151 555 1
151 596 1
152 236 1
152 250 1
152 291 1
152 440 1
152 454 1
152 495 1
152 542 1
152 556 1
152 597 1
153 237 1
153 251 1
153 292 1
153 441 1
153 455 1
153 496 1
153 543 1
153 557 1
153 598 1
154 1 1
154 18 1
154 52 1
154 308 1
154 325 1
154 359 1
154 419 1
154 436 1
154 470 1
155 2 1
155 19 1
155 53 1
155 309 1
155 326 1
155 360 1
155 420 1
155 437 1
155 471 1
156 3 1
156 20 1
156 54 1
156 310 1
156 327 1
156 361 1
156 421 1
156 438 1
156 472 1
157 4 1
157 21 1
157 55 1
157 311 1
157 328 1
157 362 1
157 422 1
157 439 1
157 473 1
158 5 1
158 22 1
158 56 1
158 312 1
158 329 1
158 363 1
158 423 1
158 440 1
158 474 1
159 6 1
159 23 1
159 57 1
159 313 1
159 330 1
159 364 1
159 424 1
159 441 1
159 475 1
160 7 1
160 24 1
160 58 1
160 314 1
160 331 1
160 365 1
160 425 1
160 442 1
160 476 1
161 8 1
161 25 1
161 59 1
161 315 1
161 332 1
161 366 1
161 409 1
161 426 1
161 460 1
162 9 1
162 26 1
162 60 1
162 316 1
162 333 1
162 367 1
162 410 1
162 427 1
162 461 1
163 10 1
163 27 1
163 61 1
163 317 1
163 334 1
163 368 1
163 411 1
163 428 1
163 462 1
164 11 1
164 28 1
164 62 1
164 318 1
164 335 1
164 369 1
164 412 1
164 429 1
164 463 1
165 12 1
165 29 1
165 63 1
165 319 1
165 336 1
165 370 1
165 413 1
165 430 1
165 464 1
166 13 1
166 30 1
166 64 1
166 320 1
166 337 1
166 371 1
166 414 1
166 431 1
166 465 1
167 14 1
167 31 1
167 65 1
167 321 1
167 338 1
167 372 1
167 415 1
167 432 1
167 466 1
168 15 1
168 32 1
168 66 1
168 322 1
168 339 1
168 373 1
168 416 1
168 433 1
168 467 1
169 16 1
169 33 1
169 67 1
169 323 1
169 340 1
169 374 1
169 417 1
169 434 1
169 468 1
170 17 1
170 34 1
170 68 1
170 307 1
170 324 1
170 358 1
170 418 1
170 435 1
170 469 1
171 1 1
171 35 1
171 69 1
171 308 1
171 342 1
171 376 1
171 419 1
171 453 1
171 487 1
172 2 1
172 36 1
172 70 1
172 309 1
172 343 1
172 377 1
172 420 1
172 454 1
172 488 1
173 3 1
173 37 1
173 71 1
173 310 1
173 344 1
173 378 1
173 421 1
173 455 1
173 489 1
174 4 1
174 38 1
174 72 1
174 311 1
174 345 1
174 379 1
174 422 1
174 456 1
174 490 1
175 5 1
175 39 1
175 73 1
175 312 1
175 346 1
175 380 1
175 423 1
175 457 1
175 491 1
176 6 1
176 40 1
176 74 1
176 313 1
176 347 1
176 381 1
176 424 1
176 458 1
176 492 1
177 7 1
177 41 1
177 75 1
177 314 1
177 348 1
177 382 1
177 425 1
177 459 1
177 493 1
178 8 1
178 42 1
178 76 1
178 315 1
178 349 1
178 383 1
178 409 1
178 443 1
178 477 1
179 9 1
179 43 1
179 77 1
179 316 1
179 350 1
179 384 1
179 410 1
179 444 1
179 478 1
180 10 1
180 44 1
180 78 1
180 317 1
180 351 1
180 385 1
180 411 1
180 445 1
180 479 1
181 11 1
181 45 1
181 79 1
181 318 1
181 352 1
181 386 1
181 412 1
181 446 1
181 480 1
182 12 1
182 46 1
182 80 1
182 319 1
182 353 1
182 387 1
182 413 1
182 447 1
182 481 1
183 13 1
183 47 1
183 81 1
183 320 1
183 354 1
183 388 1
183 414 1
183 448 1
183 482 1
184 14 1
184 48 1
184 82 1
184 321 1
184 355 1
184 389 1
184 415 1
184 449 1
184 483 1
185 15 1
185 49 1
185 83 1
185 322 1
185 356 1
185 390 1
185 416 1
185 450 1
185 484 1
186 16 1
186 50 1
186 84 1
186 323 1
186 357 1
186 391 1
186 417 1
186 451 1
186 485 1
187 17 1
187 51 1
187 85 1
187 307 1
187 341 1
187 375 1
187 418 1
187 452 1
187 486 1
188 18 1
188 35 1
188 86 1
188 325 1
188 342 1
188 393 1
188 436 1
188 453 1
188 504 1
189 19 1
189 36 1
189 87 1
189 326 1
189 343 1
189 394 1
189 437 1
189 454 1
189 505 1
190 20 1
190 37 1
190 88 1
190 327 1
190 344 1
190 395 1
190 438 1
190 455 1
190 506 1
191 21 1
191 38 1
191 89 1
191 328 1
191 345 1
191 396 1
191 439 1
191 456 1
191 507 1
192 22 1
192 39 1
192 90 1
192 329 1
192 346 1
192 397 1
192 440 1
192 457 1
192 508 1
193 23 1
193 40 1
193 91 1
193 330 1
193 347 1
193 398 1
193 441 1
193 458 1
193 509 1
194 24 1
194 41 1
194 92 1
194 331 1
194 348 1
194 399 1
194 442 1
194 459 1
194 510 1
195 25 1
195 42 1
195 93 1
195 332 1
195 349 1
195 400 1
195 426 1
195 443 1
195 494 1
196 26 1
196 43 1
196 94 1
196 333 1
196 350 1
196 401 1
196 427 1
196 444 1
196 495 1
197 27 1
197 44 1
197 95 1
197 334 1
197 351 1
197 402 1
197 428 1
197 445 1
197 496 1
198 28 1
198 45 1
198 96 1
198 335 1
198 352 1
198 403 1
198 429 1
198 446 1
198 497 1
199 29 1
199 46 1
199 97 1
199 336 1
199 353 1
199 404 1
199 430 1
199 447 1
199 498 1
200 30 1
200 47 1
200 98 1
200 337 1
200 354 1
200 405 1
200 431 1
200 448 1
200 499 1
201 31 1
201 48 1
201 99 1
201 338 1
201 355 1
201 406 1
201 432 1
201 449 1
201 500 1
202 32 1
202 49 1
202 100 1
202 339 1
202 356 1
202 407 1
202 433 1
202 450 1
202 501 1
203 33 1
203 50 1
203 101 1
203 340 1
203 357 1
203 408 1
203 434 1
203 451 1
203 502 1
204 34 1
204 51 1
204 102 1
204 324 1
204 341 1
204 392 1
204 435 1
204 452 1
204 503 1
205 103 1
205 120 1
205 154 1
205 308 1
205 325 1
205 359 1
205 524 1
205 541 1
205 575 1
206 104 1
206 121 1
206 155 1
206 309 1
206 326 1
206 360 1
206 525 1
206 542 1
206 576 1
207 105 1
207 122 1
207 156 1
207 310 1
207 327 1
207 361 1
207 526 1
207 543 1
207 577 1
208 106 1
208 123 1
208 157 1
208 311 1
208 328 1
208 362 1
208 527 1
208 544 1
208 578 1
209 107 1
209 124 1
209 158 1
209 312 1
209 329 1
209 363 1
209 511 1
209 528 1
209 562 1
210 108 1
210 125 1
210 159 1
210 313 1
210 330 1
210 364 1
210 512 1
210 529 1
210 563 1
211 109 1
211 126 1
211 160 1
211 314 1
211 331 1
211 365 1
211 513 1
211 530 1
211 564 1
212 110 1
212 127 1
212 161 1
212 315 1
212 332 1
212 366 1
212 514 1
212 531 1
212 565 1
213 111 1
213 128 1
213 162 1
213 316 1
213 333 1
213 367 1
213 515 1
213 532 1
213 566 1
214 112 1
214 129 1
214 163 1
214 317 1
214 334 1
214 368 1
214 516 1
214 533 1
214 567 1
215 113 1
215 130 1
215 164 1
215 318 1
215 335 1
215 369 1
215 517 1
215 534 1
215 568 1
216 114 1
216 131 1
216 165 1
216 319 1
216 336 1
216 370 1
216 518 1
216 535 1
216 569 1
217 115 1
217 132 1
217 166 1
217 320 1
217 337 1
217 371 1
217 519 1
217 536 1
217 570 1
218 116 1
218 133 1
218 167 1
218 321 1
218 338 1
218 372 1
218 520 1
218 537 1
218 571 1
219 117 1
219 134 1
219 168 1
219 322 1
219 339 1
219 373 1
219 521 1
219 538 1
219 572 1
220 118 1
220 135 1
220 169 1
220 323 1
220 340 1
220 374 1
220 522 1
220 539 1
220 573 1
221 119 1
221 136 1
221 170 1
221 307 1
221 324 1
221 358 1
221 523 1
221 540 1
221 574 1
222 103 1
222 137 1
222 171 1
222 308 1
222 342 1
222 376 1
222 524 1
222 558 1
222 592 1
223 104 1
223 138 1
223 172 1
223 309 1
223 343 1
223 377 1
223 525 1
223 559 1
223 593 1
224 105 1
224 139 1
224 173 1
224 310 1
224 344 1
224 378 1
224 526 1
224 560 1
224 594 1
225 106 1
225 140 1
225 174 1
225 311 1
225 345 1
225 379 1
225 527 1
225 561 1
225 595 1
226 107 1
226 141 1
226 175 1
226 312 1
226 346 1
226 380 1
226 511 1
226 545 1
226 579 1
227 108 1
227 142 1
227 176 1
227 313 1
227 347 1
227 381 1
227 512 1
227 546 1
227 580 1
228 109 1
228 143 1
228 177 1
228 314 1
228 348 1
228 382 1
228 513 1
228 547 1
228 581 1
229 110 1
229 144 1
229 178 1
229 315 1
229 349 1
229 383 1
229 514 1
229 548 1
229 582 1
230 111 1
230 145 1
230 179 1
230 316 1
230 350 1
230 384 1
230 515 1
230 549 1
230 583 1
231 112 1
231 146 1
231 180 1
231 317 1
231 351 1
231 385 1
231 516 1
231 550 1
231 584 1
232 113 1
232 147 1
232 181 1
232 318 1
232 352 1
232 386 1
232 517 1
232 551 1
232 585 1
233 114 1
233 148 1
233 182 1
233 319 1
233 353 1
233 387 1
233 518 1
233 552 1
233 586 1
234 115 1
234 149 1
234 183 1
234 320 1
234 354 1
234 388 1
234 519 1
234 553 1
234 587 1
235 116 1
235 150 1
235 184 1
235 321 1
235 355 1
235 389 1
235 520 1
235 554 1
235 588 1
236 117 1
236 151 1
236 185 1
236 322 1
236 356 1
236 390 1
236 521 1
236 555 1
236 589 1
237 118 1
237 152 1
237 186 1
237 323 1
237 357 1
237 391 1
237 522 1
237 556 1
237 590 1
238 119 1
238 153 1
238 187 1
238 307 1
238 341 1
238 375 1
238 523 1
238 557 1
238 591 1
239 120 1
239 137 1
239 188 1
239 325 1
239 342 1
239 393 1
239 541 1
239 558 1
239 609 1
240 121 1
240 138 1
240 189 1
240 326 1
240 343 1
240 394 1
240 542 1
240 559 1
240 610 1
241 122 1
241 139 1
241 190 1
241 327 1
241 344 1
241 395 1
241 543 1
241 560 1
241 611 1
242 123 1
242 140 1
242 191 1
242 328 1
242 345 1
242 396 1
242 544 1
242 561 1
242 612 1
243 124 1
243 141 1
243 192 1
243 329 1
243 346 1
243 397 1
243 528 1
243 545 1
243 596 1
244 125 1
244 142 1
244 193 1
244 330 1
244 347 1
244 398 1
244 529 1
244 546 1
244 597 1
245 126 1
245 143 1
245 194 1
245 331 1
245 348 1
245 399 1
245 530 1
245 547 1
245 598 1
246 127 1
246 144 1
246 195 1
246 332 1
246 349 1
246 400 1
246 531 1
246 548 1
246 599 1
247 128 1
247 145 1
247 196 1
247 333 1
247 350 1
247 401 1
247 532 1
247 549 1
247 600 1
248 129 1
248 146 1
248 197 1
248 334 1
248 351 1
248 402 1
248 533 1
248 550 1
248 601 1
249 130 1
249 147 1
249 198 1
249 335 1
249 352 1
249 403 1
249 534 1
249 551 1
249 602 1
250 131 1
250 148 1
250 199 1
250 336 1
250 353 1
250 404 1
250 535 1
250 552 1
250 603 1
251 132 1
251 149 1
251 200 1
251 337 1
251 354 1
251 405 1
251 536 1
251 553 1
251 604 1
252 133 1
252 150 1
252 201 1
252 338 1
252 355 1
252 406 1
252 537 1
252 554 1
252 605 1
253 134 1
253 151 1
253 202 1
253 339 1
253 356 1
253 407 1
253 538 1
253 555 1
253 606 1
254 135 1
254 152 1
254 203 1
254 340 1
254 357 1
254 408 1
254 539 1
254 556 1
254 607 1
255 136 1
255 153 1
255 204 1
255 324 1
255 341 1
255 392 1
255 540 1
255 557 1
255 608 1
256 206 1
256 223 1
256 257 1
256 419 1
256 436 1
256 470 1
256 524 1
256 541 1
256 575 1
257 207 1
257 224 1
257 258 1
257 420 1
257 437 1
257 471 1
257 525 1
257 542 1
257 576 1
258 208 1
258 225 1
258 259 1
258 421 1
258 438 1
258 472 1
258 526 1
258 543 1
258 577 1
259 209 1
259 226 1
259 260 1
259 422 1
259 439 1
259 473 1
259 527 1
259 544 1
259 578 1
260 210 1
260 227 1
260 261 1
260 423 1
260 440 1
260 474 1
260 511 1
260 528 1
260 562 1
261 211 1
261 228 1
261 262 1
261 424 1
261 441 1
261 475 1
261 512 1
261 529 1
261 563 1
262 212 1
262 229 1
262 263 1
262 425 1
262 442 1
262 476 1
262 513 1
262 530 1
262 564 1
263 213 1
263 230 1
263 264 1
263 409 1
263 426 1
263 460 1
263 514 1
263 531 1
263 565 1
264 214 1
264 231 1
264 265 1
264 410 1
264 427 1
264 461 1
264 515 1
264 532 1
264 566 1
265 215 1
265 232 1
265 266 1
265 411 1
265 428 1
265 462 1
265 516 1
265 533 1
265 567 1
266 216 1
266 233 1
266 267 1
266 412 1
266 429 1
266 463 1
266 517 1
266 534 1
266 568 1
267 217 1
267 234 1
267 268 1
267 413 1
267 430 1
267 464 1
267 518 1
267 535 1
267 569 1
268 218 1
268 235 1
268 269 1
268 414 1
268 431 1
268 465 1
268 519 1
268 536 1
268 570 1
269 219 1
269 236 1
269 270 1
269 415 1
269 432 1
269 466 1
269 520 1
269 537 1
269 571 1
270 220 1
270 237 1
270 271 1
270 416 1
270 433 1
270 467 1
270 521 1
270 538 1
270 572 1
271 221 1
271 238 1
271 272 1
271 417 1
271 434 1
271 468 1
271 522 1
271 539 1
271 573 1
272 205 1
272 222 1
272 256 1
272 418 1
272 435 1
272 469 1
272 523 1
272 540 1
272 574 1
273 206 1
273 240 1
273 274 1
273 419 1
273 453 1
273 487 1
273 524 1
273 558 1
273 592 1
274 207 1
274 241 1
274 275 1
274 420 1
274 454 1
274 488 1
274 525 1
274 559 1
274 593 1
275 208 1
275 242 1
275 276 1
275 421 1
275 455 1
275 489 1
275 526 1
275 560 1
275 594 1
276 209 1
276 243 1
276 277 1
276 422 1
276 456 1
276 490 1
276 527 1
276 561 1
276 595 1
277 210 1
277 244 1
277 278 1
277 423 1
277 457 1
277 491 1
277 511 1
277 545 1
277 579 1
278 211 1
278 245 1
278 279 1
278 424 1
278 458 1
278 492 1
278 512 1
278 546 1
278 580 1
279 212 1
279 246 1
279 280 1
279 425 1
279 459 1
279 493 1
279 513 1
279 547 1
279 581 1
280 213 1
280 247 1
280 281 1
280 409 1
280 443 1
280 477 1
280 514 1
280 548 1
280 582 1
281 214 1
281 248 1
281 282 1
281 410 1
281 444 1
281 478 1
281 515 1
281 549 1
281 583 1
282 215 1
282 249 1
282 283 1
282 411 1
282 445 1
282 479 1
282 516 1
282 550 1
282 584 1
283 216 1
283 250 1
283 284 1
283 412 1
283 446 1
283 480 1
283 517 1
283 551 1
283 585 1
284 217 1
284 251 1
284 285 1
284 413 1
284 447 1
284 481 1
284 518 1
284 552 1
284 586 1
285 218 1
285 252 1
285 286 1
285 414 1
285 448 1
285 482 1
285 519 1
285 553 1
285 587 1
286 219 1
286 253 1
286 287 1
286 415 1
286 449 1
286 483 1
286 520 1
286 554 1
286 588 1
287 220 1
287 254 1
287 288 1
287 416 1
287 450 1
287 484 1
287 521 1
287 555 1
287 589 1
288 221 1
288 255 1
288 289 1
288 417 1
288 451 1
288 485 1
288 522 1
288 556 1
288 590 1
289 205 1
289 239 1
289 273 1
289 418 1
289 452 1
289 486 1
289 523 1
289 557 1
289 591 1
290 223 1
290 240 1
290 291 1
290 436 1
290 453 1
290 504 1
290 541 1
290 558 1
290 609 1
291 224 1
291 241 1
291 292 1
291 437 1
291 454 1
291 505 1
291 542 1
291 559 1
291 610 1
292 225 1
292 242 1
292 293 1
292 438 1
292 455 1
292 506 1
292 543 1
292 560 1
292 611 1
293 226 1
293 243 1
293 294 1
293 439 1
293 456 1
293 507 1
293 544 1
293 561 1
293 612 1
294 227 1
294 244 1
294 295 1
294 440 1
294 457 1
294 508 1
294 528 1
294 545 1
294 596 1
295 228 1
295 245 1
295 296 1
295 441 1
295 458 1
295 509 1
295 529 1
295 546 1
295 597 1
296 229 1
296 246 1
296 297 1
296 442 1
296 459 1
296 510 1
296 530 1
296 547 1
296 598 1
297 230 1
297 247 1
297 298 1
297 426 1
297 443 1
297 494 1
297 531 1
297 548 1
297 599 1
298 231 1
298 248 1
298 299 1
298 427 1
298 444 1
298 495 1
298 532 1
298 549 1
298 600 1
299 232 1
299 249 1
299 300 1
299 428 1
299 445 1
299 496 1
299 533 1
299 550 1
299 601 1
300 233 1
300 250 1
300 301 1
300 429 1
300 446 1
300 497 1
300 534 1
300 551 1
300 602 1
301 234 1
301 251 1
301 302 1
301 430 1
301 447 1
301 498 1
301 535 1
301 552 1
301 603 1
302 235 1
302 252 1
302 303 1
302 431 1
302 448 1
302 499 1
302 536 1
302 553 1
302 604 1
303 236 1
303 253 1
303 304 1
303 432 1
303 449 1
303 500 1
303 537 1
303 554 1
303 605 1
304 237 1
304 254 1
304 305 1
304 433 1
304 450 1
304 501 1
304 538 1
304 555 1
304 606 1
305 238 1
305 255 1
305 306 1
305 434 1
305 451 1
305 502 1
305 539 1
305 556 1
305 607 1
306 222 1
306 239 1
306 290 1
306 435 1
306 452 1
306 503 1
306 540 1
306 557 1
306 608 1
