%%MatrixMarket matrix coordinate integer general
324 648 2916
1 1 1
1 55 1
1 73 1
1 109 1
1 163 1
1 181 1
1 325 1
1 379 1
1 397 1
2 2 1
2 56 1
2 74 1
2 110 1
2 164 1
2 182 1
2 326 1
2 380 1
2 398 1
3 3 1
3 57 1
3 75 1
3 111 1
3 165 1
3 183 1
3 327 1
3 381 1
3 399 1
4 4 1
4 58 1
4 76 1
4 112 1
4 166 1
4 184 1
4 328 1
4 382 1
4 400 1
5 5 1
5 59 1
5 77 1
5 113 1
5 167 1
5 185 1
5 329 1
5 383 1
5 401 1
6 6 1
6 60 1
6 78 1
6 114 1
6 168 1
6 186 1
6 330 1
6 384 1
6 402 1
7 7 1
7 61 1
7 79 1
7 115 1
7 169 1
7 187 1
7 331 1
7 385 1
7 403 1
8 8 1
8 62 1
8 80 1
8 116 1
8 170 1
8 188 1
8 332 1
8 386 1
8 404 1
9 9 1
9 63 1
9 81 1
9 117 1
9 171 1
9 189 1
9 333 1
9 387 1
9 405 1
10 10 1
10 64 1
10 82 1
10 118 1
10 172 1
10 190 1
10 334 1
10 388 1
10 406 1
11 11 1
11 65 1
11 83 1
11 119 1
11 173 1
11 191 1
11 335 1
11 389 1
11 407 1
12 12 1
12 66 1
12 84 1
12 120 1
12 174 1
12 192 1
12 336 1
12 390 1
12 408 1
13 13 1
13 67 1
13 85 1
13 121 1
13 175 1
13 193 1
13 337 1
13 391 1
13 409 1
14 14 1
14 68 1
14 86 1
14 122 1
14 176 1
14 194 1
14 338 1
14 392 1
14 410 1
15 15 1
15 69 1
15 87 1
15 123 1
15 177 1
15 195 1
15 339 1
15 393 1
15 411 1
16 16 1
16 70 1
16 88 1
16 124 1
16 178 1
16 196 1
16 340 1
16 394 1
16 412 1
17 17 1
17 71 1
17 89 1
17 125 1
17 179 1
17 197 1
17 341 1
17 395 1
17 413 1
18 18 1
18 72 1
18 90 1
18 126 1
18 180 1
18 198 1
18 342 1
18 396 1
18 414 1
19 19 1
19 55 1
19 91 1
19 127 1
19 163 1
19 199 1
19 343 1
19 379 1
19 415 1
20 20 1
20 56 1
20 92 1
20 128 1
20 164 1
20 200 1
20 344 1
20 380 1
20 416 1
21 21 1
21 57 1
21 93 1
21 129 1
21 165 1
21 201 1
21 345 1
21 381 1
21 417 1
22 22 1
22 58 1
22 94 1
22 130 1
22 166 1
22 202 1
22 346 1
22 382 1
22 418 1
23 23 1
23 59 1
23 95 1
23 131 1
23 167 1
23 203 1
23 347 1
23 383 1
23 419 1
24 24 1
24 60 1
24 96 1
24 132 1
24 168 1
24 204 1
24 348 1
24 384 1
24 420 1
25 25 1
25 61 1
25 97 1
25 133 1
25 169 1
25 205 1
25 349 1
25 385 1
25 421 1
26 26 1
26 62 1
26 98 1
26 134 1
26 170 1
26 206 1
26 350 1
26 386 1
26 422 1
27 27 1
27 63 1
27 99 1
27 135 1
27 171 1
27 207 1
27 351 1
27 387 1
27 423 1
28 28 1
28 64 1
28 100 1
28 136 1
28 172 1
28 208 1
28 352 1
28 388 1
28 424 1
29 29 1
29 65 1
29 101 1
29 137 1
29 173 1
29 209 1
29 353 1
29 389 1
29 425 1
30 30 1
30 66 1
30 102 1
30 138 1
30 174 1
30 210 1
30 354 1
30 390 1
30 426 1
31 31 1
31 67 1
31 103 1
31 139 1
31 175 1
31 211 1
31 355 1
31 391 1
31 427 1
32 32 1
32 68 1
32 104 1
32 140 1
32 176 1
32 212 1
32 356 1
32 392 1
32 428 1
33 33 1
33 69 1
33 105 1
33 141 1
33 177 1
33 213 1
33 357 1
33 393 1
33 429 1
34 34 1
34 70 1
34 106 1
34 142 1
34 178 1
34 214 1
34 358 1
34 394 1
34 430 1
35 35 1
35 71 1
35 107 1
35 143 1
35 179 1
35 215 1
35 359 1
35 395 1
35 431 1
36 36 1
36 72 1
36 108 1
36 144 1
36 180 1
36 216 1
36 360 1
36 396 1
36 432 1
37 37 1
37 73 1
37 91 1
37 145 1
37 181 1
37 199 1
37 361 1
37 397 1
37 415 1
38 38 1
38 74 1
38 92 1
38 146 1
38 182 1
38 200 1
38 362 1
38 398 1
38 416 1
39 39 1
39 75 1
39 93 1
39 147 1
39 183 1
39 201 1
39 363 1
39 399 1
39 417 1
40 40 1
40 76 1
40 94 1
40 148 1
40 184 1
40 202 1
40 364 1
40 400 1
40 418 1
41 41 1
41 77 1
41 95 1
41 149 1
41 185 1
41 203 1
41 365 1
41 401 1
41 419 1
42 42 1
42 78 1
42 96 1
42 150 1
42 186 1
42 204 1
42 366 1
42 402 1
42 420 1
43 43 1
43 79 1
43 97 1
43 151 1
43 187 1
43 205 1
43 367 1
43 403 1
43 421 1
44 44 1
44 80 1
44 98 1
44 152 1
44 188 1
44 206 1
44 368 1
44 404 1
44 422 1
45 45 1
45 81 1
45 99 1
45 153 1
45 189 1
45 207 1
45 369 1
45 405 1
45 423 1
46 46 1
46 82 1
46 100 1
46 154 1
46 190 1
46 208 1
46 370 1
46 406 1
46 424 1
47 47 1
47 83 1
47 101 1
47 155 1
47 191 1
47 209 1
47 371 1
47 407 1
47 425 1
48 48 1
48 84 1
48 102 1
48 156 1
48 192 1
48 210 1
48 372 1
48 408 1
48 426 1
49 49 1
49 85 1
49 103 1
49 157 1
49 193 1
49 211 1
49 373 1
49 409 1
49 427 1
50 50 1
50 86 1
50 104 1
50 158 1
50 194 1
50 212 1
50 374 1
50 410 1
50 428 1
51 51 1
51 87 1
51 105 1
51 159 1
51 195 1
51 213 1
51 375 1
51 411 1
51 429 1
52 52 1
52 88 1
52 106 1
52 160 1
52 196 1
52 214 1
52 376 1
52 412 1
52 430 1
53 53 1
53 89 1
53 107 1
53 161 1
53 197 1
53 215 1
53 377 1
53 413 1
53 431 1
54 54 1
54 90 1
54 108 1
54 162 1
54 198 1
54 216 1
54 378 1
54 414 1
54 432 1
55 1 1
55 55 1
55 73 1
55 217 1
55 271 1
55 289 1
55 433 1
55 487 1
55 505 1
56 2 1
56 56 1
56 74 1
56 218 1
56 272 1
56 290 1
56 434 1
56 488 1
56 506 1
57 3 1
57 57 1
57 75 1
57 219 1
57 273 1
57 291 1
57 435 1
57 489 1
57 507 1
58 4 1
58 58 1
58 76 1
58 220 1
58 274 1
58 292 1
58 436 1
58 490 1
58 508 1
59 5 1
59 59 1
59 77 1
59 221 1
59 275 1
59 293 1
59 437 1
59 491 1
59 509 1
60 6 1
60 60 1
60 78 1
60 222 1
60 276 1
60 294 1
60 438 1
60 492 1
60 510 1
61 7 1
61 61 1
61 79 1
61 223 1
61 277 1
61 295 1
61 439 1
61 493 1
61 511 1
62 8 1
62 62 1
62 80 1
62 224 1
62 278 1
62 296 1
62 440 1
62 494 1
62 512 1
63 9 1
63 63 1
63 81 1
63 225 1
63 279 1
63 297 1
63 441 1
63 495 1
63 513 1
64 10 1
64 64 1
64 82 1
64 226 1
64 280 1
64 298 1
64 442 1
64 496 1
64 514 1
65 11 1
65 65 1
65 83 1
65 227 1
65 281 1
65 299 1
65 443 1
65 497 1
65 515 1
66 12 1
66 66 1
66 84 1
66 228 1
66 282 1
66 300 1
66 444 1
66 498 1
66 516 1
67 13 1
67 67 1
67 85 1
67 229 1
67 283 1
67 301 1
67 445 1
67 499 1
67 517 1
68 14 1
68 68 1
68 86 1
68 230 1
68 284 1
68 302 1
68 446 1
68 500 1
68 518 1
69 15 1
69 69 1
69 87 1
69 231 1
69 285 1
69 303 1
69 447 1
69 501 1
69 519 1
70 16 1
70 70 1
70 88 1
70 232 1
70 286 1
70 304 1
70 448 1
70 502 1
70 520 1
71 17 1
71 71 1
71 89 1
71 233 1
71 287 1
71 305 1
71 449 1
71 503 1
71 521 1
72 18 1
72 72 1
72 90 1
72 234 1
72 288 1
72 306 1
72 450 1
72 504 1
72 522 1
73 19 1
73 55 1
73 91 1
73 235 1
73 271 1
73 307 1
73 451 1
73 487 1
73 523 1
74 20 1
74 56 1
74 92 1
74 236 1
74 272 1
74 308 1
74 452 1
74 488 1
74 524 1
75 21 1
75 57 1
75 93 1
75 237 1
75 273 1
75 309 1
75 453 1
75 489 1
75 525 1
76 22 1
76 58 1
76 94 1
76 238 1
76 274 1
76 310 1
76 454 1
76 490 1
76 526 1
77 23 1
77 59 1
77 95 1
77 239 1
77 275 1
77 311 1
77 455 1
77 491 1
77 527 1
78 24 1
78 60 1
78 96 1
78 240 1
78 276 1
78 312 1
78 456 1
78 492 1
78 528 1
79 25 1
79 61 1
79 97 1
79 241 1
79 277 1
79 313 1
79 457 1
79 493 1
79 529 1
80 26 1
80 62 1
80 98 1
80 242 1
80 278 1
80 314 1
80 458 1
80 494 1
80 530 1
81 27 1
81 63 1
81 99 1
81 243 1
81 279 1
81 315 1
81 459 1
81 495 1
81 531 1
82 28 1
82 64 1
82 100 1
82 244 1
82 280 1
82 316 1
82 460 1
82 496 1
82 532 1
83 29 1
83 65 1
83 101 1
83 245 1
83 281 1
83 317 1
83 461 1
83 497 1
83 533 1
84 30 1
84 66 1
84 102 1
84 246 1
84 282 1
84 318 1
84 462 1
84 498 1
84 534 1
85 31 1
85 67 1
85 103 1
85 247 1
85 283 1
85 319 1
85 463 1
85 499 1
85 535 1
86 32 1
86 68 1
86 104 1
86 248 1
86 284 1
86 320 1
86 464 1
86 500 1
86 536 1
87 33 1
87 69 1
87 105 1
87 249 1
87 285 1
87 321 1
87 465 1
87 501 1
87 537 1
88 34 1
88 70 1
88 106 1
88 250 1
88 286 1
88 322 1
88 466 1
88 502 1
88 538 1
89 35 1
89 71 1
89 107 1
89 251 1
89 287 1
89 323 1
89 467 1
89 503 1
89 539 1
90 36 1
90 72 1
90 108 1
90 252 1
90 288 1
90 324 1
90 468 1
90 504 1
90 540 1
91 37 1
91 73 1
91 91 1
91 253 1
91 289 1
91 307 1
91 469 1
91 505 1
91 523 1
92 38 1
92 74 1
92 92 1
92 254 1
92 290 1
92 308 1
92 470 1
92 506 1
92 524 1
93 39 1
93 75 1
93 93 1
93 255 1
93 291 1
93 309 1
93 471 1
93 507 1
93 525 1
94 40 1
94 76 1
94 94 1
94 256 1
94 292 1
94 310 1
94 472 1
94 508 1
94 526 1
95 41 1
95 77 1
95 95 1
95 257 1
95 293 1
95 311 1
95 473 1
95 509 1
95 527 1
96 42 1
96 78 1
96 96 1
96 258 1
96 294 1
96 312 1
96 474 1
96 510 1
96 528 1
97 43 1
97 79 1
97 97 1
97 259 1
97 295 1
97 313 1
97 475 1
97 511 1
97 529 1
98 44 1
98 80 1
98 98 1
98 260 1
98 296 1
98 314 1
98 476 1
98 512 1
98 530 1
99 45 1
99 81 1
99 99 1
99 261 1
99 297 1
99 315 1
99 477 1
99 513 1
99 531 1
100 46 1
100 82 1
100 100 1
100 262 1
100 298 1
100 316 1
100 478 1
100 514 1
100 532 1
101 47 1
101 83 1
101 101 1
101 263 1
101 299 1
101 317 1
101 479 1
101 515 1
101 533 1
102 48 1
102 84 1
102 102 1
102 264 1
102 300 1
102 318 1
102 480 1
102 516 1
102 534 1
103 49 1
103 85 1
103 103 1
103 265 1
103 301 1
103 319 1
103 481 1
103 517 1
103 535 1
104 50 1
104 86 1
104 104 1
104 266 1
104 302 1
104 320 1
104 482 1
104 518 1
104 536 1
105 51 1
105 87 1
105 105 1
105 267 1
105 303 1
105 321 1
105 483 1
105 519 1
105 537 1
106 52 1
106 88 1
106 106 1
106 268 1
106 304 1
106 322 1
106 484 1
106 520 1
106 538 1
107 53 1
107 89 1
107 107 1
107 269 1
107 305 1
107 323 1
107 485 1
107 521 1
107 539 1
108 54 1
108 90 1
108 108 1
108 270 1
108 306 1
108 324 1
108 486 1
108 522 1
108 540 1
109 109 1
109 163 1
109 181 1
109 217 1
109 271 1
109 289 1
109 541 1
109 595 1
109 613 1
110 110 1
110 164 1
110 182 1
110 218 1
110 272 1
110 290 1
110 542 1
110 596 1
110 614 1
111 111 1
111 165 1
111 183 1
111 219 1
111 273 1
111 291 1
111 543 1
111 597 1
111 615 1
112 112 1
112 166 1
112 184 1
112 220 1
112 274 1
112 292 1
112 544 1
112 598 1
112 616 1
113 113 1
113 167 1
113 185 1
113 221 1
113 275 1
113 293 1
113 545 1
113 599 1
113 617 1
114 114 1
114 168 1
114 186 1
114 222 1
114 276 1
114 294 1
114 546 1
114 600 1
114 618 1
115 115 1
115 169 1
115 187 1
115 223 1
115 277 1
115 295 1
115 547 1
115 601 1
115 619 1
116 116 1
116 170 1
116 188 1
116 224 1
116 278 1
116 296 1
116 548 1
116 602 1
116 620 1
117 117 1
117 171 1
117 189 1
117 225 1
117 279 1
117 297 1
117 549 1
117 603 1
117 621 1
118 118 1
118 172 1
118 190 1
118 226 1
118 280 1
118 298 1
118 550 1
118 604 1
118 622 1
119 119 1
119 173 1
119 191 1
119 227 1
119 281 1
119 299 1
119 551 1
119 605 1
119 623 1
120 120 1
120 174 1
120 192 1
120 228 1
120 282 1
120 300 1
120 552 1
120 606 1
120 624 1
121 121 1
121 175 1
121 193 1
121 229 1
121 283 1
121 301 1
121 553 1
121 607 1
121 625 1
122 122 1
122 176 1
122 194 1
122 230 1
122 284 1
122 302 1
122 554 1
122 608 1
122 626 1
123 123 1
123 177 1
123 195 1
123 231 1
123 285 1
123 303 1
123 555 1
123 609 1
123 627 1
124 124 1
124 178 1
124 196 1
124 232 1
124 286 1
124 304 1
124 556 1
124 610 1
124 628 1
125 125 1
125 179 1
125 197 1
125 233 1
125 287 1
125 305 1
125 557 1
125 611 1
125 629 1
126 126 1
126 180 1
126 198 1
126 234 1
126 288 1
126 306 1
126 558 1
126 612 1
126 630 1
127 127 1
127 163 1
127 199 1
127 235 1
127 271 1
127 307 1
127 559 1
127 595 1
127 631 1
128 128 1
128 164 1
128 200 1
128 236 1
128 272 1
128 308 1
128 560 1
128 596 1
128 632 1
129 129 1
129 165 1
129 201 1
129 237 1
129 273 1
129 309 1
129 561 1
129 597 1
129 633 1
130 130 1
130 166 1
130 202 1
130 238 1
130 274 1
130 310 1
130 562 1
130 598 1
130 634 1
131 131 1
131 167 1
131 203 1
131 239 1
131 275 1
131 311 1
131 563 1
131 599 1
131 635 1
132 132 1
132 168 1
132 204 1
132 240 1
132 276 1
132 312 1
132 564 1
132 600 1
132 636 1
133 133 1
133 169 1
133 205 1
133 241 1
133 277 1
133 313 1
133 565 1
133 601 1
133 637 1
134 134 1
134 170 1
134 206 1
134 242 1
134 278 1
134 314 1
134 566 1
134 602 1
134 638 1
135 135 1
135 171 1
135 207 1
135 243 1
135 279 1
135 315 1
135 567 1
135 603 1
135 639 1
136 136 1
136 172 1
136 208 1
136 244 1
136 280 1
136 316 1
136 568 1
136 604 1
136 640 1
137 137 1
137 173 1
137 209 1
137 245 1
137 281 1
137 317 1
137 569 1
137 605 1
137 641 1
138 138 1
138 174 1
138 210 1
138 246 1
138 282 1
138 318 1
138 570 1
138 606 1
138 642 1
139 139 1
139 175 1
139 211 1
139 247 1
139 283 1
139 319 1
139 571 1
139 607 1
139 643 1
140 140 1
140 176 1
140 212 1
140 248 1
140 284 1
140 320 1
140 572 1
140 608 1
140 644 1
141 141 1
141 177 1
141 213 1
141 249 1
141 285 1
141 321 1
141 573 1
141 609 1
141 645 1
142 142 1
142 178 1
142 214 1
142 250 1
142 286 1
142 322 1
142 574 1
142 610 1
142 646 1
143 143 1
143 179 1
143 215 1
143 251 1
143 287 1
143 323 1
143 575 1
143 611 1
143 647 1
144 144 1
144 180 1
144 216 1
144 252 1
144 288 1
144 324 1
144 576 1
144 612 1
144 648 1
145 145 1
145 181 1
145 199 1
145 253 1
145 289 1
145 307 1
145 577 1
145 613 1
145 631 1
146 146 1
146 182 1
146 200 1
146 254 1
146 290 1
146 308 1
146 578 1
146 614 1
146 632 1
147 147 1
147 183 1
147 201 1
147 255 1
147 291 1
147 309 1
147 579 1
147 615 1
147 633 1
148 148 1
148 184 1
148 202 1
148 256 1
148 292 1
148 310 1
148 580 1
148 616 1
148 634 1
149 149 1
149 185 1
149 203 1
149 257 1
149 293 1
149 311 1
149 581 1
149 617 1
149 635 1
150 150 1
150 186 1
150 204 1
150 258 1
150 294 1
150 312 1
150 582 1
150 618 1
150 636 1
151 151 1
151 187 1
151 205 1
151 259 1
151 295 1
151 313 1
151 583 1
151 619 1
151 637 1
152 152 1
152 188 1
152 206 1
152 260 1
152 296 1
152 314 1
152 584 1
152 620 1
152 638 1
153 153 1
153 189 1
153 207 1
153 261 1
153 297 1
153 315 1
153 585 1
153 621 1
153 639 1
154 154 1
154 190 1
154 208 1
154 262 1
154 298 1
154 316 1
154 586 1
154 622 1
154 640 1
155 155 1
155 191 1
155 209 1
155 263 1
155 299 1
155 317 1
155 587 1
155 623 1
155 641 1
156 156 1
156 192 1
156 210 1
156 264 1
156 300 1
156 318 1
156 588 1
156 624 1
156 642 1
157 157 1
157 193 1
157 211 1
157 265 1
157 301 1
157 319 1
157 589 1
157 625 1
157 643 1
158 158 1
158 194 1
158 212 1
158 266 1
158 302 1
158 320 1
158 590 1
158 626 1
158 644 1
159 159 1
159 195 1
159 213 1
159 267 1
159 303 1
159 321 1
159 591 1
159 627 1
159 645 1
160 160 1
160 196 1
160 214 1
160 268 1
160 304 1
160 322 1
160 592 1
160 628 1
160 646 1
161 161 1
161 197 1
161 215 1
161 269 1
161 305 1
161 323 1
161 593 1
161 629 1
161 647 1
162 162 1
162 198 1
162 216 1
162 270 1
162 306 1
162 324 1
162 594 1
162 630 1
162 648 1
163 1 1
163 50 1
163 67 1
163 222 1
163 257 1
163 288 1
163 442 1
163 470 1
163 502 1
164 2 1
164 52 1
164 69 1
164 225 1
164 260 1
164 277 1
164 446 1
164 481 1
164 490 1
165 3 1
165 53 1
165 63 1
165 227 1
165 262 1
165 272 1
165 438 1
165 473 1
165 504 1
166 4 1
166 39 1
166 71 1
166 228 1
166 263 1
166 280 1
166 447 1
166 474 1
166 491 1
167 5 1
167 54 1
167 66 1
167 230 1
167 265 1
167 274 1
167 449 1
167 477 1
167 494 1
168 6 1
168 41 1
168 72 1
168 217 1
168 266 1
168 283 1
168 435 1
168 485 1
168 495 1
169 7 1
169 37 1
169 68 1
169 231 1
169 258 1
169 275 1
169 443 1
169 478 1
169 488 1
170 8 1
170 43 1
170 55 1
170 232 1
170 267 1
170 276 1
170 444 1
170 479 1
170 496 1
171 9 1
171 44 1
171 61 1
171 218 1
171 268 1
171 285 1
171 450 1
171 480 1
171 497 1
172 10 1
172 38 1
172 70 1
172 233 1
172 261 1
172 278 1
172 433 1
172 482 1
172 499 1
173 11 1
173 46 1
173 56 1
173 219 1
173 269 1
173 279 1
173 439 1
173 469 1
173 500 1
174 12 1
174 47 1
174 64 1
174 220 1
174 255 1
174 287 1
174 440 1
174 475 1
174 487 1
175 13 1
175 40 1
175 57 1
175 234 1
175 264 1
175 281 1
175 448 1
175 483 1
175 492 1
176 14 1
176 49 1
176 58 1
176 221 1
176 270 1
176 282 1
176 434 1
176 484 1
176 501 1
177 15 1
177 42 1
177 59 1
177 223 1
177 253 1
177 284 1
177 436 1
177 471 1
177 503 1
178 16 1
178 51 1
178 60 1
178 224 1
178 259 1
178 271 1
178 445 1
178 472 1
178 489 1
179 17 1
179 45 1
179 62 1
179 226 1
179 254 1
179 286 1
179 437 1
179 486 1
179 498 1
180 18 1
180 48 1
180 65 1
180 229 1
180 256 1
180 273 1
180 441 1
180 476 1
180 493 1
181 20 1
181 50 1
181 93 1
181 243 1
181 257 1
181 317 1
181 464 1
181 470 1
181 528 1
182 19 1
182 52 1
182 95 1
182 240 1
182 260 1
182 320 1
182 460 1
182 481 1
182 539 1
183 36 1
183 53 1
183 97 1
183 247 1
183 262 1
183 321 1
183 459 1
183 473 1
183 533 1
184 30 1
184 39 1
184 98 1
184 238 1
184 263 1
184 322 1
184 458 1
184 474 1
184 534 1
185 35 1
185 54 1
185 100 1
185 244 1
185 265 1
185 323 1
185 455 1
185 477 1
185 523 1
186 27 1
186 41 1
186 101 1
186 236 1
186 266 1
186 309 1
186 468 1
186 485 1
186 529 1
187 34 1
187 37 1
187 94 1
187 242 1
187 258 1
187 318 1
187 463 1
187 478 1
187 537 1
188 33 1
188 43 1
188 103 1
188 241 1
188 267 1
188 324 1
188 454 1
188 479 1
188 538 1
189 24 1
189 44 1
189 104 1
189 235 1
189 268 1
189 311 1
189 453 1
189 480 1
189 524 1
190 32 1
190 38 1
190 96 1
190 239 1
190 261 1
190 307 1
190 452 1
190 482 1
190 525 1
191 31 1
191 46 1
191 105 1
191 252 1
191 269 1
191 313 1
191 466 1
191 469 1
191 526 1
192 22 1
192 47 1
192 106 1
192 246 1
192 255 1
192 314 1
192 465 1
192 475 1
192 535 1
193 29 1
193 40 1
193 99 1
193 237 1
193 264 1
193 308 1
193 457 1
193 483 1
193 540 1
194 28 1
194 49 1
194 107 1
194 251 1
194 270 1
194 316 1
194 451 1
194 484 1
194 527 1
195 26 1
195 42 1
195 102 1
195 250 1
195 253 1
195 310 1
195 462 1
195 471 1
195 530 1
196 25 1
196 51 1
196 108 1
196 249 1
196 259 1
196 319 1
196 461 1
196 472 1
196 531 1
197 23 1
197 45 1
197 91 1
197 248 1
197 254 1
197 312 1
197 467 1
197 486 1
197 532 1
198 21 1
198 48 1
198 92 1
198 245 1
198 256 1
198 315 1
198 456 1
198 476 1
198 536 1
199 67 1
199 83 1
199 93 1
199 288 1
199 291 1
199 317 1
199 502 1
199 511 1
199 528 1
200 69 1
200 80 1
200 95 1
200 277 1
200 304 1
200 320 1
200 490 1
200 516 1
200 539 1
201 63 1
201 78 1
201 97 1
201 272 1
201 289 1
201 321 1
201 504 1
201 507 1
201 533 1
202 71 1
202 77 1
202 98 1
202 280 1
202 302 1
202 322 1
202 491 1
202 521 1
202 534 1
203 66 1
203 76 1
203 100 1
203 274 1
203 300 1
203 323 1
203 494 1
203 519 1
203 523 1
204 72 1
204 75 1
204 101 1
204 283 1
204 299 1
204 309 1
204 495 1
204 510 1
204 529 1
205 68 1
205 82 1
205 94 1
205 275 1
205 305 1
205 318 1
205 488 1
205 505 1
205 537 1
206 55 1
206 74 1
206 103 1
206 276 1
206 297 1
206 324 1
206 496 1
206 518 1
206 538 1
207 61 1
207 88 1
207 104 1
207 285 1
207 296 1
207 311 1
207 497 1
207 517 1
207 524 1
208 70 1
208 79 1
208 96 1
208 278 1
208 303 1
208 307 1
208 499 1
208 515 1
208 525 1
209 56 1
209 73 1
209 105 1
209 279 1
209 294 1
209 313 1
209 500 1
209 514 1
209 526 1
210 64 1
210 86 1
210 106 1
210 287 1
210 293 1
210 314 1
210 487 1
210 506 1
210 535 1
211 57 1
211 90 1
211 99 1
211 281 1
211 301 1
211 308 1
211 492 1
211 513 1
211 540 1
212 58 1
212 84 1
212 107 1
212 282 1
212 292 1
212 316 1
212 501 1
212 512 1
212 527 1
213 59 1
213 89 1
213 102 1
213 284 1
213 298 1
213 310 1
213 503 1
213 509 1
213 530 1
214 60 1
214 81 1
214 108 1
214 271 1
214 290 1
214 319 1
214 489 1
214 522 1
214 531 1
215 62 1
215 87 1
215 91 1
215 286 1
215 295 1
215 312 1
215 498 1
215 508 1
215 532 1
216 65 1
216 85 1
216 92 1
216 273 1
216 306 1
216 315 1
216 493 1
216 520 1
216 536 1
217 1 1
217 50 1
217 67 1
217 331 1
217 361 1
217 392 1
217 552 1
217 587 1
217 604 1
218 2 1
218 52 1
218 69 1
218 340 1
218 375 1
218 384 1
218 544 1
218 579 1
218 611 1
219 3 1
219 53 1
219 63 1
219 328 1
219 363 1
219 395 1
219 556 1
219 591 1
219 600 1
220 4 1
220 39 1
220 71 1
220 337 1
220 364 1
220 381 1
220 542 1
220 592 1
220 609 1
221 5 1
221 54 1
221 66 1
221 342 1
221 372 1
221 389 1
221 548 1
221 583 1
221 595 1
222 6 1
222 41 1
222 72 1
222 329 1
222 378 1
222 390 1
222 549 1
222 584 1
222 601 1
223 7 1
223 37 1
223 68 1
223 332 1
223 367 1
223 379 1
223 558 1
223 588 1
223 605 1
224 8 1
224 43 1
224 55 1
224 333 1
224 368 1
224 385 1
224 545 1
224 594 1
224 606 1
225 9 1
225 44 1
225 61 1
225 341 1
225 369 1
225 386 1
225 546 1
225 581 1
225 612 1
226 10 1
226 38 1
226 70 1
226 326 1
226 376 1
226 393 1
226 553 1
226 580 1
226 597 1
227 11 1
227 46 1
227 56 1
227 334 1
227 362 1
227 394 1
227 554 1
227 589 1
227 598 1
228 12 1
228 47 1
228 64 1
228 335 1
228 370 1
228 380 1
228 541 1
228 590 1
228 607 1
229 13 1
229 40 1
229 57 1
229 338 1
229 373 1
229 382 1
229 550 1
229 578 1
229 610 1
230 14 1
230 49 1
230 58 1
230 325 1
230 374 1
230 391 1
230 551 1
230 586 1
230 596 1
231 15 1
231 42 1
231 59 1
231 330 1
231 365 1
231 396 1
231 557 1
231 585 1
231 602 1
232 16 1
232 51 1
232 60 1
232 339 1
232 366 1
232 383 1
232 543 1
232 593 1
232 603 1
233 17 1
233 45 1
233 62 1
233 327 1
233 377 1
233 387 1
233 555 1
233 582 1
233 599 1
234 18 1
234 48 1
234 65 1
234 336 1
234 371 1
234 388 1
234 547 1
234 577 1
234 608 1
235 20 1
235 50 1
235 93 1
235 358 1
235 361 1
235 418 1
235 562 1
235 587 1
235 646 1
236 19 1
236 52 1
236 95 1
236 349 1
236 375 1
236 432 1
236 570 1
236 579 1
236 638 1
237 36 1
237 53 1
237 97 1
237 354 1
237 363 1
237 422 1
237 565 1
237 591 1
237 648 1
238 30 1
238 39 1
238 98 1
238 353 1
238 364 1
238 423 1
238 559 1
238 592 1
238 635 1
239 35 1
239 54 1
239 100 1
239 345 1
239 372 1
239 416 1
239 573 1
239 583 1
239 643 1
240 27 1
240 41 1
240 101 1
240 359 1
240 378 1
240 424 1
240 564 1
240 584 1
240 644 1
241 34 1
241 37 1
241 94 1
241 357 1
241 367 1
241 427 1
241 561 1
241 588 1
241 632 1
242 33 1
242 43 1
242 103 1
242 348 1
242 368 1
242 428 1
242 575 1
242 594 1
242 640 1
243 24 1
243 44 1
243 104 1
243 347 1
243 369 1
243 415 1
243 567 1
243 581 1
243 641 1
244 32 1
244 38 1
244 96 1
244 343 1
244 376 1
244 419 1
244 569 1
244 580 1
244 639 1
245 31 1
245 46 1
245 105 1
245 356 1
245 362 1
245 420 1
245 568 1
245 589 1
245 647 1
246 22 1
246 47 1
246 106 1
246 355 1
246 370 1
246 429 1
246 560 1
246 590 1
246 633 1
247 29 1
247 40 1
247 99 1
247 352 1
247 373 1
247 431 1
247 572 1
247 578 1
247 636 1
248 28 1
248 49 1
248 107 1
248 344 1
248 374 1
248 417 1
248 571 1
248 586 1
248 645 1
249 26 1
249 42 1
249 102 1
249 351 1
249 365 1
249 425 1
249 563 1
249 585 1
249 631 1
250 25 1
250 51 1
250 108 1
250 350 1
250 366 1
250 426 1
250 576 1
250 593 1
250 637 1
251 23 1
251 45 1
251 91 1
251 360 1
251 377 1
251 421 1
251 566 1
251 582 1
251 642 1
252 21 1
252 48 1
252 92 1
252 346 1
252 371 1
252 430 1
252 574 1
252 577 1
252 634 1
253 67 1
253 83 1
253 93 1
253 392 1
253 406 1
253 418 1
253 604 1
253 626 1
253 646 1
254 69 1
254 80 1
254 95 1
254 384 1
254 405 1
254 432 1
254 611 1
254 617 1
254 638 1
255 63 1
255 78 1
255 97 1
255 395 1
255 401 1
255 422 1
255 600 1
255 621 1
255 648 1
256 71 1
256 77 1
256 98 1
256 381 1
256 414 1
256 423 1
256 609 1
256 620 1
256 635 1
257 66 1
257 76 1
257 100 1
257 389 1
257 409 1
257 416 1
257 595 1
257 614 1
257 643 1
258 72 1
258 75 1
258 101 1
258 390 1
258 400 1
258 424 1
258 601 1
258 628 1
258 644 1
259 68 1
259 82 1
259 94 1
259 379 1
259 398 1
259 427 1
259 605 1
259 625 1
259 632 1
260 55 1
260 74 1
260 103 1
260 385 1
260 412 1
260 428 1
260 606 1
260 616 1
260 640 1
261 61 1
261 88 1
261 104 1
261 386 1
261 411 1
261 415 1
261 612 1
261 615 1
261 641 1
262 70 1
262 79 1
262 96 1
262 393 1
262 404 1
262 419 1
262 597 1
262 630 1
262 639 1
263 56 1
263 73 1
263 105 1
263 394 1
263 403 1
263 420 1
263 598 1
263 624 1
263 647 1
264 64 1
264 86 1
264 106 1
264 380 1
264 397 1
264 429 1
264 607 1
264 623 1
264 633 1
265 57 1
265 90 1
265 99 1
265 382 1
265 408 1
265 431 1
265 610 1
265 619 1
265 636 1
266 58 1
266 84 1
266 107 1
266 391 1
266 407 1
266 417 1
266 596 1
266 613 1
266 645 1
267 59 1
267 89 1
267 102 1
267 396 1
267 399 1
267 425 1
267 602 1
267 627 1
267 631 1
268 60 1
268 81 1
268 108 1
268 383 1
268 413 1
268 426 1
268 603 1
268 618 1
268 637 1
269 62 1
269 87 1
269 91 1
269 387 1
269 402 1
269 421 1
269 599 1
269 629 1
269 642 1
270 65 1
270 85 1
270 92 1
270 388 1
270 410 1
270 430 1
270 608 1
270 622 1
270 634 1
271 111 1
271 161 1
271 171 1
271 222 1
271 257 1
271 288 1
271 331 1
271 361 1
271 392 1
272 126 1
272 156 1
272 173 1
272 225 1
272 260 1
272 277 1
272 340 1
272 375 1
272 384 1
273 115 1
273 145 1
273 176 1
273 227 1
273 262 1
273 272 1
273 328 1
273 363 1
273 395 1
274 116 1
274 151 1
274 163 1
274 228 1
274 263 1
274 280 1
274 337 1
274 364 1
274 381 1
275 110 1
275 160 1
275 177 1
275 230 1
275 265 1
275 274 1
275 342 1
275 372 1
275 389 1
276 118 1
276 146 1
276 178 1
276 217 1
276 266 1
276 283 1
276 329 1
276 378 1
276 390 1
277 112 1
277 147 1
277 179 1
277 231 1
277 258 1
277 275 1
277 332 1
277 367 1
277 379 1
278 121 1
278 148 1
278 165 1
278 232 1
278 267 1
278 276 1
278 333 1
278 368 1
278 385 1
279 122 1
279 157 1
279 166 1
279 218 1
279 268 1
279 285 1
279 341 1
279 369 1
279 386 1
280 113 1
280 162 1
280 174 1
280 233 1
280 261 1
280 278 1
280 326 1
280 376 1
280 393 1
281 114 1
281 149 1
281 180 1
281 219 1
281 269 1
281 279 1
281 334 1
281 362 1
281 394 1
282 123 1
282 150 1
282 167 1
282 220 1
282 255 1
282 287 1
282 335 1
282 370 1
282 380 1
283 117 1
283 152 1
283 169 1
283 234 1
283 264 1
283 281 1
283 338 1
283 373 1
283 382 1
284 125 1
284 153 1
284 170 1
284 221 1
284 270 1
284 282 1
284 325 1
284 374 1
284 391 1
285 119 1
285 154 1
285 164 1
285 223 1
285 253 1
285 284 1
285 330 1
285 365 1
285 396 1
286 120 1
286 155 1
286 172 1
286 224 1
286 259 1
286 271 1
286 339 1
286 366 1
286 383 1
287 109 1
287 158 1
287 175 1
287 226 1
287 254 1
287 286 1
287 327 1
287 377 1
287 387 1
288 124 1
288 159 1
288 168 1
288 229 1
288 256 1
288 273 1
288 336 1
288 371 1
288 388 1
289 144 1
289 161 1
289 205 1
289 243 1
289 257 1
289 317 1
289 358 1
289 361 1
289 418 1
290 129 1
290 156 1
290 200 1
290 240 1
290 260 1
290 320 1
290 349 1
290 375 1
290 432 1
291 142 1
291 145 1
291 202 1
291 247 1
291 262 1
291 321 1
291 354 1
291 363 1
291 422 1
292 141 1
292 151 1
292 211 1
292 238 1
292 263 1
292 322 1
292 353 1
292 364 1
292 423 1
293 127 1
293 160 1
293 203 1
293 244 1
293 265 1
293 323 1
293 345 1
293 372 1
293 416 1
294 140 1
294 146 1
294 204 1
294 236 1
294 266 1
294 309 1
294 359 1
294 378 1
294 424 1
295 138 1
295 147 1
295 206 1
295 242 1
295 258 1
295 318 1
295 357 1
295 367 1
295 427 1
296 137 1
296 148 1
296 207 1
296 241 1
296 267 1
296 324 1
296 348 1
296 368 1
296 428 1
297 136 1
297 157 1
297 215 1
297 235 1
297 268 1
297 311 1
297 347 1
297 369 1
297 415 1
298 143 1
298 162 1
298 208 1
298 239 1
298 261 1
298 307 1
298 343 1
298 376 1
298 419 1
299 135 1
299 149 1
299 209 1
299 252 1
299 269 1
299 313 1
299 356 1
299 362 1
299 420 1
300 134 1
300 150 1
300 210 1
300 246 1
300 255 1
300 314 1
300 355 1
300 370 1
300 429 1
301 132 1
301 152 1
301 212 1
301 237 1
301 264 1
301 308 1
301 352 1
301 373 1
301 431 1
302 131 1
302 153 1
302 199 1
302 251 1
302 270 1
302 316 1
302 344 1
302 374 1
302 417 1
303 139 1
303 154 1
303 213 1
303 250 1
303 253 1
303 310 1
303 351 1
303 365 1
303 425 1
304 130 1
304 155 1
304 214 1
304 249 1
304 259 1
304 319 1
304 350 1
304 366 1
304 426 1
305 128 1
305 158 1
305 201 1
305 248 1
305 254 1
305 312 1
305 360 1
305 377 1
305 421 1
306 133 1
306 159 1
306 216 1
306 245 1
306 256 1
306 315 1
306 346 1
306 371 1
306 430 1
307 171 1
307 186 1
307 205 1
307 288 1
307 291 1
307 317 1
307 392 1
307 406 1
307 418 1
308 173 1
308 193 1
308 200 1
308 277 1
308 304 1
308 320 1
308 384 1
308 405 1
308 432 1
309 176 1
309 190 1
309 202 1
309 272 1
309 289 1
309 321 1
309 395 1
309 401 1
309 422 1
310 163 1
310 182 1
310 211 1
310 280 1
310 302 1
310 322 1
310 381 1
310 414 1
310 423 1
311 177 1
311 188 1
311 203 1
311 274 1
311 300 1
311 323 1
311 389 1
311 409 1
311 416 1
312 178 1
312 187 1
312 204 1
312 283 1
312 299 1
312 309 1
312 390 1
312 400 1
312 424 1
313 179 1
313 185 1
313 206 1
313 275 1
313 305 1
313 318 1
313 379 1
313 398 1
313 427 1
314 165 1
314 198 1
314 207 1
314 276 1
314 297 1
314 324 1
314 385 1
314 412 1
314 428 1
315 166 1
315 192 1
315 215 1
315 285 1
315 296 1
315 311 1
315 386 1
315 411 1
315 415 1
316 174 1
316 184 1
316 208 1
316 278 1
316 303 1
316 307 1
316 393 1
316 404 1
316 419 1
317 180 1
317 183 1
317 209 1
317 279 1
317 294 1
317 313 1
317 394 1
317 403 1
317 420 1
318 167 1
318 197 1
318 210 1
318 287 1
318 293 1
318 314 1
318 380 1
318 397 1
318 429 1
319 169 1
319 196 1
319 212 1
319 281 1
319 301 1
319 308 1
319 382 1
319 408 1
319 431 1
320 170 1
320 195 1
320 199 1
320 282 1
320 292 1
320 316 1
320 391 1
320 407 1
320 417 1
321 164 1
321 181 1
321 213 1
321 284 1
321 298 1
321 310 1
321 396 1
321 399 1
321 425 1
322 172 1
322 194 1
322 214 1
322 271 1
322 290 1
322 319 1
322 383 1
322 413 1
322 426 1
323 175 1
323 191 1
323 201 1
323 286 1
323 295 1
323 312 1
323 387 1
323 402 1
323 421 1
324 168 1
324 189 1
324 216 1
324 273 1
324 306 1
324 315 1
324 388 1
324 410 1
324 430 1
