%%MatrixMarket matrix coordinate integer general
224 448 3584
1 1 1
1 35 1
1 41 1
1 53 1
1 225 1
1 259 1
1 265 1
1 277 1
1 281 1
1 315 1
1 321 1
1 333 1
1 337 1
1 371 1
1 377 1
1 389 1
2 2 1
2 29 1
2 42 1
2 54 1
2 226 1
2 253 1
2 266 1
2 278 1
2 282 1
2 309 1
2 322 1
2 334 1
2 338 1
2 365 1
2 378 1
2 390 1
3 3 1
3 30 1
3 36 1
3 55 1
3 227 1
3 254 1
3 260 1
3 279 1
3 283 1
3 310 1
3 316 1
3 335 1
3 339 1
3 366 1
3 372 1
3 391 1
4 4 1
4 31 1
4 37 1
4 56 1
4 228 1
4 255 1
4 261 1
4 280 1
4 284 1
4 311 1
4 317 1
4 336 1
4 340 1
4 367 1
4 373 1
4 392 1
5 5 1
5 32 1
5 38 1
5 50 1
5 229 1
5 256 1
5 262 1
5 274 1
5 285 1
5 312 1
5 318 1
5 330 1
5 341 1
5 368 1
5 374 1
5 386 1
6 6 1
6 33 1
6 39 1
6 51 1
6 230 1
6 257 1
6 263 1
6 275 1
6 286 1
6 313 1
6 319 1
6 331 1
6 342 1
6 369 1
6 375 1
6 387 1
7 7 1
7 34 1
7 40 1
7 52 1
7 231 1
7 258 1
7 264 1
7 276 1
7 287 1
7 314 1
7 320 1
7 332 1
7 343 1
7 370 1
7 376 1
7 388 1
8 8 1
8 35 1
8 48 1
8 53 1
8 232 1
8 259 1
8 272 1
8 277 1
8 288 1
8 315 1
8 328 1
8 333 1
8 344 1
8 371 1
8 384 1
8 389 1
9 9 1
9 29 1
9 49 1
9 54 1
9 233 1
9 253 1
9 273 1
9 278 1
9 289 1
9 309 1
9 329 1
9 334 1
9 345 1
9 365 1
9 385 1
9 390 1
10 10 1
10 30 1
10 43 1
10 55 1
10 234 1
10 254 1
10 267 1
10 279 1
10 290 1
10 310 1
10 323 1
10 335 1
10 346 1
10 366 1
10 379 1
10 391 1
11 11 1
11 31 1
11 44 1
11 56 1
11 235 1
11 255 1
11 268 1
11 280 1
11 291 1
11 311 1
11 324 1
11 336 1
11 347 1
11 367 1
11 380 1
11 392 1
12 12 1
12 32 1
12 45 1
12 50 1
12 236 1
12 256 1
12 269 1
12 274 1
12 292 1
12 312 1
12 325 1
12 330 1
12 348 1
12 368 1
12 381 1
12 386 1
13 13 1
13 33 1
13 46 1
13 51 1
13 237 1
13 257 1
13 270 1
13 275 1
13 293 1
13 313 1
13 326 1
13 331 1
13 349 1
13 369 1
13 382 1
13 387 1
14 14 1
14 34 1
14 47 1
14 52 1
14 238 1
14 258 1
14 271 1
14 276 1
14 294 1
14 314 1
14 327 1
14 332 1
14 350 1
14 370 1
14 383 1
14 388 1
15 15 1
15 41 1
15 48 1
15 53 1
15 239 1
15 265 1
15 272 1
15 277 1
15 295 1
15 321 1
15 328 1
15 333 1
15 351 1
15 377 1
15 384 1
15 389 1
16 16 1
16 42 1
16 49 1
16 54 1
16 240 1
16 266 1
16 273 1
16 278 1
16 296 1
16 322 1
16 329 1
16 334 1
16 352 1
16 378 1
16 385 1
16 390 1
17 17 1
17 36 1
17 43 1
17 55 1
17 241 1
17 260 1
17 267 1
17 279 1
17 297 1
17 316 1
17 323 1
17 335 1
17 353 1
17 372 1
17 379 1
17 391 1
18 18 1
18 37 1
18 44 1
18 56 1
18 242 1
18 261 1
18 268 1
18 280 1
18 298 1
18 317 1
18 324 1
18 336 1
18 354 1
18 373 1
18 380 1
18 392 1
19 19 1
19 38 1
19 45 1
19 50 1
19 243 1
19 262 1
19 269 1
19 274 1
19 299 1
19 318 1
19 325 1
19 330 1
19 355 1
19 374 1
19 381 1
19 386 1
20 20 1
20 39 1
20 46 1
20 51 1
20 244 1
20 263 1
20 270 1
20 275 1
20 300 1
20 319 1
20 326 1
20 331 1
20 356 1
20 375 1
20 382 1
20 387 1
21 21 1
21 40 1
21 47 1
21 52 1
21 245 1
21 264 1
21 271 1
21 276 1
21 301 1
21 320 1
21 327 1
21 332 1
21 357 1
21 376 1
21 383 1
21 388 1
22 28 1
22 35 1
22 41 1
22 48 1
22 252 1
22 259 1
22 265 1
22 272 1
22 308 1
22 315 1
22 321 1
22 328 1
22 364 1
22 371 1
22 377 1
22 384 1
23 22 1
23 29 1
23 42 1
23 49 1
23 246 1
23 253 1
23 266 1
23 273 1
23 302 1
23 309 1
23 322 1
23 329 1
23 358 1
23 365 1
23 378 1
23 385 1
24 23 1
24 30 1
24 36 1
24 43 1
24 247 1
24 254 1
24 260 1
24 267 1
24 303 1
24 310 1
24 316 1
24 323 1
24 359 1
24 366 1
24 372 1
24 379 1
25 24 1
25 31 1
25 37 1
25 44 1
25 248 1
25 255 1
25 261 1
25 268 1
25 304 1
25 311 1
25 317 1
25 324 1
25 360 1
25 367 1
25 373 1
25 380 1
26 25 1
26 32 1
26 38 1
26 45 1
26 249 1
26 256 1
26 262 1
26 269 1
26 305 1
26 312 1
26 318 1
26 325 1
26 361 1
26 368 1
26 374 1
26 381 1
27 26 1
27 33 1
27 39 1
27 46 1
27 250 1
27 257 1
27 263 1
27 270 1
27 306 1
27 313 1
27 319 1
27 326 1
27 362 1
27 369 1
27 375 1
27 382 1
28 27 1
28 34 1
28 40 1
28 47 1
28 251 1
28 258 1
28 264 1
28 271 1
28 307 1
28 314 1
28 320 1
28 327 1
28 363 1
28 370 1
28 376 1
28 383 1
29 57 1
29 91 1
29 97 1
29 109 1
29 225 1
29 259 1
29 265 1
29 277 1
29 281 1
29 315 1
29 321 1
29 333 1
29 393 1
29 427 1
29 433 1
29 445 1
30 58 1
30 85 1
30 98 1
30 110 1
30 226 1
30 253 1
30 266 1
30 278 1
30 282 1
30 309 1
30 322 1
30 334 1
30 394 1
30 421 1
30 434 1
30 446 1
31 59 1
31 86 1
31 92 1
31 111 1
31 227 1
31 254 1
31 260 1
31 279 1
31 283 1
31 310 1
31 316 1
31 335 1
31 395 1
31 422 1
31 428 1
31 447 1
32 60 1
32 87 1
32 93 1
32 112 1
32 228 1
32 255 1
32 261 1
32 280 1
32 284 1
32 311 1
32 317 1
32 336 1
32 396 1
32 423 1
32 429 1
32 448 1
33 61 1
33 88 1
33 94 1
33 106 1
33 229 1
33 256 1
33 262 1
33 274 1
33 285 1
33 312 1
33 318 1
33 330 1
33 397 1
33 424 1
33 430 1
33 442 1
34 62 1
34 89 1
34 95 1
34 107 1
34 230 1
34 257 1
34 263 1
34 275 1
34 286 1
34 313 1
34 319 1
34 331 1
34 398 1
34 425 1
34 431 1
34 443 1
35 63 1
35 90 1
35 96 1
35 108 1
35 231 1
35 258 1
35 264 1
35 276 1
35 287 1
35 314 1
35 320 1
35 332 1
35 399 1
35 426 1
35 432 1
35 444 1
36 64 1
36 91 1
36 104 1
36 109 1
36 232 1
36 259 1
36 272 1
36 277 1
36 288 1
36 315 1
36 328 1
36 333 1
36 400 1
36 427 1
36 440 1
36 445 1
37 65 1
37 85 1
37 105 1
37 110 1
37 233 1
37 253 1
37 273 1
37 278 1
37 289 1
37 309 1
37 329 1
37 334 1
37 401 1
37 421 1
37 441 1
37 446 1
38 66 1
38 86 1
38 99 1
38 111 1
38 234 1
38 254 1
38 267 1
38 279 1
38 290 1
38 310 1
38 323 1
38 335 1
38 402 1
38 422 1
38 435 1
38 447 1
39 67 1
39 87 1
39 100 1
39 112 1
39 235 1
39 255 1
39 268 1
39 280 1
39 291 1
39 311 1
39 324 1
39 336 1
39 403 1
39 423 1
39 436 1
39 448 1
40 68 1
40 88 1
40 101 1
40 106 1
40 236 1
40 256 1
40 269 1
40 274 1
40 292 1
40 312 1
40 325 1
40 330 1
40 404 1
40 424 1
40 437 1
40 442 1
41 69 1
41 89 1
41 102 1
41 107 1
41 237 1
41 257 1
41 270 1
41 275 1
41 293 1
41 313 1
41 326 1
41 331 1
41 405 1
41 425 1
41 438 1
41 443 1
42 70 1
42 90 1
42 103 1
42 108 1
42 238 1
42 258 1
42 271 1
42 276 1
42 294 1
42 314 1
42 327 1
42 332 1
42 406 1
42 426 1
42 439 1
42 444 1
43 71 1
43 97 1
43 104 1
43 109 1
43 239 1
43 265 1
43 272 1
43 277 1
43 295 1
43 321 1
43 328 1
43 333 1
43 407 1
43 433 1
43 440 1
43 445 1
44 72 1
44 98 1
44 105 1
44 110 1
44 240 1
44 266 1
44 273 1
44 278 1
44 296 1
44 322 1
44 329 1
44 334 1
44 408 1
44 434 1
44 441 1
44 446 1
45 73 1
45 92 1
45 99 1
45 111 1
45 241 1
45 260 1
45 267 1
45 279 1
45 297 1
45 316 1
45 323 1
45 335 1
45 409 1
45 428 1
45 435 1
45 447 1
46 74 1
46 93 1
46 100 1
46 112 1
46 242 1
46 261 1
46 268 1
46 280 1
46 298 1
46 317 1
46 324 1
46 336 1
46 410 1
46 429 1
46 436 1
46 448 1
47 75 1
47 94 1
47 101 1
47 106 1
47 243 1
47 262 1
47 269 1
47 274 1
47 299 1
47 318 1
47 325 1
47 330 1
47 411 1
47 430 1
47 437 1
47 442 1
48 76 1
48 95 1
48 102 1
48 107 1
48 244 1
48 263 1
48 270 1
48 275 1
48 300 1
48 319 1
48 326 1
48 331 1
48 412 1
48 431 1
48 438 1
48 443 1
49 77 1
49 96 1
49 103 1
49 108 1
49 245 1
49 264 1
49 271 1
49 276 1
49 301 1
49 320 1
49 327 1
49 332 1
49 413 1
49 432 1
49 439 1
49 444 1
50 84 1
50 91 1
50 97 1
50 104 1
50 252 1
50 259 1
50 265 1
50 272 1
50 308 1
50 315 1
50 321 1
50 328 1
50 420 1
50 427 1
50 433 1
50 440 1
51 78 1
51 85 1
51 98 1
51 105 1
51 246 1
51 253 1
51 266 1
51 273 1
51 302 1
51 309 1
51 322 1
51 329 1
51 414 1
51 421 1
51 434 1
51 441 1
52 79 1
52 86 1
52 92 1
52 99 1
52 247 1
52 254 1
52 260 1
52 267 1
52 303 1
52 310 1
52 316 1
52 323 1
52 415 1
52 422 1
52 428 1
52 435 1
53 80 1
53 87 1
53 93 1
53 100 1
53 248 1
53 255 1
53 261 1
53 268 1
53 304 1
53 311 1
53 317 1
53 324 1
53 416 1
53 423 1
53 429 1
53 436 1
54 81 1
54 88 1
54 94 1
54 101 1
54 249 1
54 256 1
54 262 1
54 269 1
54 305 1
54 312 1
54 318 1
54 325 1
54 417 1
54 424 1
54 430 1
54 437 1
55 82 1
55 89 1
55 95 1
55 102 1
55 250 1
55 257 1
55 263 1
55 270 1
55 306 1
55 313 1
55 319 1
55 326 1
55 418 1
55 425 1
55 431 1
55 438 1
56 83 1
56 90 1
56 96 1
56 103 1
56 251 1
56 258 1
56 264 1
56 271 1
56 307 1
56 314 1
56 320 1
56 327 1
56 419 1
56 426 1
56 432 1
56 439 1
57 113 1
57 147 1
57 153 1
57 165 1
57 225 1
57 259 1
57 265 1
57 277 1
57 337 1
57 371 1
57 377 1
57 389 1
57 393 1
57 427 1
57 433 1
57 445 1
58 114 1
58 141 1
58 154 1
58 166 1
58 226 1
58 253 1
58 266 1
58 278 1
58 338 1
58 365 1
58 378 1
58 390 1
58 394 1
58 421 1
58 434 1
58 446 1
59 115 1
59 142 1
59 148 1
59 167 1
59 227 1
59 254 1
59 260 1
59 279 1
59 339 1
59 366 1
59 372 1
59 391 1
59 395 1
59 422 1
59 428 1
59 447 1
60 116 1
60 143 1
60 149 1
60 168 1
60 228 1
60 255 1
60 261 1
60 280 1
60 340 1
60 367 1
60 373 1
60 392 1
60 396 1
60 423 1
60 429 1
60 448 1
61 117 1
61 144 1
61 150 1
61 162 1
61 229 1
61 256 1
61 262 1
61 274 1
61 341 1
61 368 1
61 374 1
61 386 1
61 397 1
61 424 1
61 430 1
61 442 1
62 118 1
62 145 1
62 151 1
62 163 1
62 230 1
62 257 1
62 263 1
62 275 1
62 342 1
62 369 1
62 375 1
62 387 1
62 398 1
62 425 1
62 431 1
62 443 1
63 119 1
63 146 1
63 152 1
63 164 1
63 231 1
63 258 1
63 264 1
63 276 1
63 343 1
63 370 1
63 376 1
63 388 1
63 399 1
63 426 1
63 432 1
63 444 1
64 120 1
64 147 1
64 160 1
64 165 1
64 232 1
64 259 1
64 272 1
64 277 1
64 344 1
64 371 1
64 384 1
64 389 1
64 400 1
64 427 1
64 440 1
64 445 1
65 121 1
65 141 1
65 161 1
65 166 1
65 233 1
65 253 1
65 273 1
65 278 1
65 345 1
65 365 1
65 385 1
65 390 1
65 401 1
65 421 1
65 441 1
65 446 1
66 122 1
66 142 1
66 155 1
66 167 1
66 234 1
66 254 1
66 267 1
66 279 1
66 346 1
66 366 1
66 379 1
66 391 1
66 402 1
66 422 1
66 435 1
66 447 1
67 123 1
67 143 1
67 156 1
67 168 1
67 235 1
67 255 1
67 268 1
67 280 1
67 347 1
67 367 1
67 380 1
67 392 1
67 403 1
67 423 1
67 436 1
67 448 1
68 124 1
68 144 1
68 157 1
68 162 1
68 236 1
68 256 1
68 269 1
68 274 1
68 348 1
68 368 1
68 381 1
68 386 1
68 404 1
68 424 1
68 437 1
68 442 1
69 125 1
69 145 1
69 158 1
69 163 1
69 237 1
69 257 1
69 270 1
69 275 1
69 349 1
69 369 1
69 382 1
69 387 1
69 405 1
69 425 1
69 438 1
69 443 1
70 126 1
70 146 1
70 159 1
70 164 1
70 238 1
70 258 1
70 271 1
70 276 1
70 350 1
70 370 1
70 383 1
70 388 1
70 406 1
70 426 1
70 439 1
70 444 1
71 127 1
71 153 1
71 160 1
71 165 1
71 239 1
71 265 1
71 272 1
71 277 1
71 351 1
71 377 1
71 384 1
71 389 1
71 407 1
71 433 1
71 440 1
71 445 1
72 128 1
72 154 1
72 161 1
72 166 1
72 240 1
72 266 1
72 273 1
72 278 1
72 352 1
72 378 1
72 385 1
72 390 1
72 408 1
72 434 1
72 441 1
72 446 1
73 129 1
73 148 1
73 155 1
73 167 1
73 241 1
73 260 1
73 267 1
73 279 1
73 353 1
73 372 1
73 379 1
73 391 1
73 409 1
73 428 1
73 435 1
73 447 1
74 130 1
74 149 1
74 156 1
74 168 1
74 242 1
74 261 1
74 268 1
74 280 1
74 354 1
74 373 1
74 380 1
74 392 1
74 410 1
74 429 1
74 436 1
74 448 1
75 131 1
75 150 1
75 157 1
75 162 1
75 243 1
75 262 1
75 269 1
75 274 1
75 355 1
75 374 1
75 381 1
75 386 1
75 411 1
75 430 1
75 437 1
75 442 1
76 132 1
76 151 1
76 158 1
76 163 1
76 244 1
76 263 1
76 270 1
76 275 1
76 356 1
76 375 1
76 382 1
76 387 1
76 412 1
76 431 1
76 438 1
76 443 1
77 133 1
77 152 1
77 159 1
77 164 1
77 245 1
77 264 1
77 271 1
77 276 1
77 357 1
77 376 1
77 383 1
77 388 1
77 413 1
77 432 1
77 439 1
77 444 1
78 140 1
78 147 1
78 153 1
78 160 1
78 252 1
78 259 1
78 265 1
78 272 1
78 364 1
78 371 1
78 377 1
78 384 1
78 420 1
78 427 1
78 433 1
78 440 1
79 134 1
79 141 1
79 154 1
79 161 1
79 246 1
79 253 1
79 266 1
79 273 1
79 358 1
79 365 1
79 378 1
79 385 1
79 414 1
79 421 1
79 434 1
79 441 1
80 135 1
80 142 1
80 148 1
80 155 1
80 247 1
80 254 1
80 260 1
80 267 1
80 359 1
80 366 1
80 372 1
80 379 1
80 415 1
80 422 1
80 428 1
80 435 1
81 136 1
81 143 1
81 149 1
81 156 1
81 248 1
81 255 1
81 261 1
81 268 1
81 360 1
81 367 1
81 373 1
81 380 1
81 416 1
81 423 1
81 429 1
81 436 1
82 137 1
82 144 1
82 150 1
82 157 1
82 249 1
82 256 1
82 262 1
82 269 1
82 361 1
82 368 1
82 374 1
82 381 1
82 417 1
82 424 1
82 430 1
82 437 1
83 138 1
83 145 1
83 151 1
83 158 1
83 250 1
83 257 1
83 263 1
83 270 1
83 362 1
83 369 1
83 375 1
83 382 1
83 418 1
83 425 1
83 431 1
83 438 1
84 139 1
84 146 1
84 152 1
84 159 1
84 251 1
84 258 1
84 264 1
84 271 1
84 363 1
84 370 1
84 376 1
84 383 1
84 419 1
84 426 1
84 432 1
84 439 1
85 169 1
85 203 1
85 209 1
85 221 1
85 281 1
85 315 1
85 321 1
85 333 1
85 337 1
85 371 1
85 377 1
85 389 1
85 393 1
85 427 1
85 433 1
85 445 1
86 170 1
86 197 1
86 210 1
86 222 1
86 282 1
86 309 1
86 322 1
86 334 1
86 338 1
86 365 1
86 378 1
86 390 1
86 394 1
86 421 1
86 434 1
86 446 1
87 171 1
87 198 1
87 204 1
87 223 1
87 283 1
87 310 1
87 316 1
87 335 1
87 339 1
87 366 1
87 372 1
87 391 1
87 395 1
87 422 1
87 428 1
87 447 1
88 172 1
88 199 1
88 205 1
88 224 1
88 284 1
88 311 1
88 317 1
88 336 1
88 340 1
88 367 1
88 373 1
88 392 1
88 396 1
88 423 1
88 429 1
88 448 1
89 173 1
89 200 1
89 206 1
89 218 1
89 285 1
89 312 1
89 318 1
89 330 1
89 341 1
89 368 1
89 374 1
89 386 1
89 397 1
89 424 1
89 430 1
89 442 1
90 174 1
90 201 1
90 207 1
90 219 1
90 286 1
90 313 1
90 319 1
90 331 1
90 342 1
90 369 1
90 375 1
90 387 1
90 398 1
90 425 1
90 431 1
90 443 1
91 175 1
91 202 1
91 208 1
91 220 1
91 287 1
91 314 1
91 320 1
91 332 1
91 343 1
91 370 1
91 376 1
91 388 1
91 399 1
91 426 1
91 432 1
91 444 1
92 176 1
92 203 1
92 216 1
92 221 1
92 288 1
92 315 1
92 328 1
92 333 1
92 344 1
92 371 1
92 384 1
92 389 1
92 400 1
92 427 1
92 440 1
92 445 1
93 177 1
93 197 1
93 217 1
93 222 1
93 289 1
93 309 1
93 329 1
93 334 1
93 345 1
93 365 1
93 385 1
93 390 1
93 401 1
93 421 1
93 441 1
93 446 1
94 178 1
94 198 1
94 211 1
94 223 1
94 290 1
94 310 1
94 323 1
94 335 1
94 346 1
94 366 1
94 379 1
94 391 1
94 402 1
94 422 1
94 435 1
94 447 1
95 179 1
95 199 1
95 212 1
95 224 1
95 291 1
95 311 1
95 324 1
95 336 1
95 347 1
95 367 1
95 380 1
95 392 1
95 403 1
95 423 1
95 436 1
95 448 1
96 180 1
96 200 1
96 213 1
96 218 1
96 292 1
96 312 1
96 325 1
96 330 1
96 348 1
96 368 1
96 381 1
96 386 1
96 404 1
96 424 1
96 437 1
96 442 1
97 181 1
97 201 1
97 214 1
97 219 1
97 293 1
97 313 1
97 326 1
97 331 1
97 349 1
97 369 1
97 382 1
97 387 1
97 405 1
97 425 1
97 438 1
97 443 1
98 182 1
98 202 1
98 215 1
98 220 1
98 294 1
98 314 1
98 327 1
98 332 1
98 350 1
98 370 1
98 383 1
98 388 1
98 406 1
98 426 1
98 439 1
98 444 1
99 183 1
99 209 1
99 216 1
99 221 1
99 295 1
99 321 1
99 328 1
99 333 1
99 351 1
99 377 1
99 384 1
99 389 1
99 407 1
99 433 1
99 440 1
99 445 1
100 184 1
100 210 1
100 217 1
100 222 1
100 296 1
100 322 1
100 329 1
100 334 1
100 352 1
100 378 1
100 385 1
100 390 1
100 408 1
100 434 1
100 441 1
100 446 1
101 185 1
101 204 1
101 211 1
101 223 1
101 297 1
101 316 1
101 323 1
101 335 1
101 353 1
101 372 1
101 379 1
101 391 1
101 409 1
101 428 1
101 435 1
101 447 1
102 186 1
102 205 1
102 212 1
102 224 1
102 298 1
102 317 1
102 324 1
102 336 1
102 354 1
102 373 1
102 380 1
102 392 1
102 410 1
102 429 1
102 436 1
102 448 1
103 187 1
103 206 1
103 213 1
103 218 1
103 299 1
103 318 1
103 325 1
103 330 1
103 355 1
103 374 1
103 381 1
103 386 1
103 411 1
103 430 1
103 437 1
103 442 1
104 188 1
104 207 1
104 214 1
104 219 1
104 300 1
104 319 1
104 326 1
104 331 1
104 356 1
104 375 1
104 382 1
104 387 1
104 412 1
104 431 1
104 438 1
104 443 1
105 189 1
105 208 1
105 215 1
105 220 1
105 301 1
105 320 1
105 327 1
105 332 1
105 357 1
105 376 1
105 383 1
105 388 1
105 413 1
105 432 1
105 439 1
105 444 1
106 196 1
106 203 1
106 209 1
106 216 1
106 308 1
106 315 1
106 321 1
106 328 1
106 364 1
106 371 1
106 377 1
106 384 1
106 420 1
106 427 1
106 433 1
106 440 1
107 190 1
107 197 1
107 210 1
107 217 1
107 302 1
107 309 1
107 322 1
107 329 1
107 358 1
107 365 1
107 378 1
107 385 1
107 414 1
107 421 1
107 434 1
107 441 1
108 191 1
108 198 1
108 204 1
108 211 1
108 303 1
108 310 1
108 316 1
108 323 1
108 359 1
108 366 1
108 372 1
108 379 1
108 415 1
108 422 1
108 428 1
108 435 1
109 192 1
109 199 1
109 205 1
109 212 1
109 304 1
109 311 1
109 317 1
109 324 1
109 360 1
109 367 1
109 373 1
109 380 1
109 416 1
109 423 1
109 429 1
109 436 1
110 193 1
110 200 1
110 206 1
110 213 1
110 305 1
110 312 1
110 318 1
110 325 1
110 361 1
110 368 1
110 374 1
110 381 1
110 417 1
110 424 1
110 430 1
110 437 1
111 194 1
111 201 1
111 207 1
111 214 1
111 306 1
111 313 1
111 319 1
111 326 1
111 362 1
111 369 1
111 375 1
111 382 1
111 418 1
111 425 1
111 431 1
111 438 1
112 195 1
112 202 1
112 208 1
112 215 1
112 307 1
112 314 1
112 320 1
112 327 1
112 363 1
112 370 1
112 376 1
112 383 1
112 419 1
112 426 1
112 432 1
112 439 1
113 1 1
113 29 1
113 36 1
113 43 1
113 226 1
113 254 1
113 261 1
113 268 1
113 282 1
113 310 1
113 317 1
113 324 1
113 338 1
113 366 1
113 373 1
113 380 1
114 2 1
114 30 1
114 37 1
114 44 1
114 227 1
114 255 1
114 262 1
114 269 1
114 283 1
114 311 1
114 318 1
114 325 1
114 339 1
114 367 1
114 374 1
114 381 1
115 3 1
115 31 1
115 38 1
115 45 1
115 228 1
115 256 1
115 263 1
115 270 1
115 284 1
115 312 1
115 319 1
115 326 1
115 340 1
115 368 1
115 375 1
115 382 1
116 4 1
116 32 1
116 39 1
116 46 1
116 229 1
116 257 1
116 264 1
116 271 1
116 285 1
116 313 1
116 320 1
116 327 1
116 341 1
116 369 1
116 376 1
116 383 1
117 5 1
117 33 1
117 40 1
117 47 1
117 230 1
117 258 1
117 265 1
117 272 1
117 286 1
117 314 1
117 321 1
117 328 1
117 342 1
117 370 1
117 377 1
117 384 1
118 6 1
118 34 1
118 41 1
118 48 1
118 231 1
118 259 1
118 266 1
118 273 1
118 287 1
118 315 1
118 322 1
118 329 1
118 343 1
118 371 1
118 378 1
118 385 1
119 7 1
119 35 1
119 42 1
119 49 1
119 225 1
119 253 1
119 260 1
119 267 1
119 281 1
119 309 1
119 316 1
119 323 1
119 337 1
119 365 1
119 372 1
119 379 1
120 8 1
120 29 1
120 36 1
120 50 1
120 233 1
120 254 1
120 261 1
120 275 1
120 289 1
120 310 1
120 317 1
120 331 1
120 345 1
120 366 1
120 373 1
120 387 1
121 9 1
121 30 1
121 37 1
121 51 1
121 234 1
121 255 1
121 262 1
121 276 1
121 290 1
121 311 1
121 318 1
121 332 1
121 346 1
121 367 1
121 374 1
121 388 1
122 10 1
122 31 1
122 38 1
122 52 1
122 235 1
122 256 1
122 263 1
122 277 1
122 291 1
122 312 1
122 319 1
122 333 1
122 347 1
122 368 1
122 375 1
122 389 1
123 11 1
123 32 1
123 39 1
123 53 1
123 236 1
123 257 1
123 264 1
123 278 1
123 292 1
123 313 1
123 320 1
123 334 1
123 348 1
123 369 1
123 376 1
123 390 1
124 12 1
124 33 1
124 40 1
124 54 1
124 237 1
124 258 1
124 265 1
124 279 1
124 293 1
124 314 1
124 321 1
124 335 1
124 349 1
124 370 1
124 377 1
124 391 1
125 13 1
125 34 1
125 41 1
125 55 1
125 238 1
125 259 1
125 266 1
125 280 1
125 294 1
125 315 1
125 322 1
125 336 1
125 350 1
125 371 1
125 378 1
125 392 1
126 14 1
126 35 1
126 42 1
126 56 1
126 232 1
126 253 1
126 260 1
126 274 1
126 288 1
126 309 1
126 316 1
126 330 1
126 344 1
126 365 1
126 372 1
126 386 1
127 15 1
127 29 1
127 43 1
127 50 1
127 240 1
127 254 1
127 268 1
127 275 1
127 296 1
127 310 1
127 324 1
127 331 1
127 352 1
127 366 1
127 380 1
127 387 1
128 16 1
128 30 1
128 44 1
128 51 1
128 241 1
128 255 1
128 269 1
128 276 1
128 297 1
128 311 1
128 325 1
128 332 1
128 353 1
128 367 1
128 381 1
128 388 1
129 17 1
129 31 1
129 45 1
129 52 1
129 242 1
129 256 1
129 270 1
129 277 1
129 298 1
129 312 1
129 326 1
129 333 1
129 354 1
129 368 1
129 382 1
129 389 1
130 18 1
130 32 1
130 46 1
130 53 1
130 243 1
130 257 1
130 271 1
130 278 1
130 299 1
130 313 1
130 327 1
130 334 1
130 355 1
130 369 1
130 383 1
130 390 1
131 19 1
131 33 1
131 47 1
131 54 1
131 244 1
131 258 1
131 272 1
131 279 1
131 300 1
131 314 1
131 328 1
131 335 1
131 356 1
131 370 1
131 384 1
131 391 1
132 20 1
132 34 1
132 48 1
132 55 1
132 245 1
132 259 1
132 273 1
132 280 1
132 301 1
132 315 1
132 329 1
132 336 1
132 357 1
132 371 1
132 385 1
132 392 1
133 21 1
133 35 1
133 49 1
133 56 1
133 239 1
133 253 1
133 267 1
133 274 1
133 295 1
133 309 1
133 323 1
133 330 1
133 351 1
133 365 1
133 379 1
133 386 1
134 22 1
134 36 1
134 43 1
134 50 1
134 247 1
134 261 1
134 268 1
134 275 1
134 303 1
134 317 1
134 324 1
134 331 1
134 359 1
134 373 1
134 380 1
134 387 1
135 23 1
135 37 1
135 44 1
135 51 1
135 248 1
135 262 1
135 269 1
135 276 1
135 304 1
135 318 1
135 325 1
135 332 1
135 360 1
135 374 1
135 381 1
135 388 1
136 24 1
136 38 1
136 45 1
136 52 1
136 249 1
136 263 1
136 270 1
136 277 1
136 305 1
136 319 1
136 326 1
136 333 1
136 361 1
136 375 1
136 382 1
136 389 1
137 25 1
137 39 1
137 46 1
137 53 1
137 250 1
137 264 1
137 271 1
137 278 1
137 306 1
137 320 1
137 327 1
137 334 1
137 362 1
137 376 1
137 383 1
137 390 1
138 26 1
138 40 1
138 47 1
138 54 1
138 251 1
138 265 1
138 272 1
138 279 1
138 307 1
138 321 1
138 328 1
138 335 1
138 363 1
138 377 1
138 384 1
138 391 1
139 27 1
139 41 1
139 48 1
139 55 1
139 252 1
139 266 1
139 273 1
139 280 1
139 308 1
139 322 1
139 329 1
139 336 1
139 364 1
139 378 1
139 385 1
139 392 1
140 28 1
140 42 1
140 49 1
140 56 1
140 246 1
140 260 1
140 267 1
140 274 1
140 302 1
140 316 1
140 323 1
140 330 1
140 358 1
140 372 1
140 379 1
140 386 1
141 57 1
141 85 1
141 92 1
141 99 1
141 226 1
141 254 1
141 261 1
141 268 1
141 282 1
141 310 1
141 317 1
141 324 1
141 394 1
141 422 1
141 429 1
141 436 1
142 58 1
142 86 1
142 93 1
142 100 1
142 227 1
142 255 1
142 262 1
142 269 1
142 283 1
142 311 1
142 318 1
142 325 1
142 395 1
142 423 1
142 430 1
142 437 1
143 59 1
143 87 1
143 94 1
143 101 1
143 228 1
143 256 1
143 263 1
143 270 1
143 284 1
143 312 1
143 319 1
143 326 1
143 396 1
143 424 1
143 431 1
143 438 1
144 60 1
144 88 1
144 95 1
144 102 1
144 229 1
144 257 1
144 264 1
144 271 1
144 285 1
144 313 1
144 320 1
144 327 1
144 397 1
144 425 1
144 432 1
144 439 1
145 61 1
145 89 1
145 96 1
145 103 1
145 230 1
145 258 1
145 265 1
145 272 1
145 286 1
145 314 1
145 321 1
145 328 1
145 398 1
145 426 1
145 433 1
145 440 1
146 62 1
146 90 1
146 97 1
146 104 1
146 231 1
146 259 1
146 266 1
146 273 1
146 287 1
146 315 1
146 322 1
146 329 1
146 399 1
146 427 1
146 434 1
146 441 1
147 63 1
147 91 1
147 98 1
147 105 1
147 225 1
147 253 1
147 260 1
147 267 1
147 281 1
147 309 1
147 316 1
147 323 1
147 393 1
147 421 1
147 428 1
147 435 1
148 64 1
148 85 1
148 92 1
148 106 1
148 233 1
148 254 1
148 261 1
148 275 1
148 289 1
148 310 1
148 317 1
148 331 1
148 401 1
148 422 1
148 429 1
148 443 1
149 65 1
149 86 1
149 93 1
149 107 1
149 234 1
149 255 1
149 262 1
149 276 1
149 290 1
149 311 1
149 318 1
149 332 1
149 402 1
149 423 1
149 430 1
149 444 1
150 66 1
150 87 1
150 94 1
150 108 1
150 235 1
150 256 1
150 263 1
150 277 1
150 291 1
150 312 1
150 319 1
150 333 1
150 403 1
150 424 1
150 431 1
150 445 1
151 67 1
151 88 1
151 95 1
151 109 1
151 236 1
151 257 1
151 264 1
151 278 1
151 292 1
151 313 1
151 320 1
151 334 1
151 404 1
151 425 1
151 432 1
151 446 1
152 68 1
152 89 1
152 96 1
152 110 1
152 237 1
152 258 1
152 265 1
152 279 1
152 293 1
152 314 1
152 321 1
152 335 1
152 405 1
152 426 1
152 433 1
152 447 1
153 69 1
153 90 1
153 97 1
153 111 1
153 238 1
153 259 1
153 266 1
153 280 1
153 294 1
153 315 1
153 322 1
153 336 1
153 406 1
153 427 1
153 434 1
153 448 1
154 70 1
154 91 1
154 98 1
154 112 1
154 232 1
154 253 1
154 260 1
154 274 1
154 288 1
154 309 1
154 316 1
154 330 1
154 400 1
154 421 1
154 428 1
154 442 1
155 71 1
155 85 1
155 99 1
155 106 1
155 240 1
155 254 1
155 268 1
155 275 1
155 296 1
155 310 1
155 324 1
155 331 1
155 408 1
155 422 1
155 436 1
155 443 1
156 72 1
156 86 1
156 100 1
156 107 1
156 241 1
156 255 1
156 269 1
156 276 1
156 297 1
156 311 1
156 325 1
156 332 1
156 409 1
156 423 1
156 437 1
156 444 1
157 73 1
157 87 1
157 101 1
157 108 1
157 242 1
157 256 1
157 270 1
157 277 1
157 298 1
157 312 1
157 326 1
157 333 1
157 410 1
157 424 1
157 438 1
157 445 1
158 74 1
158 88 1
158 102 1
158 109 1
158 243 1
158 257 1
158 271 1
158 278 1
158 299 1
158 313 1
158 327 1
158 334 1
158 411 1
158 425 1
158 439 1
158 446 1
159 75 1
159 89 1
159 103 1
159 110 1
159 244 1
159 258 1
159 272 1
159 279 1
159 300 1
159 314 1
159 328 1
159 335 1
159 412 1
159 426 1
159 440 1
159 447 1
160 76 1
160 90 1
160 104 1
160 111 1
160 245 1
160 259 1
160 273 1
160 280 1
160 301 1
160 315 1
160 329 1
160 336 1
160 413 1
160 427 1
160 441 1
160 448 1
161 77 1
161 91 1
161 105 1
161 112 1
161 239 1
161 253 1
161 267 1
161 274 1
161 295 1
161 309 1
161 323 1
161 330 1
161 407 1
161 421 1
161 435 1
161 442 1
162 78 1
162 92 1
162 99 1
162 106 1
162 247 1
162 261 1
162 268 1
162 275 1
162 303 1
162 317 1
162 324 1
162 331 1
162 415 1
162 429 1
162 436 1
162 443 1
163 79 1
163 93 1
163 100 1
163 107 1
163 248 1
163 262 1
163 269 1
163 276 1
163 304 1
163 318 1
163 325 1
163 332 1
163 416 1
163 430 1
163 437 1
163 444 1
164 80 1
164 94 1
164 101 1
164 108 1
164 249 1
164 263 1
164 270 1
164 277 1
164 305 1
164 319 1
164 326 1
164 333 1
164 417 1
164 431 1
164 438 1
164 445 1
165 81 1
165 95 1
165 102 1
165 109 1
165 250 1
165 264 1
165 271 1
165 278 1
165 306 1
165 320 1
165 327 1
165 334 1
165 418 1
165 432 1
165 439 1
165 446 1
166 82 1
166 96 1
166 103 1
166 110 1
166 251 1
166 265 1
166 272 1
166 279 1
166 307 1
166 321 1
166 328 1
166 335 1
166 419 1
166 433 1
166 440 1
166 447 1
167 83 1
167 97 1
167 104 1
167 111 1
167 252 1
167 266 1
167 273 1
167 280 1
167 308 1
167 322 1
167 329 1
167 336 1
167 420 1
167 434 1
167 441 1
167 448 1
168 84 1
168 98 1
168 105 1
168 112 1
168 246 1
168 260 1
168 267 1
168 274 1
168 302 1
168 316 1
168 323 1
168 330 1
168 414 1
168 428 1
168 435 1
168 442 1
169 113 1
169 141 1
169 148 1
169 155 1
169 226 1
169 254 1
169 261 1
169 268 1
169 338 1
169 366 1
169 373 1
169 380 1
169 394 1
169 422 1
169 429 1
169 436 1
170 114 1
170 142 1
170 149 1
170 156 1
170 227 1
170 255 1
170 262 1
170 269 1
170 339 1
170 367 1
170 374 1
170 381 1
170 395 1
170 423 1
170 430 1
170 437 1
171 115 1
171 143 1
171 150 1
171 157 1
171 228 1
171 256 1
171 263 1
171 270 1
171 340 1
171 368 1
171 375 1
171 382 1
171 396 1
171 424 1
171 431 1
171 438 1
172 116 1
172 144 1
172 151 1
172 158 1
172 229 1
172 257 1
172 264 1
172 271 1
172 341 1
172 369 1
172 376 1
172 383 1
172 397 1
172 425 1
172 432 1
172 439 1
173 117 1
173 145 1
173 152 1
173 159 1
173 230 1
173 258 1
173 265 1
173 272 1
173 342 1
173 370 1
173 377 1
173 384 1
173 398 1
173 426 1
173 433 1
173 440 1
174 118 1
174 146 1
174 153 1
174 160 1
174 231 1
174 259 1
174 266 1
174 273 1
174 343 1
174 371 1
174 378 1
174 385 1
174 399 1
174 427 1
174 434 1
174 441 1
175 119 1
175 147 1
175 154 1
175 161 1
175 225 1
175 253 1
175 260 1
175 267 1
175 337 1
175 365 1
175 372 1
175 379 1
175 393 1
175 421 1
175 428 1
175 435 1
176 120 1
176 141 1
176 148 1
176 162 1
176 233 1
176 254 1
176 261 1
176 275 1
176 345 1
176 366 1
176 373 1
176 387 1
176 401 1
176 422 1
176 429 1
176 443 1
177 121 1
177 142 1
177 149 1
177 163 1
177 234 1
177 255 1
177 262 1
177 276 1
177 346 1
177 367 1
177 374 1
177 388 1
177 402 1
177 423 1
177 430 1
177 444 1
178 122 1
178 143 1
178 150 1
178 164 1
178 235 1
178 256 1
178 263 1
178 277 1
178 347 1
178 368 1
178 375 1
178 389 1
178 403 1
178 424 1
178 431 1
178 445 1
179 123 1
179 144 1
179 151 1
179 165 1
179 236 1
179 257 1
179 264 1
179 278 1
179 348 1
179 369 1
179 376 1
179 390 1
179 404 1
179 425 1
179 432 1
179 446 1
180 124 1
180 145 1
180 152 1
180 166 1
180 237 1
180 258 1
180 265 1
180 279 1
180 349 1
180 370 1
180 377 1
180 391 1
180 405 1
180 426 1
180 433 1
180 447 1
181 125 1
181 146 1
181 153 1
181 167 1
181 238 1
181 259 1
181 266 1
181 280 1
181 350 1
181 371 1
181 378 1
181 392 1
181 406 1
181 427 1
181 434 1
181 448 1
182 126 1
182 147 1
182 154 1
182 168 1
182 232 1
182 253 1
182 260 1
182 274 1
182 344 1
182 365 1
182 372 1
182 386 1
182 400 1
182 421 1
182 428 1
182 442 1
183 127 1
183 141 1
183 155 1
183 162 1
183 240 1
183 254 1
183 268 1
183 275 1
183 352 1
183 366 1
183 380 1
183 387 1
183 408 1
183 422 1
183 436 1
183 443 1
184 128 1
184 142 1
184 156 1
184 163 1
184 241 1
184 255 1
184 269 1
184 276 1
184 353 1
184 367 1
184 381 1
184 388 1
184 409 1
184 423 1
184 437 1
184 444 1
185 129 1
185 143 1
185 157 1
185 164 1
185 242 1
185 256 1
185 270 1
185 277 1
185 354 1
185 368 1
185 382 1
185 389 1
185 410 1
185 424 1
185 438 1
185 445 1
186 130 1
186 144 1
186 158 1
186 165 1
186 243 1
186 257 1
186 271 1
186 278 1
186 355 1
186 369 1
186 383 1
186 390 1
186 411 1
186 425 1
186 439 1
186 446 1
187 131 1
187 145 1
187 159 1
187 166 1
187 244 1
187 258 1
187 272 1
187 279 1
187 356 1
187 370 1
187 384 1
187 391 1
187 412 1
187 426 1
187 440 1
187 447 1
188 132 1
188 146 1
188 160 1
188 167 1
188 245 1
188 259 1
188 273 1
188 280 1
188 357 1
188 371 1
188 385 1
188 392 1
188 413 1
188 427 1
188 441 1
188 448 1
189 133 1
189 147 1
189 161 1
189 168 1
189 239 1
189 253 1
189 267 1
189 274 1
189 351 1
189 365 1
189 379 1
189 386 1
189 407 1
189 421 1
189 435 1
189 442 1
190 134 1
190 148 1
190 155 1
190 162 1
190 247 1
190 261 1
190 268 1
190 275 1
190 359 1
190 373 1
190 380 1
190 387 1
190 415 1
190 429 1
190 436 1
190 443 1
191 135 1
191 149 1
191 156 1
191 163 1
191 248 1
191 262 1
191 269 1
191 276 1
191 360 1
191 374 1
191 381 1
191 388 1
191 416 1
191 430 1
191 437 1
191 444 1
192 136 1
192 150 1
192 157 1
192 164 1
192 249 1
192 263 1
192 270 1
192 277 1
192 361 1
192 375 1
192 382 1
192 389 1
192 417 1
192 431 1
192 438 1
192 445 1
193 137 1
193 151 1
193 158 1
193 165 1
193 250 1
193 264 1
193 271 1
193 278 1
193 362 1
193 376 1
193 383 1
193 390 1
193 418 1
193 432 1
193 439 1
193 446 1
194 138 1
194 152 1
194 159 1
194 166 1
194 251 1
194 265 1
194 272 1
194 279 1
194 363 1
194 377 1
194 384 1
194 391 1
194 419 1
194 433 1
194 440 1
194 447 1
195 139 1
195 153 1
195 160 1
195 167 1
195 252 1
195 266 1
195 273 1
195 280 1
195 364 1
195 378 1
195 385 1
195 392 1
195 420 1
195 434 1
195 441 1
195 448 1
196 140 1
196 154 1
196 161 1
196 168 1
196 246 1
196 260 1
196 267 1
196 274 1
196 358 1
196 372 1
196 379 1
196 386 1
196 414 1
196 428 1
196 435 1
196 442 1
197 169 1
197 197 1
197 204 1
197 211 1
197 282 1
197 310 1
197 317 1
197 324 1
197 338 1
197 366 1
197 373 1
197 380 1
197 394 1
197 422 1
197 429 1
197 436 1
198 170 1
198 198 1
198 205 1
198 212 1
198 283 1
198 311 1
198 318 1
198 325 1
198 339 1
198 367 1
198 374 1
198 381 1
198 395 1
198 423 1
198 430 1
198 437 1
199 171 1
199 199 1
199 206 1
199 213 1
199 284 1
199 312 1
199 319 1
199 326 1
199 340 1
199 368 1
199 375 1
199 382 1
199 396 1
199 424 1
199 431 1
199 438 1
200 172 1
200 200 1
200 207 1
200 214 1
200 285 1
200 313 1
200 320 1
200 327 1
200 341 1
200 369 1
200 376 1
200 383 1
200 397 1
200 425 1
200 432 1
200 439 1
201 173 1
201 201 1
201 208 1
201 215 1
201 286 1
201 314 1
201 321 1
201 328 1
201 342 1
201 370 1
201 377 1
201 384 1
201 398 1
201 426 1
201 433 1
201 440 1
202 174 1
202 202 1
202 209 1
202 216 1
202 287 1
202 315 1
202 322 1
202 329 1
202 343 1
202 371 1
202 378 1
202 385 1
202 399 1
202 427 1
202 434 1
202 441 1
203 175 1
203 203 1
203 210 1
203 217 1
203 281 1
203 309 1
203 316 1
203 323 1
203 337 1
203 365 1
203 372 1
203 379 1
203 393 1
203 421 1
203 428 1
203 435 1
204 176 1
204 197 1
204 204 1
204 218 1
204 289 1
204 310 1
204 317 1
204 331 1
204 345 1
204 366 1
204 373 1
204 387 1
204 401 1
204 422 1
204 429 1
204 443 1
205 177 1
205 198 1
205 205 1
205 219 1
205 290 1
205 311 1
205 318 1
205 332 1
205 346 1
205 367 1
205 374 1
205 388 1
205 402 1
205 423 1
205 430 1
205 444 1
206 178 1
206 199 1
206 206 1
206 220 1
206 291 1
206 312 1
206 319 1
206 333 1
206 347 1
206 368 1
206 375 1
206 389 1
206 403 1
206 424 1
206 431 1
206 445 1
207 179 1
207 200 1
207 207 1
207 221 1
207 292 1
207 313 1
207 320 1
207 334 1
207 348 1
207 369 1
207 376 1
207 390 1
207 404 1
207 425 1
207 432 1
207 446 1
208 180 1
208 201 1
208 208 1
208 222 1
208 293 1
208 314 1
208 321 1
208 335 1
208 349 1
208 370 1
208 377 1
208 391 1
208 405 1
208 426 1
208 433 1
208 447 1
209 181 1
209 202 1
209 209 1
209 223 1
209 294 1
209 315 1
209 322 1
209 336 1
209 350 1
209 371 1
209 378 1
209 392 1
209 406 1
209 427 1
209 434 1
209 448 1
210 182 1
210 203 1
210 210 1
210 224 1
210 288 1
210 309 1
210 316 1
210 330 1
210 344 1
210 365 1
210 372 1
210 386 1
210 400 1
210 421 1
210 428 1
210 442 1
211 183 1
211 197 1
211 211 1
211 218 1
211 296 1
211 310 1
211 324 1
211 331 1
211 352 1
211 366 1
211 380 1
211 387 1
211 408 1
211 422 1
211 436 1
211 443 1
212 184 1
212 198 1
212 212 1
212 219 1
212 297 1
212 311 1
212 325 1
212 332 1
212 353 1
212 367 1
212 381 1
212 388 1
212 409 1
212 423 1
212 437 1
212 444 1
213 185 1
213 199 1
213 213 1
213 220 1
213 298 1
213 312 1
213 326 1
213 333 1
213 354 1
213 368 1
213 382 1
213 389 1
213 410 1
213 424 1
213 438 1
213 445 1
214 186 1
214 200 1
214 214 1
214 221 1
214 299 1
214 313 1
214 327 1
214 334 1
214 355 1
214 369 1
214 383 1
214 390 1
214 411 1
214 425 1
214 439 1
214 446 1
215 187 1
215 201 1
215 215 1
215 222 1
215 300 1
215 314 1
215 328 1
215 335 1
215 356 1
215 370 1
215 384 1
215 391 1
215 412 1
215 426 1
215 440 1
215 447 1
216 188 1
216 202 1
216 216 1
216 223 1
216 301 1
216 315 1
216 329 1
216 336 1
216 357 1
216 371 1
216 385 1
216 392 1
216 413 1
216 427 1
216 441 1
216 448 1
217 189 1
217 203 1
217 217 1
217 224 1
217 295 1
217 309 1
217 323 1
217 330 1
217 351 1
217 365 1
217 379 1
217 386 1
217 407 1
217 421 1
217 435 1
217 442 1
218 190 1
218 204 1
218 211 1
218 218 1
218 303 1
218 317 1
218 324 1
218 331 1
218 359 1
218 373 1
218 380 1
218 387 1
218 415 1
218 429 1
218 436 1
218 443 1
219 191 1
219 205 1
219 212 1
219 219 1
219 304 1
219 318 1
219 325 1
219 332 1
219 360 1
219 374 1
219 381 1
219 388 1
219 416 1
219 430 1
219 437 1
219 444 1
220 192 1
220 206 1
220 213 1
220 220 1
220 305 1
220 319 1
220 326 1
220 333 1
220 361 1
220 375 1
220 382 1
220 389 1
220 417 1
220 431 1
220 438 1
220 445 1
221 193 1
221 207 1
221 214 1
221 221 1
221 306 1
221 320 1
221 327 1
221 334 1
221 362 1
221 376 1
221 383 1
221 390 1
221 418 1
221 432 1
221 439 1
221 446 1
222 194 1
222 208 1
222 215 1
222 222 1
222 307 1
222 321 1
222 328 1
222 335 1
222 363 1
222 377 1
222 384 1
222 391 1
222 419 1
222 433 1
222 440 1
222 447 1
223 195 1
223 209 1
223 216 1
223 223 1
223 308 1
223 322 1
223 329 1
223 336 1
223 364 1
223 378 1
223 385 1
223 392 1
223 420 1
223 434 1
223 441 1
223 448 1
224 196 1
224 210 1
224 217 1
224 224 1
224 302 1
224 316 1
224 323 1
224 330 1
224 358 1
224 372 1
224 379 1
224 386 1
224 414 1
224 428 1
224 435 1
224 442 1
