%%MatrixMarket matrix coordinate integer general
224 448 3584
1 1 1
1 29 1
1 36 1
1 43 1
1 225 1
1 253 1
1 260 1
1 267 1
1 281 1
1 309 1
1 316 1
1 323 1
1 337 1
1 365 1
1 372 1
1 379 1
2 2 1
2 30 1
2 37 1
2 44 1
2 226 1
2 254 1
2 261 1
2 268 1
2 282 1
2 310 1
2 317 1
2 324 1
2 338 1
2 366 1
2 373 1
2 380 1
3 3 1
3 31 1
3 38 1
3 45 1
3 227 1
3 255 1
3 262 1
3 269 1
3 283 1
3 311 1
3 318 1
3 325 1
3 339 1
3 367 1
3 374 1
3 381 1
4 4 1
4 32 1
4 39 1
4 46 1
4 228 1
4 256 1
4 263 1
4 270 1
4 284 1
4 312 1
4 319 1
4 326 1
4 340 1
4 368 1
4 375 1
4 382 1
5 5 1
5 33 1
5 40 1
5 47 1
5 229 1
5 257 1
5 264 1
5 271 1
5 285 1
5 313 1
5 320 1
5 327 1
5 341 1
5 369 1
5 376 1
5 383 1
6 6 1
6 34 1
6 41 1
6 48 1
6 230 1
6 258 1
6 265 1
6 272 1
6 286 1
6 314 1
6 321 1
6 328 1
6 342 1
6 370 1
6 377 1
6 384 1
7 7 1
7 35 1
7 42 1
7 49 1
7 231 1
7 259 1
7 266 1
7 273 1
7 287 1
7 315 1
7 322 1
7 329 1
7 343 1
7 371 1
7 378 1
7 385 1
8 8 1
8 29 1
8 36 1
8 50 1
8 232 1
8 253 1
8 260 1
8 274 1
8 288 1
8 309 1
8 316 1
8 330 1
8 344 1
8 365 1
8 372 1
8 386 1
9 9 1
9 30 1
9 37 1
9 51 1
9 233 1
9 254 1
9 261 1
9 275 1
9 289 1
9 310 1
9 317 1
9 331 1
9 345 1
9 366 1
9 373 1
9 387 1
10 10 1
10 31 1
10 38 1
10 52 1
10 234 1
10 255 1
10 262 1
10 276 1
10 290 1
10 311 1
10 318 1
10 332 1
10 346 1
10 367 1
10 374 1
10 388 1
11 11 1
11 32 1
11 39 1
11 53 1
11 235 1
11 256 1
11 263 1
11 277 1
11 291 1
11 312 1
11 319 1
11 333 1
11 347 1
11 368 1
11 375 1
11 389 1
12 12 1
12 33 1
12 40 1
12 54 1
12 236 1
12 257 1
12 264 1
12 278 1
12 292 1
12 313 1
12 320 1
12 334 1
12 348 1
12 369 1
12 376 1
12 390 1
13 13 1
13 34 1
13 41 1
13 55 1
13 237 1
13 258 1
13 265 1
13 279 1
13 293 1
13 314 1
13 321 1
13 335 1
13 349 1
13 370 1
13 377 1
13 391 1
14 14 1
14 35 1
14 42 1
14 56 1
14 238 1
14 259 1
14 266 1
14 280 1
14 294 1
14 315 1
14 322 1
14 336 1
14 350 1
14 371 1
14 378 1
14 392 1
15 15 1
15 29 1
15 43 1
15 50 1
15 239 1
15 253 1
15 267 1
15 274 1
15 295 1
15 309 1
15 323 1
15 330 1
15 351 1
15 365 1
15 379 1
15 386 1
16 16 1
16 30 1
16 44 1
16 51 1
16 240 1
16 254 1
16 268 1
16 275 1
16 296 1
16 310 1
16 324 1
16 331 1
16 352 1
16 366 1
16 380 1
16 387 1
17 17 1
17 31 1
17 45 1
17 52 1
17 241 1
17 255 1
17 269 1
17 276 1
17 297 1
17 311 1
17 325 1
17 332 1
17 353 1
17 367 1
17 381 1
17 388 1
18 18 1
18 32 1
18 46 1
18 53 1
18 242 1
18 256 1
18 270 1
18 277 1
18 298 1
18 312 1
18 326 1
18 333 1
18 354 1
18 368 1
18 382 1
18 389 1
19 19 1
19 33 1
19 47 1
19 54 1
19 243 1
19 257 1
19 271 1
19 278 1
19 299 1
19 313 1
19 327 1
19 334 1
19 355 1
19 369 1
19 383 1
19 390 1
20 20 1
20 34 1
20 48 1
20 55 1
20 244 1
20 258 1
20 272 1
20 279 1
20 300 1
20 314 1
20 328 1
20 335 1
20 356 1
20 370 1
20 384 1
20 391 1
21 21 1
21 35 1
21 49 1
21 56 1
21 245 1
21 259 1
21 273 1
21 280 1
21 301 1
21 315 1
21 329 1
21 336 1
21 357 1
21 371 1
21 385 1
21 392 1
22 22 1
22 36 1
22 43 1
22 50 1
22 246 1
22 260 1
22 267 1
22 274 1
22 302 1
22 316 1
22 323 1
22 330 1
22 358 1
22 372 1
22 379 1
22 386 1
23 23 1
23 37 1
23 44 1
23 51 1
23 247 1
23 261 1
23 268 1
23 275 1
23 303 1
23 317 1
23 324 1
23 331 1
23 359 1
23 373 1
23 380 1
23 387 1
24 24 1
24 38 1
24 45 1
24 52 1
24 248 1
24 262 1
24 269 1
24 276 1
24 304 1
24 318 1
24 325 1
24 332 1
24 360 1
24 374 1
24 381 1
24 388 1
25 25 1
25 39 1
25 46 1
25 53 1
25 249 1
25 263 1
25 270 1
25 277 1
25 305 1
25 319 1
25 326 1
25 333 1
25 361 1
25 375 1
25 382 1
25 389 1
26 26 1
26 40 1
26 47 1
26 54 1
26 250 1
26 264 1
26 271 1
26 278 1
26 306 1
26 320 1
26 327 1
26 334 1
26 362 1
26 376 1
26 383 1
26 390 1
27 27 1
27 41 1
27 48 1
27 55 1
27 251 1
27 265 1
27 272 1
27 279 1
27 307 1
27 321 1
27 328 1
27 335 1
27 363 1
27 377 1
27 384 1
27 391 1
28 28 1
28 42 1
28 49 1
28 56 1
28 252 1
28 266 1
28 273 1
28 280 1
28 308 1
28 322 1
28 329 1
28 336 1
28 364 1
28 378 1
28 385 1
28 392 1
29 57 1
29 85 1
29 92 1
29 99 1
29 225 1
29 253 1
29 260 1
29 267 1
29 281 1
29 309 1
29 316 1
29 323 1
29 393 1
29 421 1
29 428 1
29 435 1
30 58 1
30 86 1
30 93 1
30 100 1
30 226 1
30 254 1
30 261 1
30 268 1
30 282 1
30 310 1
30 317 1
30 324 1
30 394 1
30 422 1
30 429 1
30 436 1
31 59 1
31 87 1
31 94 1
31 101 1
31 227 1
31 255 1
31 262 1
31 269 1
31 283 1
31 311 1
31 318 1
31 325 1
31 395 1
31 423 1
31 430 1
31 437 1
32 60 1
32 88 1
32 95 1
32 102 1
32 228 1
32 256 1
32 263 1
32 270 1
32 284 1
32 312 1
32 319 1
32 326 1
32 396 1
32 424 1
32 431 1
32 438 1
33 61 1
33 89 1
33 96 1
33 103 1
33 229 1
33 257 1
33 264 1
33 271 1
33 285 1
33 313 1
33 320 1
33 327 1
33 397 1
33 425 1
33 432 1
33 439 1
34 62 1
34 90 1
34 97 1
34 104 1
34 230 1
34 258 1
34 265 1
34 272 1
34 286 1
34 314 1
34 321 1
34 328 1
34 398 1
34 426 1
34 433 1
34 440 1
35 63 1
35 91 1
35 98 1
35 105 1
35 231 1
35 259 1
35 266 1
35 273 1
35 287 1
35 315 1
35 322 1
35 329 1
35 399 1
35 427 1
35 434 1
35 441 1
36 64 1
36 85 1
36 92 1
36 106 1
36 232 1
36 253 1
36 260 1
36 274 1
36 288 1
36 309 1
36 316 1
36 330 1
36 400 1
36 421 1
36 428 1
36 442 1
37 65 1
37 86 1
37 93 1
37 107 1
37 233 1
37 254 1
37 261 1
37 275 1
37 289 1
37 310 1
37 317 1
37 331 1
37 401 1
37 422 1
37 429 1
37 443 1
38 66 1
38 87 1
38 94 1
38 108 1
38 234 1
38 255 1
38 262 1
38 276 1
38 290 1
38 311 1
38 318 1
38 332 1
38 402 1
38 423 1
38 430 1
38 444 1
39 67 1
39 88 1
39 95 1
39 109 1
39 235 1
39 256 1
39 263 1
39 277 1
39 291 1
39 312 1
39 319 1
39 333 1
39 403 1
39 424 1
39 431 1
39 445 1
40 68 1
40 89 1
40 96 1
40 110 1
40 236 1
40 257 1
40 264 1
40 278 1
40 292 1
40 313 1
40 320 1
40 334 1
40 404 1
40 425 1
40 432 1
40 446 1
41 69 1
41 90 1
41 97 1
41 111 1
41 237 1
41 258 1
41 265 1
41 279 1
41 293 1
41 314 1
41 321 1
41 335 1
41 405 1
41 426 1
41 433 1
41 447 1
42 70 1
42 91 1
42 98 1
42 112 1
42 238 1
42 259 1
42 266 1
42 280 1
42 294 1
42 315 1
42 322 1
42 336 1
42 406 1
42 427 1
42 434 1
42 448 1
43 71 1
43 85 1
43 99 1
43 106 1
43 239 1
43 253 1
43 267 1
43 274 1
43 295 1
43 309 1
43 323 1
43 330 1
43 407 1
43 421 1
43 435 1
43 442 1
44 72 1
44 86 1
44 100 1
44 107 1
44 240 1
44 254 1
44 268 1
44 275 1
44 296 1
44 310 1
44 324 1
44 331 1
44 408 1
44 422 1
44 436 1
44 443 1
45 73 1
45 87 1
45 101 1
45 108 1
45 241 1
45 255 1
45 269 1
45 276 1
45 297 1
45 311 1
45 325 1
45 332 1
45 409 1
45 423 1
45 437 1
45 444 1
46 74 1
46 88 1
46 102 1
46 109 1
46 242 1
46 256 1
46 270 1
46 277 1
46 298 1
46 312 1
46 326 1
46 333 1
46 410 1
46 424 1
46 438 1
46 445 1
47 75 1
47 89 1
47 103 1
47 110 1
47 243 1
47 257 1
47 271 1
47 278 1
47 299 1
47 313 1
47 327 1
47 334 1
47 411 1
47 425 1
47 439 1
47 446 1
48 76 1
48 90 1
48 104 1
48 111 1
48 244 1
48 258 1
48 272 1
48 279 1
48 300 1
48 314 1
48 328 1
48 335 1
48 412 1
48 426 1
48 440 1
48 447 1
49 77 1
49 91 1
49 105 1
49 112 1
49 245 1
49 259 1
49 273 1
49 280 1
49 301 1
49 315 1
49 329 1
49 336 1
49 413 1
49 427 1
49 441 1
49 448 1
50 78 1
50 92 1
50 99 1
50 106 1
50 246 1
50 260 1
50 267 1
50 274 1
50 302 1
50 316 1
50 323 1
50 330 1
50 414 1
50 428 1
50 435 1
50 442 1
51 79 1
51 93 1
51 100 1
51 107 1
51 247 1
51 261 1
51 268 1
51 275 1
51 303 1
51 317 1
51 324 1
51 331 1
51 415 1
51 429 1
51 436 1
51 443 1
52 80 1
52 94 1
52 101 1
52 108 1
52 248 1
52 262 1
52 269 1
52 276 1
52 304 1
52 318 1
52 325 1
52 332 1
52 416 1
52 430 1
52 437 1
52 444 1
53 81 1
53 95 1
53 102 1
53 109 1
53 249 1
53 263 1
53 270 1
53 277 1
53 305 1
53 319 1
53 326 1
53 333 1
53 417 1
53 431 1
53 438 1
53 445 1
54 82 1
54 96 1
54 103 1
54 110 1
54 250 1
54 264 1
54 271 1
54 278 1
54 306 1
54 320 1
54 327 1
54 334 1
54 418 1
54 432 1
54 439 1
54 446 1
55 83 1
55 97 1
55 104 1
55 111 1
55 251 1
55 265 1
55 272 1
55 279 1
55 307 1
55 321 1
55 328 1
55 335 1
55 419 1
55 433 1
55 440 1
55 447 1
56 84 1
56 98 1
56 105 1
56 112 1
56 252 1
56 266 1
56 273 1
56 280 1
56 308 1
56 322 1
56 329 1
56 336 1
56 420 1
56 434 1
56 441 1
56 448 1
57 113 1
57 141 1
57 148 1
57 155 1
57 225 1
57 253 1
57 260 1
57 267 1
57 337 1
57 365 1
57 372 1
57 379 1
57 393 1
57 421 1
57 428 1
57 435 1
58 114 1
58 142 1
58 149 1
58 156 1
58 226 1
58 254 1
58 261 1
58 268 1
58 338 1
58 366 1
58 373 1
58 380 1
58 394 1
58 422 1
58 429 1
58 436 1
59 115 1
59 143 1
59 150 1
59 157 1
59 227 1
59 255 1
59 262 1
59 269 1
59 339 1
59 367 1
59 374 1
59 381 1
59 395 1
59 423 1
59 430 1
59 437 1
60 116 1
60 144 1
60 151 1
60 158 1
60 228 1
60 256 1
60 263 1
60 270 1
60 340 1
60 368 1
60 375 1
60 382 1
60 396 1
60 424 1
60 431 1
60 438 1
61 117 1
61 145 1
61 152 1
61 159 1
61 229 1
61 257 1
61 264 1
61 271 1
61 341 1
61 369 1
61 376 1
61 383 1
61 397 1
61 425 1
61 432 1
61 439 1
62 118 1
62 146 1
62 153 1
62 160 1
62 230 1
62 258 1
62 265 1
62 272 1
62 342 1
62 370 1
62 377 1
62 384 1
62 398 1
62 426 1
62 433 1
62 440 1
63 119 1
63 147 1
63 154 1
63 161 1
63 231 1
63 259 1
63 266 1
63 273 1
63 343 1
63 371 1
63 378 1
63 385 1
63 399 1
63 427 1
63 434 1
63 441 1
64 120 1
64 141 1
64 148 1
64 162 1
64 232 1
64 253 1
64 260 1
64 274 1
64 344 1
64 365 1
64 372 1
64 386 1
64 400 1
64 421 1
64 428 1
64 442 1
65 121 1
65 142 1
65 149 1
65 163 1
65 233 1
65 254 1
65 261 1
65 275 1
65 345 1
65 366 1
65 373 1
65 387 1
65 401 1
65 422 1
65 429 1
65 443 1
66 122 1
66 143 1
66 150 1
66 164 1
66 234 1
66 255 1
66 262 1
66 276 1
66 346 1
66 367 1
66 374 1
66 388 1
66 402 1
66 423 1
66 430 1
66 444 1
67 123 1
67 144 1
67 151 1
67 165 1
67 235 1
67 256 1
67 263 1
67 277 1
67 347 1
67 368 1
67 375 1
67 389 1
67 403 1
67 424 1
67 431 1
67 445 1
68 124 1
68 145 1
68 152 1
68 166 1
68 236 1
68 257 1
68 264 1
68 278 1
68 348 1
68 369 1
68 376 1
68 390 1
68 404 1
68 425 1
68 432 1
68 446 1
69 125 1
69 146 1
69 153 1
69 167 1
69 237 1
69 258 1
69 265 1
69 279 1
69 349 1
69 370 1
69 377 1
69 391 1
69 405 1
69 426 1
69 433 1
69 447 1
70 126 1
70 147 1
70 154 1
70 168 1
70 238 1
70 259 1
70 266 1
70 280 1
70 350 1
70 371 1
70 378 1
70 392 1
70 406 1
70 427 1
70 434 1
70 448 1
71 127 1
71 141 1
71 155 1
71 162 1
71 239 1
71 253 1
71 267 1
71 274 1
71 351 1
71 365 1
71 379 1
71 386 1
71 407 1
71 421 1
71 435 1
71 442 1
72 128 1
72 142 1
72 156 1
72 163 1
72 240 1
72 254 1
72 268 1
72 275 1
72 352 1
72 366 1
72 380 1
72 387 1
72 408 1
72 422 1
72 436 1
72 443 1
73 129 1
73 143 1
73 157 1
73 164 1
73 241 1
73 255 1
73 269 1
73 276 1
73 353 1
73 367 1
73 381 1
73 388 1
73 409 1
73 423 1
73 437 1
73 444 1
74 130 1
74 144 1
74 158 1
74 165 1
74 242 1
74 256 1
74 270 1
74 277 1
74 354 1
74 368 1
74 382 1
74 389 1
74 410 1
74 424 1
74 438 1
74 445 1
75 131 1
75 145 1
75 159 1
75 166 1
75 243 1
75 257 1
75 271 1
75 278 1
75 355 1
75 369 1
75 383 1
75 390 1
75 411 1
75 425 1
75 439 1
75 446 1
76 132 1
76 146 1
76 160 1
76 167 1
76 244 1
76 258 1
76 272 1
76 279 1
76 356 1
76 370 1
76 384 1
76 391 1
76 412 1
76 426 1
76 440 1
76 447 1
77 133 1
77 147 1
77 161 1
77 168 1
77 245 1
77 259 1
77 273 1
77 280 1
77 357 1
77 371 1
77 385 1
77 392 1
77 413 1
77 427 1
77 441 1
77 448 1
78 134 1
78 148 1
78 155 1
78 162 1
78 246 1
78 260 1
78 267 1
78 274 1
78 358 1
78 372 1
78 379 1
78 386 1
78 414 1
78 428 1
78 435 1
78 442 1
79 135 1
79 149 1
79 156 1
79 163 1
79 247 1
79 261 1
79 268 1
79 275 1
79 359 1
79 373 1
79 380 1
79 387 1
79 415 1
79 429 1
79 436 1
79 443 1
80 136 1
80 150 1
80 157 1
80 164 1
80 248 1
80 262 1
80 269 1
80 276 1
80 360 1
80 374 1
80 381 1
80 388 1
80 416 1
80 430 1
80 437 1
80 444 1
81 137 1
81 151 1
81 158 1
81 165 1
81 249 1
81 263 1
81 270 1
81 277 1
81 361 1
81 375 1
81 382 1
81 389 1
81 417 1
81 431 1
81 438 1
81 445 1
82 138 1
82 152 1
82 159 1
82 166 1
82 250 1
82 264 1
82 271 1
82 278 1
82 362 1
82 376 1
82 383 1
82 390 1
82 418 1
82 432 1
82 439 1
82 446 1
83 139 1
83 153 1
83 160 1
83 167 1
83 251 1
83 265 1
83 272 1
83 279 1
83 363 1
83 377 1
83 384 1
83 391 1
83 419 1
83 433 1
83 440 1
83 447 1
84 140 1
84 154 1
84 161 1
84 168 1
84 252 1
84 266 1
84 273 1
84 280 1
84 364 1
84 378 1
84 385 1
84 392 1
84 420 1
84 434 1
84 441 1
84 448 1
85 169 1
85 197 1
85 204 1
85 211 1
85 281 1
85 309 1
85 316 1
85 323 1
85 337 1
85 365 1
85 372 1
85 379 1
85 393 1
85 421 1
85 428 1
85 435 1
86 170 1
86 198 1
86 205 1
86 212 1
86 282 1
86 310 1
86 317 1
86 324 1
86 338 1
86 366 1
86 373 1
86 380 1
86 394 1
86 422 1
86 429 1
86 436 1
87 171 1
87 199 1
87 206 1
87 213 1
87 283 1
87 311 1
87 318 1
87 325 1
87 339 1
87 367 1
87 374 1
87 381 1
87 395 1
87 423 1
87 430 1
87 437 1
88 172 1
88 200 1
88 207 1
88 214 1
88 284 1
88 312 1
88 319 1
88 326 1
88 340 1
88 368 1
88 375 1
88 382 1
88 396 1
88 424 1
88 431 1
88 438 1
89 173 1
89 201 1
89 208 1
89 215 1
89 285 1
89 313 1
89 320 1
89 327 1
89 341 1
89 369 1
89 376 1
89 383 1
89 397 1
89 425 1
89 432 1
89 439 1
90 174 1
90 202 1
90 209 1
90 216 1
90 286 1
90 314 1
90 321 1
90 328 1
90 342 1
90 370 1
90 377 1
90 384 1
90 398 1
90 426 1
90 433 1
90 440 1
91 175 1
91 203 1
91 210 1
91 217 1
91 287 1
91 315 1
91 322 1
91 329 1
91 343 1
91 371 1
91 378 1
91 385 1
91 399 1
91 427 1
91 434 1
91 441 1
92 176 1
92 197 1
92 204 1
92 218 1
92 288 1
92 309 1
92 316 1
92 330 1
92 344 1
92 365 1
92 372 1
92 386 1
92 400 1
92 421 1
92 428 1
92 442 1
93 177 1
93 198 1
93 205 1
93 219 1
93 289 1
93 310 1
93 317 1
93 331 1
93 345 1
93 366 1
93 373 1
93 387 1
93 401 1
93 422 1
93 429 1
93 443 1
94 178 1
94 199 1
94 206 1
94 220 1
94 290 1
94 311 1
94 318 1
94 332 1
94 346 1
94 367 1
94 374 1
94 388 1
94 402 1
94 423 1
94 430 1
94 444 1
95 179 1
95 200 1
95 207 1
95 221 1
95 291 1
95 312 1
95 319 1
95 333 1
95 347 1
95 368 1
95 375 1
95 389 1
95 403 1
95 424 1
95 431 1
95 445 1
96 180 1
96 201 1
96 208 1
96 222 1
96 292 1
96 313 1
96 320 1
96 334 1
96 348 1
96 369 1
96 376 1
96 390 1
96 404 1
96 425 1
96 432 1
96 446 1
97 181 1
97 202 1
97 209 1
97 223 1
97 293 1
97 314 1
97 321 1
97 335 1
97 349 1
97 370 1
97 377 1
97 391 1
97 405 1
97 426 1
97 433 1
97 447 1
98 182 1
98 203 1
98 210 1
98 224 1
98 294 1
98 315 1
98 322 1
98 336 1
98 350 1
98 371 1
98 378 1
98 392 1
98 406 1
98 427 1
98 434 1
98 448 1
99 183 1
99 197 1
99 211 1
99 218 1
99 295 1
99 309 1
99 323 1
99 330 1
99 351 1
99 365 1
99 379 1
99 386 1
99 407 1
99 421 1
99 435 1
99 442 1
100 184 1
100 198 1
100 212 1
100 219 1
100 296 1
100 310 1
100 324 1
100 331 1
100 352 1
100 366 1
100 380 1
100 387 1
100 408 1
100 422 1
100 436 1
100 443 1
101 185 1
101 199 1
101 213 1
101 220 1
101 297 1
101 311 1
101 325 1
101 332 1
101 353 1
101 367 1
101 381 1
101 388 1
101 409 1
101 423 1
101 437 1
101 444 1
102 186 1
102 200 1
102 214 1
102 221 1
102 298 1
102 312 1
102 326 1
102 333 1
102 354 1
102 368 1
102 382 1
102 389 1
102 410 1
102 424 1
102 438 1
102 445 1
103 187 1
103 201 1
103 215 1
103 222 1
103 299 1
103 313 1
103 327 1
103 334 1
103 355 1
103 369 1
103 383 1
103 390 1
103 411 1
103 425 1
103 439 1
103 446 1
104 188 1
104 202 1
104 216 1
104 223 1
104 300 1
104 314 1
104 328 1
104 335 1
104 356 1
104 370 1
104 384 1
104 391 1
104 412 1
104 426 1
104 440 1
104 447 1
105 189 1
105 203 1
105 217 1
105 224 1
105 301 1
105 315 1
105 329 1
105 336 1
105 357 1
105 371 1
105 385 1
105 392 1
105 413 1
105 427 1
105 441 1
105 448 1
106 190 1
106 204 1
106 211 1
106 218 1
106 302 1
106 316 1
106 323 1
106 330 1
106 358 1
106 372 1
106 379 1
106 386 1
106 414 1
106 428 1
106 435 1
106 442 1
107 191 1
107 205 1
107 212 1
107 219 1
107 303 1
107 317 1
107 324 1
107 331 1
107 359 1
107 373 1
107 380 1
107 387 1
107 415 1
107 429 1
107 436 1
107 443 1
108 192 1
108 206 1
108 213 1
108 220 1
108 304 1
108 318 1
108 325 1
108 332 1
108 360 1
108 374 1
108 381 1
108 388 1
108 416 1
108 430 1
108 437 1
108 444 1
109 193 1
109 207 1
109 214 1
109 221 1
109 305 1
109 319 1
109 326 1
109 333 1
109 361 1
109 375 1
109 382 1
109 389 1
109 417 1
109 431 1
109 438 1
109 445 1
110 194 1
110 208 1
110 215 1
110 222 1
110 306 1
110 320 1
110 327 1
110 334 1
110 362 1
110 376 1
110 383 1
110 390 1
110 418 1
110 432 1
110 439 1
110 446 1
111 195 1
111 209 1
111 216 1
111 223 1
111 307 1
111 321 1
111 328 1
111 335 1
111 363 1
111 377 1
111 384 1
111 391 1
111 419 1
111 433 1
111 440 1
111 447 1
112 196 1
112 210 1
112 217 1
112 224 1
112 308 1
112 322 1
112 329 1
112 336 1
112 364 1
112 378 1
112 385 1
112 392 1
112 420 1
112 434 1
112 441 1
112 448 1
113 1 1
113 34 1
113 45 1
113 52 1
113 227 1
113 253 1
113 271 1
113 278 1
113 341 1
113 367 1
113 385 1
113 392 1
113 398 1
113 424 1
113 435 1
113 442 1
114 2 1
114 35 1
114 46 1
114 53 1
114 228 1
114 254 1
114 272 1
114 279 1
114 342 1
114 368 1
114 379 1
114 386 1
114 399 1
114 425 1
114 436 1
114 443 1
115 3 1
115 29 1
115 47 1
115 54 1
115 229 1
115 255 1
115 273 1
115 280 1
115 343 1
115 369 1
115 380 1
115 387 1
115 393 1
115 426 1
115 437 1
115 444 1
116 4 1
116 30 1
116 48 1
116 55 1
116 230 1
116 256 1
116 267 1
116 274 1
116 337 1
116 370 1
116 381 1
116 388 1
116 394 1
116 427 1
116 438 1
116 445 1
117 5 1
117 31 1
117 49 1
117 56 1
117 231 1
117 257 1
117 268 1
117 275 1
117 338 1
117 371 1
117 382 1
117 389 1
117 395 1
117 421 1
117 439 1
117 446 1
118 6 1
118 32 1
118 43 1
118 50 1
118 225 1
118 258 1
118 269 1
118 276 1
118 339 1
118 365 1
118 383 1
118 390 1
118 396 1
118 422 1
118 440 1
118 447 1
119 7 1
119 33 1
119 44 1
119 51 1
119 226 1
119 259 1
119 270 1
119 277 1
119 340 1
119 366 1
119 384 1
119 391 1
119 397 1
119 423 1
119 441 1
119 448 1
120 8 1
120 34 1
120 40 1
120 45 1
120 234 1
120 253 1
120 266 1
120 271 1
120 348 1
120 367 1
120 373 1
120 385 1
120 405 1
120 424 1
120 430 1
120 435 1
121 9 1
121 35 1
121 41 1
121 46 1
121 235 1
121 254 1
121 260 1
121 272 1
121 349 1
121 368 1
121 374 1
121 379 1
121 406 1
121 425 1
121 431 1
121 436 1
122 10 1
122 29 1
122 42 1
122 47 1
122 236 1
122 255 1
122 261 1
122 273 1
122 350 1
122 369 1
122 375 1
122 380 1
122 400 1
122 426 1
122 432 1
122 437 1
123 11 1
123 30 1
123 36 1
123 48 1
123 237 1
123 256 1
123 262 1
123 267 1
123 344 1
123 370 1
123 376 1
123 381 1
123 401 1
123 427 1
123 433 1
123 438 1
124 12 1
124 31 1
124 37 1
124 49 1
124 238 1
124 257 1
124 263 1
124 268 1
124 345 1
124 371 1
124 377 1
124 382 1
124 402 1
124 421 1
124 434 1
124 439 1
125 13 1
125 32 1
125 38 1
125 43 1
125 232 1
125 258 1
125 264 1
125 269 1
125 346 1
125 365 1
125 378 1
125 383 1
125 403 1
125 422 1
125 428 1
125 440 1
126 14 1
126 33 1
126 39 1
126 44 1
126 233 1
126 259 1
126 265 1
126 270 1
126 347 1
126 366 1
126 372 1
126 384 1
126 404 1
126 423 1
126 429 1
126 441 1
127 21 1
127 34 1
127 40 1
127 52 1
127 240 1
127 253 1
127 266 1
127 278 1
127 354 1
127 367 1
127 373 1
127 392 1
127 411 1
127 424 1
127 430 1
127 442 1
128 15 1
128 35 1
128 41 1
128 53 1
128 241 1
128 254 1
128 260 1
128 279 1
128 355 1
128 368 1
128 374 1
128 386 1
128 412 1
128 425 1
128 431 1
128 443 1
129 16 1
129 29 1
129 42 1
129 54 1
129 242 1
129 255 1
129 261 1
129 280 1
129 356 1
129 369 1
129 375 1
129 387 1
129 413 1
129 426 1
129 432 1
129 444 1
130 17 1
130 30 1
130 36 1
130 55 1
130 243 1
130 256 1
130 262 1
130 274 1
130 357 1
130 370 1
130 376 1
130 388 1
130 407 1
130 427 1
130 433 1
130 445 1
131 18 1
131 31 1
131 37 1
131 56 1
131 244 1
131 257 1
131 263 1
131 275 1
131 351 1
131 371 1
131 377 1
131 389 1
131 408 1
131 421 1
131 434 1
131 446 1
132 19 1
132 32 1
132 38 1
132 50 1
132 245 1
132 258 1
132 264 1
132 276 1
132 352 1
132 365 1
132 378 1
132 390 1
132 409 1
132 422 1
132 428 1
132 447 1
133 20 1
133 33 1
133 39 1
133 51 1
133 239 1
133 259 1
133 265 1
133 277 1
133 353 1
133 366 1
133 372 1
133 391 1
133 410 1
133 423 1
133 429 1
133 448 1
134 27 1
134 40 1
134 45 1
134 52 1
134 246 1
134 266 1
134 271 1
134 278 1
134 360 1
134 373 1
134 385 1
134 392 1
134 417 1
134 430 1
134 435 1
134 442 1
135 28 1
135 41 1
135 46 1
135 53 1
135 247 1
135 260 1
135 272 1
135 279 1
135 361 1
135 374 1
135 379 1
135 386 1
135 418 1
135 431 1
135 436 1
135 443 1
136 22 1
136 42 1
136 47 1
136 54 1
136 248 1
136 261 1
136 273 1
136 280 1
136 362 1
136 375 1
136 380 1
136 387 1
136 419 1
136 432 1
136 437 1
136 444 1
137 23 1
137 36 1
137 48 1
137 55 1
137 249 1
137 262 1
137 267 1
137 274 1
137 363 1
137 376 1
137 381 1
137 388 1
137 420 1
137 433 1
137 438 1
137 445 1
138 24 1
138 37 1
138 49 1
138 56 1
138 250 1
138 263 1
138 268 1
138 275 1
138 364 1
138 377 1
138 382 1
138 389 1
138 414 1
138 434 1
138 439 1
138 446 1
139 25 1
139 38 1
139 43 1
139 50 1
139 251 1
139 264 1
139 269 1
139 276 1
139 358 1
139 378 1
139 383 1
139 390 1
139 415 1
139 428 1
139 440 1
139 447 1
140 26 1
140 39 1
140 44 1
140 51 1
140 252 1
140 265 1
140 270 1
140 277 1
140 359 1
140 372 1
140 384 1
140 391 1
140 416 1
140 429 1
140 441 1
140 448 1
141 57 1
141 90 1
141 101 1
141 108 1
141 227 1
141 253 1
141 271 1
141 278 1
141 285 1
141 311 1
141 329 1
141 336 1
141 341 1
141 367 1
141 385 1
141 392 1
142 58 1
142 91 1
142 102 1
142 109 1
142 228 1
142 254 1
142 272 1
142 279 1
142 286 1
142 312 1
142 323 1
142 330 1
142 342 1
142 368 1
142 379 1
142 386 1
143 59 1
143 85 1
143 103 1
143 110 1
143 229 1
143 255 1
143 273 1
143 280 1
143 287 1
143 313 1
143 324 1
143 331 1
143 343 1
143 369 1
143 380 1
143 387 1
144 60 1
144 86 1
144 104 1
144 111 1
144 230 1
144 256 1
144 267 1
144 274 1
144 281 1
144 314 1
144 325 1
144 332 1
144 337 1
144 370 1
144 381 1
144 388 1
145 61 1
145 87 1
145 105 1
145 112 1
145 231 1
145 257 1
145 268 1
145 275 1
145 282 1
145 315 1
145 326 1
145 333 1
145 338 1
145 371 1
145 382 1
145 389 1
146 62 1
146 88 1
146 99 1
146 106 1
146 225 1
146 258 1
146 269 1
146 276 1
146 283 1
146 309 1
146 327 1
146 334 1
146 339 1
146 365 1
146 383 1
146 390 1
147 63 1
147 89 1
147 100 1
147 107 1
147 226 1
147 259 1
147 270 1
147 277 1
147 284 1
147 310 1
147 328 1
147 335 1
147 340 1
147 366 1
147 384 1
147 391 1
148 64 1
148 90 1
148 96 1
148 101 1
148 234 1
148 253 1
148 266 1
148 271 1
148 292 1
148 311 1
148 317 1
148 329 1
148 348 1
148 367 1
148 373 1
148 385 1
149 65 1
149 91 1
149 97 1
149 102 1
149 235 1
149 254 1
149 260 1
149 272 1
149 293 1
149 312 1
149 318 1
149 323 1
149 349 1
149 368 1
149 374 1
149 379 1
150 66 1
150 85 1
150 98 1
150 103 1
150 236 1
150 255 1
150 261 1
150 273 1
150 294 1
150 313 1
150 319 1
150 324 1
150 350 1
150 369 1
150 375 1
150 380 1
151 67 1
151 86 1
151 92 1
151 104 1
151 237 1
151 256 1
151 262 1
151 267 1
151 288 1
151 314 1
151 320 1
151 325 1
151 344 1
151 370 1
151 376 1
151 381 1
152 68 1
152 87 1
152 93 1
152 105 1
152 238 1
152 257 1
152 263 1
152 268 1
152 289 1
152 315 1
152 321 1
152 326 1
152 345 1
152 371 1
152 377 1
152 382 1
153 69 1
153 88 1
153 94 1
153 99 1
153 232 1
153 258 1
153 264 1
153 269 1
153 290 1
153 309 1
153 322 1
153 327 1
153 346 1
153 365 1
153 378 1
153 383 1
154 70 1
154 89 1
154 95 1
154 100 1
154 233 1
154 259 1
154 265 1
154 270 1
154 291 1
154 310 1
154 316 1
154 328 1
154 347 1
154 366 1
154 372 1
154 384 1
155 77 1
155 90 1
155 96 1
155 108 1
155 240 1
155 253 1
155 266 1
155 278 1
155 298 1
155 311 1
155 317 1
155 336 1
155 354 1
155 367 1
155 373 1
155 392 1
156 71 1
156 91 1
156 97 1
156 109 1
156 241 1
156 254 1
156 260 1
156 279 1
156 299 1
156 312 1
156 318 1
156 330 1
156 355 1
156 368 1
156 374 1
156 386 1
157 72 1
157 85 1
157 98 1
157 110 1
157 242 1
157 255 1
157 261 1
157 280 1
157 300 1
157 313 1
157 319 1
157 331 1
157 356 1
157 369 1
157 375 1
157 387 1
158 73 1
158 86 1
158 92 1
158 111 1
158 243 1
158 256 1
158 262 1
158 274 1
158 301 1
158 314 1
158 320 1
158 332 1
158 357 1
158 370 1
158 376 1
158 388 1
159 74 1
159 87 1
159 93 1
159 112 1
159 244 1
159 257 1
159 263 1
159 275 1
159 295 1
159 315 1
159 321 1
159 333 1
159 351 1
159 371 1
159 377 1
159 389 1
160 75 1
160 88 1
160 94 1
160 106 1
160 245 1
160 258 1
160 264 1
160 276 1
160 296 1
160 309 1
160 322 1
160 334 1
160 352 1
160 365 1
160 378 1
160 390 1
161 76 1
161 89 1
161 95 1
161 107 1
161 239 1
161 259 1
161 265 1
161 277 1
161 297 1
161 310 1
161 316 1
161 335 1
161 353 1
161 366 1
161 372 1
161 391 1
162 83 1
162 96 1
162 101 1
162 108 1
162 246 1
162 266 1
162 271 1
162 278 1
162 304 1
162 317 1
162 329 1
162 336 1
162 360 1
162 373 1
162 385 1
162 392 1
163 84 1
163 97 1
163 102 1
163 109 1
163 247 1
163 260 1
163 272 1
163 279 1
163 305 1
163 318 1
163 323 1
163 330 1
163 361 1
163 374 1
163 379 1
163 386 1
164 78 1
164 98 1
164 103 1
164 110 1
164 248 1
164 261 1
164 273 1
164 280 1
164 306 1
164 319 1
164 324 1
164 331 1
164 362 1
164 375 1
164 380 1
164 387 1
165 79 1
165 92 1
165 104 1
165 111 1
165 249 1
165 262 1
165 267 1
165 274 1
165 307 1
165 320 1
165 325 1
165 332 1
165 363 1
165 376 1
165 381 1
165 388 1
166 80 1
166 93 1
166 105 1
166 112 1
166 250 1
166 263 1
166 268 1
166 275 1
166 308 1
166 321 1
166 326 1
166 333 1
166 364 1
166 377 1
166 382 1
166 389 1
167 81 1
167 94 1
167 99 1
167 106 1
167 251 1
167 264 1
167 269 1
167 276 1
167 302 1
167 322 1
167 327 1
167 334 1
167 358 1
167 378 1
167 383 1
167 390 1
168 82 1
168 95 1
168 100 1
168 107 1
168 252 1
168 265 1
168 270 1
168 277 1
168 303 1
168 316 1
168 328 1
168 335 1
168 359 1
168 372 1
168 384 1
168 391 1
169 114 1
169 147 1
169 158 1
169 165 1
169 227 1
169 253 1
169 271 1
169 278 1
169 285 1
169 311 1
169 329 1
169 336 1
169 398 1
169 424 1
169 435 1
169 442 1
170 115 1
170 141 1
170 159 1
170 166 1
170 228 1
170 254 1
170 272 1
170 279 1
170 286 1
170 312 1
170 323 1
170 330 1
170 399 1
170 425 1
170 436 1
170 443 1
171 116 1
171 142 1
171 160 1
171 167 1
171 229 1
171 255 1
171 273 1
171 280 1
171 287 1
171 313 1
171 324 1
171 331 1
171 393 1
171 426 1
171 437 1
171 444 1
172 117 1
172 143 1
172 161 1
172 168 1
172 230 1
172 256 1
172 267 1
172 274 1
172 281 1
172 314 1
172 325 1
172 332 1
172 394 1
172 427 1
172 438 1
172 445 1
173 118 1
173 144 1
173 155 1
173 162 1
173 231 1
173 257 1
173 268 1
173 275 1
173 282 1
173 315 1
173 326 1
173 333 1
173 395 1
173 421 1
173 439 1
173 446 1
174 119 1
174 145 1
174 156 1
174 163 1
174 225 1
174 258 1
174 269 1
174 276 1
174 283 1
174 309 1
174 327 1
174 334 1
174 396 1
174 422 1
174 440 1
174 447 1
175 113 1
175 146 1
175 157 1
175 164 1
175 226 1
175 259 1
175 270 1
175 277 1
175 284 1
175 310 1
175 328 1
175 335 1
175 397 1
175 423 1
175 441 1
175 448 1
176 121 1
176 147 1
176 153 1
176 158 1
176 234 1
176 253 1
176 266 1
176 271 1
176 292 1
176 311 1
176 317 1
176 329 1
176 405 1
176 424 1
176 430 1
176 435 1
177 122 1
177 141 1
177 154 1
177 159 1
177 235 1
177 254 1
177 260 1
177 272 1
177 293 1
177 312 1
177 318 1
177 323 1
177 406 1
177 425 1
177 431 1
177 436 1
178 123 1
178 142 1
178 148 1
178 160 1
178 236 1
178 255 1
178 261 1
178 273 1
178 294 1
178 313 1
178 319 1
178 324 1
178 400 1
178 426 1
178 432 1
178 437 1
179 124 1
179 143 1
179 149 1
179 161 1
179 237 1
179 256 1
179 262 1
179 267 1
179 288 1
179 314 1
179 320 1
179 325 1
179 401 1
179 427 1
179 433 1
179 438 1
180 125 1
180 144 1
180 150 1
180 155 1
180 238 1
180 257 1
180 263 1
180 268 1
180 289 1
180 315 1
180 321 1
180 326 1
180 402 1
180 421 1
180 434 1
180 439 1
181 126 1
181 145 1
181 151 1
181 156 1
181 232 1
181 258 1
181 264 1
181 269 1
181 290 1
181 309 1
181 322 1
181 327 1
181 403 1
181 422 1
181 428 1
181 440 1
182 120 1
182 146 1
182 152 1
182 157 1
182 233 1
182 259 1
182 265 1
182 270 1
182 291 1
182 310 1
182 316 1
182 328 1
182 404 1
182 423 1
182 429 1
182 441 1
183 127 1
183 147 1
183 153 1
183 165 1
183 240 1
183 253 1
183 266 1
183 278 1
183 298 1
183 311 1
183 317 1
183 336 1
183 411 1
183 424 1
183 430 1
183 442 1
184 128 1
184 141 1
184 154 1
184 166 1
184 241 1
184 254 1
184 260 1
184 279 1
184 299 1
184 312 1
184 318 1
184 330 1
184 412 1
184 425 1
184 431 1
184 443 1
185 129 1
185 142 1
185 148 1
185 167 1
185 242 1
185 255 1
185 261 1
185 280 1
185 300 1
185 313 1
185 319 1
185 331 1
185 413 1
185 426 1
185 432 1
185 444 1
186 130 1
186 143 1
186 149 1
186 168 1
186 243 1
186 256 1
186 262 1
186 274 1
186 301 1
186 314 1
186 320 1
186 332 1
186 407 1
186 427 1
186 433 1
186 445 1
187 131 1
187 144 1
187 150 1
187 162 1
187 244 1
187 257 1
187 263 1
187 275 1
187 295 1
187 315 1
187 321 1
187 333 1
187 408 1
187 421 1
187 434 1
187 446 1
188 132 1
188 145 1
188 151 1
188 163 1
188 245 1
188 258 1
188 264 1
188 276 1
188 296 1
188 309 1
188 322 1
188 334 1
188 409 1
188 422 1
188 428 1
188 447 1
189 133 1
189 146 1
189 152 1
189 164 1
189 239 1
189 259 1
189 265 1
189 277 1
189 297 1
189 310 1
189 316 1
189 335 1
189 410 1
189 423 1
189 429 1
189 448 1
190 140 1
190 153 1
190 158 1
190 165 1
190 246 1
190 266 1
190 271 1
190 278 1
190 304 1
190 317 1
190 329 1
190 336 1
190 417 1
190 430 1
190 435 1
190 442 1
191 134 1
191 154 1
191 159 1
191 166 1
191 247 1
191 260 1
191 272 1
191 279 1
191 305 1
191 318 1
191 323 1
191 330 1
191 418 1
191 431 1
191 436 1
191 443 1
192 135 1
192 148 1
192 160 1
192 167 1
192 248 1
192 261 1
192 273 1
192 280 1
192 306 1
192 319 1
192 324 1
192 331 1
192 419 1
192 432 1
192 437 1
192 444 1
193 136 1
193 149 1
193 161 1
193 168 1
193 249 1
193 262 1
193 267 1
193 274 1
193 307 1
193 320 1
193 325 1
193 332 1
193 420 1
193 433 1
193 438 1
193 445 1
194 137 1
194 150 1
194 155 1
194 162 1
194 250 1
194 263 1
194 268 1
194 275 1
194 308 1
194 321 1
194 326 1
194 333 1
194 414 1
194 434 1
194 439 1
194 446 1
195 138 1
195 151 1
195 156 1
195 163 1
195 251 1
195 264 1
195 269 1
195 276 1
195 302 1
195 322 1
195 327 1
195 334 1
195 415 1
195 428 1
195 440 1
195 447 1
196 139 1
196 152 1
196 157 1
196 164 1
196 252 1
196 265 1
196 270 1
196 277 1
196 303 1
196 316 1
196 328 1
196 335 1
196 416 1
196 429 1
196 441 1
196 448 1
197 170 1
197 203 1
197 214 1
197 221 1
197 285 1
197 311 1
197 329 1
197 336 1
197 341 1
197 367 1
197 385 1
197 392 1
197 398 1
197 424 1
197 435 1
197 442 1
198 171 1
198 197 1
198 215 1
198 222 1
198 286 1
198 312 1
198 323 1
198 330 1
198 342 1
198 368 1
198 379 1
198 386 1
198 399 1
198 425 1
198 436 1
198 443 1
199 172 1
199 198 1
199 216 1
199 223 1
199 287 1
199 313 1
199 324 1
199 331 1
199 343 1
199 369 1
199 380 1
199 387 1
199 393 1
199 426 1
199 437 1
199 444 1
200 173 1
200 199 1
200 217 1
200 224 1
200 281 1
200 314 1
200 325 1
200 332 1
200 337 1
200 370 1
200 381 1
200 388 1
200 394 1
200 427 1
200 438 1
200 445 1
201 174 1
201 200 1
201 211 1
201 218 1
201 282 1
201 315 1
201 326 1
201 333 1
201 338 1
201 371 1
201 382 1
201 389 1
201 395 1
201 421 1
201 439 1
201 446 1
202 175 1
202 201 1
202 212 1
202 219 1
202 283 1
202 309 1
202 327 1
202 334 1
202 339 1
202 365 1
202 383 1
202 390 1
202 396 1
202 422 1
202 440 1
202 447 1
203 169 1
203 202 1
203 213 1
203 220 1
203 284 1
203 310 1
203 328 1
203 335 1
203 340 1
203 366 1
203 384 1
203 391 1
203 397 1
203 423 1
203 441 1
203 448 1
204 177 1
204 203 1
204 209 1
204 214 1
204 292 1
204 311 1
204 317 1
204 329 1
204 348 1
204 367 1
204 373 1
204 385 1
204 405 1
204 424 1
204 430 1
204 435 1
205 178 1
205 197 1
205 210 1
205 215 1
205 293 1
205 312 1
205 318 1
205 323 1
205 349 1
205 368 1
205 374 1
205 379 1
205 406 1
205 425 1
205 431 1
205 436 1
206 179 1
206 198 1
206 204 1
206 216 1
206 294 1
206 313 1
206 319 1
206 324 1
206 350 1
206 369 1
206 375 1
206 380 1
206 400 1
206 426 1
206 432 1
206 437 1
207 180 1
207 199 1
207 205 1
207 217 1
207 288 1
207 314 1
207 320 1
207 325 1
207 344 1
207 370 1
207 376 1
207 381 1
207 401 1
207 427 1
207 433 1
207 438 1
208 181 1
208 200 1
208 206 1
208 211 1
208 289 1
208 315 1
208 321 1
208 326 1
208 345 1
208 371 1
208 377 1
208 382 1
208 402 1
208 421 1
208 434 1
208 439 1
209 182 1
209 201 1
209 207 1
209 212 1
209 290 1
209 309 1
209 322 1
209 327 1
209 346 1
209 365 1
209 378 1
209 383 1
209 403 1
209 422 1
209 428 1
209 440 1
210 176 1
210 202 1
210 208 1
210 213 1
210 291 1
210 310 1
210 316 1
210 328 1
210 347 1
210 366 1
210 372 1
210 384 1
210 404 1
210 423 1
210 429 1
210 441 1
211 183 1
211 203 1
211 209 1
211 221 1
211 298 1
211 311 1
211 317 1
211 336 1
211 354 1
211 367 1
211 373 1
211 392 1
211 411 1
211 424 1
211 430 1
211 442 1
212 184 1
212 197 1
212 210 1
212 222 1
212 299 1
212 312 1
212 318 1
212 330 1
212 355 1
212 368 1
212 374 1
212 386 1
212 412 1
212 425 1
212 431 1
212 443 1
213 185 1
213 198 1
213 204 1
213 223 1
213 300 1
213 313 1
213 319 1
213 331 1
213 356 1
213 369 1
213 375 1
213 387 1
213 413 1
213 426 1
213 432 1
213 444 1
214 186 1
214 199 1
214 205 1
214 224 1
214 301 1
214 314 1
214 320 1
214 332 1
214 357 1
214 370 1
214 376 1
214 388 1
214 407 1
214 427 1
214 433 1
214 445 1
215 187 1
215 200 1
215 206 1
215 218 1
215 295 1
215 315 1
215 321 1
215 333 1
215 351 1
215 371 1
215 377 1
215 389 1
215 408 1
215 421 1
215 434 1
215 446 1
216 188 1
216 201 1
216 207 1
216 219 1
216 296 1
216 309 1
216 322 1
216 334 1
216 352 1
216 365 1
216 378 1
216 390 1
216 409 1
216 422 1
216 428 1
216 447 1
217 189 1
217 202 1
217 208 1
217 220 1
217 297 1
217 310 1
217 316 1
217 335 1
217 353 1
217 366 1
217 372 1
217 391 1
217 410 1
217 423 1
217 429 1
217 448 1
218 196 1
218 209 1
218 214 1
218 221 1
218 304 1
218 317 1
218 329 1
218 336 1
218 360 1
218 373 1
218 385 1
218 392 1
218 417 1
218 430 1
218 435 1
218 442 1
219 190 1
219 210 1
219 215 1
219 222 1
219 305 1
219 318 1
219 323 1
219 330 1
219 361 1
219 374 1
219 379 1
219 386 1
219 418 1
219 431 1
219 436 1
219 443 1
220 191 1
220 204 1
220 216 1
220 223 1
220 306 1
220 319 1
220 324 1
220 331 1
220 362 1
220 375 1
220 380 1
220 387 1
220 419 1
220 432 1
220 437 1
220 444 1
221 192 1
221 205 1
221 217 1
221 224 1
221 307 1
221 320 1
221 325 1
221 332 1
221 363 1
221 376 1
221 381 1
221 388 1
221 420 1
221 433 1
221 438 1
221 445 1
222 193 1
222 206 1
222 211 1
222 218 1
222 308 1
222 321 1
222 326 1
222 333 1
222 364 1
222 377 1
222 382 1
222 389 1
222 414 1
222 434 1
222 439 1
222 446 1
223 194 1
223 207 1
223 212 1
223 219 1
223 302 1
223 322 1
223 327 1
223 334 1
223 358 1
223 378 1
223 383 1
223 390 1
223 415 1
223 428 1
223 440 1
223 447 1
224 195 1
224 208 1
224 213 1
224 220 1
224 303 1
224 316 1
224 328 1
224 335 1
224 359 1
224 372 1
224 384 1
224 391 1
224 416 1
224 429 1
224 441 1
224 448 1
