%%MatrixMarket matrix coordinate integer general
180 360 1620
1 1 1
1 31 1
1 41 1
1 61 1
1 91 1
1 101 1
1 181 1
1 211 1
1 221 1
2 2 1
2 32 1
2 42 1
2 62 1
2 92 1
2 102 1
2 182 1
2 212 1
2 222 1
3 3 1
3 33 1
3 43 1
3 63 1
3 93 1
3 103 1
3 183 1
3 213 1
3 223 1
4 4 1
4 34 1
4 44 1
4 64 1
4 94 1
4 104 1
4 184 1
4 214 1
4 224 1
5 5 1
5 35 1
5 45 1
5 65 1
5 95 1
5 105 1
5 185 1
5 215 1
5 225 1
6 6 1
6 36 1
6 46 1
6 66 1
6 96 1
6 106 1
6 186 1
6 216 1
6 226 1
7 7 1
7 37 1
7 47 1
7 67 1
7 97 1
7 107 1
7 187 1
7 217 1
7 227 1
8 8 1
8 38 1
8 48 1
8 68 1
8 98 1
8 108 1
8 188 1
8 218 1
8 228 1
9 9 1
9 39 1
9 49 1
9 69 1
9 99 1
9 109 1
9 189 1
9 219 1
9 229 1
10 10 1
10 40 1
10 50 1
10 70 1
10 100 1
10 110 1
10 190 1
10 220 1
10 230 1
11 11 1
11 31 1
11 51 1
11 71 1
11 91 1
11 111 1
11 191 1
11 211 1
11 231 1
12 12 1
12 32 1
12 52 1
12 72 1
12 92 1
12 112 1
12 192 1
12 212 1
12 232 1
13 13 1
13 33 1
13 53 1
13 73 1
13 93 1
13 113 1
13 193 1
13 213 1
13 233 1
14 14 1
14 34 1
14 54 1
14 74 1
14 94 1
14 114 1
14 194 1
14 214 1
14 234 1
15 15 1
15 35 1
15 55 1
15 75 1
15 95 1
15 115 1
15 195 1
15 215 1
15 235 1
16 16 1
16 36 1
16 56 1
16 76 1
16 96 1
16 116 1
16 196 1
16 216 1
16 236 1
17 17 1
17 37 1
17 57 1
17 77 1
17 97 1
17 117 1
17 197 1
17 217 1
17 237 1
18 18 1
18 38 1
18 58 1
18 78 1
18 98 1
18 118 1
18 198 1
18 218 1
18 238 1
19 19 1
19 39 1
19 59 1
19 79 1
19 99 1
19 119 1
19 199 1
19 219 1
19 239 1
20 20 1
20 40 1
20 60 1
20 80 1
20 100 1
20 120 1
20 200 1
20 220 1
20 240 1
21 21 1
21 41 1
21 51 1
21 81 1
21 101 1
21 111 1
21 201 1
21 221 1
21 231 1
22 22 1
22 42 1
22 52 1
22 82 1
22 102 1
22 112 1
22 202 1
22 222 1
22 232 1
23 23 1
23 43 1
23 53 1
23 83 1
23 103 1
23 113 1
23 203 1
23 223 1
23 233 1
24 24 1
24 44 1
24 54 1
24 84 1
24 104 1
24 114 1
24 204 1
24 224 1
24 234 1
25 25 1
25 45 1
25 55 1
25 85 1
25 105 1
25 115 1
25 205 1
25 225 1
25 235 1
26 26 1
26 46 1
26 56 1
26 86 1
26 106 1
26 116 1
26 206 1
26 226 1
26 236 1
27 27 1
27 47 1
27 57 1
27 87 1
27 107 1
27 117 1
27 207 1
27 227 1
27 237 1
28 28 1
28 48 1
28 58 1
28 88 1
28 108 1
28 118 1
28 208 1
28 228 1
28 238 1
29 29 1
29 49 1
29 59 1
29 89 1
29 109 1
29 119 1
29 209 1
29 229 1
29 239 1
30 30 1
30 50 1
30 60 1
30 90 1
30 110 1
30 120 1
30 210 1
30 230 1
30 240 1
31 1 1
31 31 1
31 41 1
31 121 1
31 151 1
31 161 1
31 241 1
31 271 1
31 281 1
32 2 1
32 32 1
32 42 1
32 122 1
32 152 1
32 162 1
32 242 1
32 272 1
32 282 1
33 3 1
33 33 1
33 43 1
33 123 1
33 153 1
33 163 1
33 243 1
33 273 1
33 283 1
34 4 1
34 34 1
34 44 1
34 124 1
34 154 1
34 164 1
34 244 1
34 274 1
34 284 1
35 5 1
35 35 1
35 45 1
35 125 1
35 155 1
35 165 1
35 245 1
35 275 1
35 285 1
36 6 1
36 36 1
36 46 1
36 126 1
36 156 1
36 166 1
36 246 1
36 276 1
36 286 1
37 7 1
37 37 1
37 47 1
37 127 1
37 157 1
37 167 1
37 247 1
37 277 1
37 287 1
38 8 1
38 38 1
38 48 1
38 128 1
38 158 1
38 168 1
38 248 1
38 278 1
38 288 1
39 9 1
39 39 1
39 49 1
39 129 1
39 159 1
39 169 1
39 249 1
39 279 1
39 289 1
40 10 1
40 40 1
40 50 1
40 130 1
40 160 1
40 170 1
40 250 1
40 280 1
40 290 1
41 11 1
41 31 1
41 51 1
41 131 1
41 151 1
41 171 1
41 251 1
41 271 1
41 291 1
42 12 1
42 32 1
42 52 1
42 132 1
42 152 1
42 172 1
42 252 1
42 272 1
42 292 1
43 13 1
43 33 1
43 53 1
43 133 1
43 153 1
43 173 1
43 253 1
43 273 1
43 293 1
44 14 1
44 34 1
44 54 1
44 134 1
44 154 1
44 174 1
44 254 1
44 274 1
44 294 1
45 15 1
45 35 1
45 55 1
45 135 1
45 155 1
45 175 1
45 255 1
45 275 1
45 295 1
46 16 1
46 36 1
46 56 1
46 136 1
46 156 1
46 176 1
46 256 1
46 276 1
46 296 1
47 17 1
47 37 1
47 57 1
47 137 1
47 157 1
47 177 1
47 257 1
47 277 1
47 297 1
48 18 1
48 38 1
48 58 1
48 138 1
48 158 1
48 178 1
48 258 1
48 278 1
48 298 1
49 19 1
49 39 1
49 59 1
49 139 1
49 159 1
49 179 1
49 259 1
49 279 1
49 299 1
50 20 1
50 40 1
50 60 1
50 140 1
50 160 1
50 180 1
50 260 1
50 280 1
50 300 1
51 21 1
51 41 1
51 51 1
51 141 1
51 161 1
51 171 1
51 261 1
51 281 1
51 291 1
52 22 1
52 42 1
52 52 1
52 142 1
52 162 1
52 172 1
52 262 1
52 282 1
52 292 1
53 23 1
53 43 1
53 53 1
53 143 1
53 163 1
53 173 1
53 263 1
53 283 1
53 293 1
54 24 1
54 44 1
54 54 1
54 144 1
54 164 1
54 174 1
54 264 1
54 284 1
54 294 1
55 25 1
55 45 1
55 55 1
55 145 1
55 165 1
55 175 1
55 265 1
55 285 1
55 295 1
56 26 1
56 46 1
56 56 1
56 146 1
56 166 1
56 176 1
56 266 1
56 286 1
56 296 1
57 27 1
57 47 1
57 57 1
57 147 1
57 167 1
57 177 1
57 267 1
57 287 1
57 297 1
58 28 1
58 48 1
58 58 1
58 148 1
58 168 1
58 178 1
58 268 1
58 288 1
58 298 1
59 29 1
59 49 1
59 59 1
59 149 1
59 169 1
59 179 1
59 269 1
59 289 1
59 299 1
60 30 1
60 50 1
60 60 1
60 150 1
60 170 1
60 180 1
60 270 1
60 290 1
60 300 1
61 61 1
61 91 1
61 101 1
61 121 1
61 151 1
61 161 1
61 301 1
61 331 1
61 341 1
62 62 1
62 92 1
62 102 1
62 122 1
62 152 1
62 162 1
62 302 1
62 332 1
62 342 1
63 63 1
63 93 1
63 103 1
63 123 1
63 153 1
63 163 1
63 303 1
63 333 1
63 343 1
64 64 1
64 94 1
64 104 1
64 124 1
64 154 1
64 164 1
64 304 1
64 334 1
64 344 1
65 65 1
65 95 1
65 105 1
65 125 1
65 155 1
65 165 1
65 305 1
65 335 1
65 345 1
66 66 1
66 96 1
66 106 1
66 126 1
66 156 1
66 166 1
66 306 1
66 336 1
66 346 1
67 67 1
67 97 1
67 107 1
67 127 1
67 157 1
67 167 1
67 307 1
67 337 1
67 347 1
68 68 1
68 98 1
68 108 1
68 128 1
68 158 1
68 168 1
68 308 1
68 338 1
68 348 1
69 69 1
69 99 1
69 109 1
69 129 1
69 159 1
69 169 1
69 309 1
69 339 1
69 349 1
70 70 1
70 100 1
70 110 1
70 130 1
70 160 1
70 170 1
70 310 1
70 340 1
70 350 1
71 71 1
71 91 1
71 111 1
71 131 1
71 151 1
71 171 1
71 311 1
71 331 1
71 351 1
72 72 1
72 92 1
72 112 1
72 132 1
72 152 1
72 172 1
72 312 1
72 332 1
72 352 1
73 73 1
73 93 1
73 113 1
73 133 1
73 153 1
73 173 1
73 313 1
73 333 1
73 353 1
74 74 1
74 94 1
74 114 1
74 134 1
74 154 1
74 174 1
74 314 1
74 334 1
74 354 1
75 75 1
75 95 1
75 115 1
75 135 1
75 155 1
75 175 1
75 315 1
75 335 1
75 355 1
76 76 1
76 96 1
76 116 1
76 136 1
76 156 1
76 176 1
76 316 1
76 336 1
76 356 1
77 77 1
77 97 1
77 117 1
77 137 1
77 157 1
77 177 1
77 317 1
77 337 1
77 357 1
78 78 1
78 98 1
78 118 1
78 138 1
78 158 1
78 178 1
78 318 1
78 338 1
78 358 1
79 79 1
79 99 1
79 119 1
79 139 1
79 159 1
79 179 1
79 319 1
79 339 1
79 359 1
80 80 1
80 100 1
80 120 1
80 140 1
80 160 1
80 180 1
80 320 1
80 340 1
80 360 1
81 81 1
81 101 1
81 111 1
81 141 1
81 161 1
81 171 1
81 321 1
81 341 1
81 351 1
82 82 1
82 102 1
82 112 1
82 142 1
82 162 1
82 172 1
82 322 1
82 342 1
82 352 1
83 83 1
83 103 1
83 113 1
83 143 1
83 163 1
83 173 1
83 323 1
83 343 1
83 353 1
84 84 1
84 104 1
84 114 1
84 144 1
84 164 1
84 174 1
84 324 1
84 344 1
84 354 1
85 85 1
85 105 1
85 115 1
85 145 1
85 165 1
85 175 1
85 325 1
85 345 1
85 355 1
86 86 1
86 106 1
86 116 1
86 146 1
86 166 1
86 176 1
86 326 1
86 346 1
86 356 1
87 87 1
87 107 1
87 117 1
87 147 1
87 167 1
87 177 1
87 327 1
87 347 1
87 357 1
88 88 1
88 108 1
88 118 1
88 148 1
88 168 1
88 178 1
88 328 1
88 348 1
88 358 1
89 89 1
89 109 1
89 119 1
89 149 1
89 169 1
89 179 1
89 329 1
89 349 1
89 359 1
90 90 1
90 110 1
90 120 1
90 150 1
90 170 1
90 180 1
90 330 1
90 350 1
90 360 1
91 1 1
91 45 1
91 56 1
91 123 1
91 167 1
91 178 1
91 306 1
91 350 1
91 359 1
92 2 1
92 46 1
92 55 1
92 124 1
92 168 1
92 177 1
92 305 1
92 349 1
92 360 1
93 3 1
93 47 1
93 58 1
93 125 1
93 169 1
93 180 1
93 308 1
93 342 1
93 351 1
94 4 1
94 48 1
94 57 1
94 126 1
94 170 1
94 179 1
94 307 1
94 341 1
94 352 1
95 5 1
95 49 1
95 60 1
95 127 1
95 161 1
95 172 1
95 310 1
95 344 1
95 353 1
96 6 1
96 50 1
96 59 1
96 128 1
96 162 1
96 171 1
96 309 1
96 343 1
96 354 1
97 7 1
97 41 1
97 52 1
97 129 1
97 163 1
97 174 1
97 302 1
97 346 1
97 355 1
98 8 1
98 42 1
98 51 1
98 130 1
98 164 1
98 173 1
98 301 1
98 345 1
98 356 1
99 9 1
99 43 1
99 54 1
99 121 1
99 165 1
99 176 1
99 304 1
99 348 1
99 357 1
100 10 1
100 44 1
100 53 1
100 122 1
100 166 1
100 175 1
100 303 1
100 347 1
100 358 1
101 12 1
101 27 1
101 56 1
101 134 1
101 149 1
101 178 1
101 315 1
101 322 1
101 359 1
102 11 1
102 28 1
102 55 1
102 133 1
102 150 1
102 177 1
102 316 1
102 321 1
102 360 1
103 14 1
103 29 1
103 58 1
103 136 1
103 141 1
103 180 1
103 317 1
103 324 1
103 351 1
104 13 1
104 30 1
104 57 1
104 135 1
104 142 1
104 179 1
104 318 1
104 323 1
104 352 1
105 16 1
105 21 1
105 60 1
105 138 1
105 143 1
105 172 1
105 319 1
105 326 1
105 353 1
106 15 1
106 22 1
106 59 1
106 137 1
106 144 1
106 171 1
106 320 1
106 325 1
106 354 1
107 18 1
107 23 1
107 52 1
107 140 1
107 145 1
107 174 1
107 311 1
107 328 1
107 355 1
108 17 1
108 24 1
108 51 1
108 139 1
108 146 1
108 173 1
108 312 1
108 327 1
108 356 1
109 20 1
109 25 1
109 54 1
109 132 1
109 147 1
109 176 1
109 313 1
109 330 1
109 357 1
110 19 1
110 26 1
110 53 1
110 131 1
110 148 1
110 175 1
110 314 1
110 329 1
110 358 1
111 12 1
111 38 1
111 45 1
111 134 1
111 160 1
111 167 1
111 315 1
111 331 1
111 350 1
112 11 1
112 37 1
112 46 1
112 133 1
112 159 1
112 168 1
112 316 1
112 332 1
112 349 1
113 14 1
113 40 1
113 47 1
113 136 1
113 152 1
113 169 1
113 317 1
113 333 1
113 342 1
114 13 1
114 39 1
114 48 1
114 135 1
114 151 1
114 170 1
114 318 1
114 334 1
114 341 1
115 16 1
115 32 1
115 49 1
115 138 1
115 154 1
115 161 1
115 319 1
115 335 1
115 344 1
116 15 1
116 31 1
116 50 1
116 137 1
116 153 1
116 162 1
116 320 1
116 336 1
116 343 1
117 18 1
117 34 1
117 41 1
117 140 1
117 156 1
117 163 1
117 311 1
117 337 1
117 346 1
118 17 1
118 33 1
118 42 1
118 139 1
118 155 1
118 164 1
118 312 1
118 338 1
118 345 1
119 20 1
119 36 1
119 43 1
119 132 1
119 158 1
119 165 1
119 313 1
119 339 1
119 348 1
120 19 1
120 35 1
120 44 1
120 131 1
120 157 1
120 166 1
120 314 1
120 340 1
120 347 1
121 1 1
121 45 1
121 56 1
121 183 1
121 227 1
121 238 1
121 245 1
121 289 1
121 300 1
122 2 1
122 46 1
122 55 1
122 184 1
122 228 1
122 237 1
122 246 1
122 290 1
122 299 1
123 3 1
123 47 1
123 58 1
123 185 1
123 229 1
123 240 1
123 247 1
123 281 1
123 292 1
124 4 1
124 48 1
124 57 1
124 186 1
124 230 1
124 239 1
124 248 1
124 282 1
124 291 1
125 5 1
125 49 1
125 60 1
125 187 1
125 221 1
125 232 1
125 249 1
125 283 1
125 294 1
126 6 1
126 50 1
126 59 1
126 188 1
126 222 1
126 231 1
126 250 1
126 284 1
126 293 1
127 7 1
127 41 1
127 52 1
127 189 1
127 223 1
127 234 1
127 241 1
127 285 1
127 296 1
128 8 1
128 42 1
128 51 1
128 190 1
128 224 1
128 233 1
128 242 1
128 286 1
128 295 1
129 9 1
129 43 1
129 54 1
129 181 1
129 225 1
129 236 1
129 243 1
129 287 1
129 298 1
130 10 1
130 44 1
130 53 1
130 182 1
130 226 1
130 235 1
130 244 1
130 288 1
130 297 1
131 12 1
131 27 1
131 56 1
131 194 1
131 209 1
131 238 1
131 256 1
131 261 1
131 300 1
132 11 1
132 28 1
132 55 1
132 193 1
132 210 1
132 237 1
132 255 1
132 262 1
132 299 1
133 14 1
133 29 1
133 58 1
133 196 1
133 201 1
133 240 1
133 258 1
133 263 1
133 292 1
134 13 1
134 30 1
134 57 1
134 195 1
134 202 1
134 239 1
134 257 1
134 264 1
134 291 1
135 16 1
135 21 1
135 60 1
135 198 1
135 203 1
135 232 1
135 260 1
135 265 1
135 294 1
136 15 1
136 22 1
136 59 1
136 197 1
136 204 1
136 231 1
136 259 1
136 266 1
136 293 1
137 18 1
137 23 1
137 52 1
137 200 1
137 205 1
137 234 1
137 252 1
137 267 1
137 296 1
138 17 1
138 24 1
138 51 1
138 199 1
138 206 1
138 233 1
138 251 1
138 268 1
138 295 1
139 20 1
139 25 1
139 54 1
139 192 1
139 207 1
139 236 1
139 254 1
139 269 1
139 298 1
140 19 1
140 26 1
140 53 1
140 191 1
140 208 1
140 235 1
140 253 1
140 270 1
140 297 1
141 12 1
141 38 1
141 45 1
141 194 1
141 220 1
141 227 1
141 256 1
141 272 1
141 289 1
142 11 1
142 37 1
142 46 1
142 193 1
142 219 1
142 228 1
142 255 1
142 271 1
142 290 1
143 14 1
143 40 1
143 47 1
143 196 1
143 212 1
143 229 1
143 258 1
143 274 1
143 281 1
144 13 1
144 39 1
144 48 1
144 195 1
144 211 1
144 230 1
144 257 1
144 273 1
144 282 1
145 16 1
145 32 1
145 49 1
145 198 1
145 214 1
145 221 1
145 260 1
145 276 1
145 283 1
146 15 1
146 31 1
146 50 1
146 197 1
146 213 1
146 222 1
146 259 1
146 275 1
146 284 1
147 18 1
147 34 1
147 41 1
147 200 1
147 216 1
147 223 1
147 252 1
147 278 1
147 285 1
148 17 1
148 33 1
148 42 1
148 199 1
148 215 1
148 224 1
148 251 1
148 277 1
148 286 1
149 20 1
149 36 1
149 43 1
149 192 1
149 218 1
149 225 1
149 254 1
149 280 1
149 287 1
150 19 1
150 35 1
150 44 1
150 191 1
150 217 1
150 226 1
150 253 1
150 279 1
150 288 1
151 61 1
151 105 1
151 116 1
151 123 1
151 167 1
151 178 1
151 183 1
151 227 1
151 238 1
152 62 1
152 106 1
152 115 1
152 124 1
152 168 1
152 177 1
152 184 1
152 228 1
152 237 1
153 63 1
153 107 1
153 118 1
153 125 1
153 169 1
153 180 1
153 185 1
153 229 1
153 240 1
154 64 1
154 108 1
154 117 1
154 126 1
154 170 1
154 179 1
154 186 1
154 230 1
154 239 1
155 65 1
155 109 1
155 120 1
155 127 1
155 161 1
155 172 1
155 187 1
155 221 1
155 232 1
156 66 1
156 110 1
156 119 1
156 128 1
156 162 1
156 171 1
156 188 1
156 222 1
156 231 1
157 67 1
157 101 1
157 112 1
157 129 1
157 163 1
157 174 1
157 189 1
157 223 1
157 234 1
158 68 1
158 102 1
158 111 1
158 130 1
158 164 1
158 173 1
158 190 1
158 224 1
158 233 1
159 69 1
159 103 1
159 114 1
159 121 1
159 165 1
159 176 1
159 181 1
159 225 1
159 236 1
160 70 1
160 104 1
160 113 1
160 122 1
160 166 1
160 175 1
160 182 1
160 226 1
160 235 1
161 72 1
161 87 1
161 116 1
161 134 1
161 149 1
161 178 1
161 194 1
161 209 1
161 238 1
162 71 1
162 88 1
162 115 1
162 133 1
162 150 1
162 177 1
162 193 1
162 210 1
162 237 1
163 74 1
163 89 1
163 118 1
163 136 1
163 141 1
163 180 1
163 196 1
163 201 1
163 240 1
164 73 1
164 90 1
164 117 1
164 135 1
164 142 1
164 179 1
164 195 1
164 202 1
164 239 1
165 76 1
165 81 1
165 120 1
165 138 1
165 143 1
165 172 1
165 198 1
165 203 1
165 232 1
166 75 1
166 82 1
166 119 1
166 137 1
166 144 1
166 171 1
166 197 1
166 204 1
166 231 1
167 78 1
167 83 1
167 112 1
167 140 1
167 145 1
167 174 1
167 200 1
167 205 1
167 234 1
168 77 1
168 84 1
168 111 1
168 139 1
168 146 1
168 173 1
168 199 1
168 206 1
168 233 1
169 80 1
169 85 1
169 114 1
169 132 1
169 147 1
169 176 1
169 192 1
169 207 1
169 236 1
170 79 1
170 86 1
170 113 1
170 131 1
170 148 1
170 175 1
170 191 1
170 208 1
170 235 1
171 72 1
171 98 1
171 105 1
171 134 1
171 160 1
171 167 1
171 194 1
171 220 1
171 227 1
172 71 1
172 97 1
172 106 1
172 133 1
172 159 1
172 168 1
172 193 1
172 219 1
172 228 1
173 74 1
173 100 1
173 107 1
173 136 1
173 152 1
173 169 1
173 196 1
173 212 1
173 229 1
174 73 1
174 99 1
174 108 1
174 135 1
174 151 1
174 170 1
174 195 1
174 211 1
174 230 1
175 76 1
175 92 1
175 109 1
175 138 1
175 154 1
175 161 1
175 198 1
175 214 1
175 221 1
176 75 1
176 91 1
176 110 1
176 137 1
176 153 1
176 162 1
176 197 1
176 213 1
176 222 1
177 78 1
177 94 1
177 101 1
177 140 1
177 156 1
177 163 1
177 200 1
177 216 1
177 223 1
178 77 1
178 93 1
178 102 1
178 139 1
178 155 1
178 164 1
178 199 1
178 215 1
178 224 1
179 80 1
179 96 1
179 103 1
179 132 1
179 158 1
179 165 1
179 192 1
179 218 1
179 225 1
180 79 1
180 95 1
180 104 1
180 131 1
180 157 1
180 166 1
180 191 1
180 217 1
180 226 1
