%%MatrixMarket matrix coordinate integer general
216 432 1944
1 1 1
1 37 1
1 49 1
1 73 1
1 109 1
1 121 1
1 217 1
1 253 1
1 265 1
2 2 1
2 38 1
2 50 1
2 74 1
2 110 1
2 122 1
2 218 1
2 254 1
2 266 1
3 3 1
3 39 1
3 51 1
3 75 1
3 111 1
3 123 1
3 219 1
3 255 1
3 267 1
4 4 1
4 40 1
4 52 1
4 76 1
4 112 1
4 124 1
4 220 1
4 256 1
4 268 1
5 5 1
5 41 1
5 53 1
5 77 1
5 113 1
5 125 1
5 221 1
5 257 1
5 269 1
6 6 1
6 42 1
6 54 1
6 78 1
6 114 1
6 126 1
6 222 1
6 258 1
6 270 1
7 7 1
7 43 1
7 55 1
7 79 1
7 115 1
7 127 1
7 223 1
7 259 1
7 271 1
8 8 1
8 44 1
8 56 1
8 80 1
8 116 1
8 128 1
8 224 1
8 260 1
8 272 1
9 9 1
9 45 1
9 57 1
9 81 1
9 117 1
9 129 1
9 225 1
9 261 1
9 273 1
10 10 1
10 46 1
10 58 1
10 82 1
10 118 1
10 130 1
10 226 1
10 262 1
10 274 1
11 11 1
11 47 1
11 59 1
11 83 1
11 119 1
11 131 1
11 227 1
11 263 1
11 275 1
12 12 1
12 48 1
12 60 1
12 84 1
12 120 1
12 132 1
12 228 1
12 264 1
12 276 1
13 13 1
13 37 1
13 61 1
13 85 1
13 109 1
13 133 1
13 229 1
13 253 1
13 277 1
14 14 1
14 38 1
14 62 1
14 86 1
14 110 1
14 134 1
14 230 1
14 254 1
14 278 1
15 15 1
15 39 1
15 63 1
15 87 1
15 111 1
15 135 1
15 231 1
15 255 1
15 279 1
16 16 1
16 40 1
16 64 1
16 88 1
16 112 1
16 136 1
16 232 1
16 256 1
16 280 1
17 17 1
17 41 1
17 65 1
17 89 1
17 113 1
17 137 1
17 233 1
17 257 1
17 281 1
18 18 1
18 42 1
18 66 1
18 90 1
18 114 1
18 138 1
18 234 1
18 258 1
18 282 1
19 19 1
19 43 1
19 67 1
19 91 1
19 115 1
19 139 1
19 235 1
19 259 1
19 283 1
20 20 1
20 44 1
20 68 1
20 92 1
20 116 1
20 140 1
20 236 1
20 260 1
20 284 1
21 21 1
21 45 1
21 69 1
21 93 1
21 117 1
21 141 1
21 237 1
21 261 1
21 285 1
22 22 1
22 46 1
22 70 1
22 94 1
22 118 1
22 142 1
22 238 1
22 262 1
22 286 1
23 23 1
23 47 1
23 71 1
23 95 1
23 119 1
23 143 1
23 239 1
23 263 1
23 287 1
24 24 1
24 48 1
24 72 1
24 96 1
24 120 1
24 144 1
24 240 1
24 264 1
24 288 1
25 25 1
25 49 1
25 61 1
25 97 1
25 121 1
25 133 1
25 241 1
25 265 1
25 277 1
26 26 1
26 50 1
26 62 1
26 98 1
26 122 1
26 134 1
26 242 1
26 266 1
26 278 1
27 27 1
27 51 1
27 63 1
27 99 1
27 123 1
27 135 1
27 243 1
27 267 1
27 279 1
28 28 1
28 52 1
28 64 1
28 100 1
28 124 1
28 136 1
28 244 1
28 268 1
28 280 1
29 29 1
29 53 1
29 65 1
29 101 1
29 125 1
29 137 1
29 245 1
29 269 1
29 281 1
30 30 1
30 54 1
30 66 1
30 102 1
30 126 1
30 138 1
30 246 1
30 270 1
30 282 1
31 31 1
31 55 1
31 67 1
31 103 1
31 127 1
31 139 1
31 247 1
31 271 1
31 283 1
32 32 1
32 56 1
32 68 1
32 104 1
32 128 1
32 140 1
32 248 1
32 272 1
32 284 1
33 33 1
33 57 1
33 69 1
33 105 1
33 129 1
33 141 1
33 249 1
33 273 1
33 285 1
34 34 1
34 58 1
34 70 1
34 106 1
34 130 1
34 142 1
34 250 1
34 274 1
34 286 1
35 35 1
35 59 1
35 71 1
35 107 1
35 131 1
35 143 1
35 251 1
35 275 1
35 287 1
36 36 1
36 60 1
36 72 1
36 108 1
36 132 1
36 144 1
36 252 1
36 276 1
36 288 1
37 1 1
37 37 1
37 49 1
37 145 1
37 181 1
37 193 1
37 289 1
37 325 1
37 337 1
38 2 1
38 38 1
38 50 1
38 146 1
38 182 1
38 194 1
38 290 1
38 326 1
38 338 1
39 3 1
39 39 1
39 51 1
39 147 1
39 183 1
39 195 1
39 291 1
39 327 1
39 339 1
40 4 1
40 40 1
40 52 1
40 148 1
40 184 1
40 196 1
40 292 1
40 328 1
40 340 1
41 5 1
41 41 1
41 53 1
41 149 1
41 185 1
41 197 1
41 293 1
41 329 1
41 341 1
42 6 1
42 42 1
42 54 1
42 150 1
42 186 1
42 198 1
42 294 1
42 330 1
42 342 1
43 7 1
43 43 1
43 55 1
43 151 1
43 187 1
43 199 1
43 295 1
43 331 1
43 343 1
44 8 1
44 44 1
44 56 1
44 152 1
44 188 1
44 200 1
44 296 1
44 332 1
44 344 1
45 9 1
45 45 1
45 57 1
45 153 1
45 189 1
45 201 1
45 297 1
45 333 1
45 345 1
46 10 1
46 46 1
46 58 1
46 154 1
46 190 1
46 202 1
46 298 1
46 334 1
46 346 1
47 11 1
47 47 1
47 59 1
47 155 1
47 191 1
47 203 1
47 299 1
47 335 1
47 347 1
48 12 1
48 48 1
48 60 1
48 156 1
48 192 1
48 204 1
48 300 1
48 336 1
48 348 1
49 13 1
49 37 1
49 61 1
49 157 1
49 181 1
49 205 1
49 301 1
49 325 1
49 349 1
50 14 1
50 38 1
50 62 1
50 158 1
50 182 1
50 206 1
50 302 1
50 326 1
50 350 1
51 15 1
51 39 1
51 63 1
51 159 1
51 183 1
51 207 1
51 303 1
51 327 1
51 351 1
52 16 1
52 40 1
52 64 1
52 160 1
52 184 1
52 208 1
52 304 1
52 328 1
52 352 1
53 17 1
53 41 1
53 65 1
53 161 1
53 185 1
53 209 1
53 305 1
53 329 1
53 353 1
54 18 1
54 42 1
54 66 1
54 162 1
54 186 1
54 210 1
54 306 1
54 330 1
54 354 1
55 19 1
55 43 1
55 67 1
55 163 1
55 187 1
55 211 1
55 307 1
55 331 1
55 355 1
56 20 1
56 44 1
56 68 1
56 164 1
56 188 1
56 212 1
56 308 1
56 332 1
56 356 1
57 21 1
57 45 1
57 69 1
57 165 1
57 189 1
57 213 1
57 309 1
57 333 1
57 357 1
58 22 1
58 46 1
58 70 1
58 166 1
58 190 1
58 214 1
58 310 1
58 334 1
58 358 1
59 23 1
59 47 1
59 71 1
59 167 1
59 191 1
59 215 1
59 311 1
59 335 1
59 359 1
60 24 1
60 48 1
60 72 1
60 168 1
60 192 1
60 216 1
60 312 1
60 336 1
60 360 1
61 25 1
61 49 1
61 61 1
61 169 1
61 193 1
61 205 1
61 313 1
61 337 1
61 349 1
62 26 1
62 50 1
62 62 1
62 170 1
62 194 1
62 206 1
62 314 1
62 338 1
62 350 1
63 27 1
63 51 1
63 63 1
63 171 1
63 195 1
63 207 1
63 315 1
63 339 1
63 351 1
64 28 1
64 52 1
64 64 1
64 172 1
64 196 1
64 208 1
64 316 1
64 340 1
64 352 1
65 29 1
65 53 1
65 65 1
65 173 1
65 197 1
65 209 1
65 317 1
65 341 1
65 353 1
66 30 1
66 54 1
66 66 1
66 174 1
66 198 1
66 210 1
66 318 1
66 342 1
66 354 1
67 31 1
67 55 1
67 67 1
67 175 1
67 199 1
67 211 1
67 319 1
67 343 1
67 355 1
68 32 1
68 56 1
68 68 1
68 176 1
68 200 1
68 212 1
68 320 1
68 344 1
68 356 1
69 33 1
69 57 1
69 69 1
69 177 1
69 201 1
69 213 1
69 321 1
69 345 1
69 357 1
70 34 1
70 58 1
70 70 1
70 178 1
70 202 1
70 214 1
70 322 1
70 346 1
70 358 1
71 35 1
71 59 1
71 71 1
71 179 1
71 203 1
71 215 1
71 323 1
71 347 1
71 359 1
72 36 1
72 60 1
72 72 1
72 180 1
72 204 1
72 216 1
72 324 1
72 348 1
72 360 1
73 73 1
73 109 1
73 121 1
73 145 1
73 181 1
73 193 1
73 361 1
73 397 1
73 409 1
74 74 1
74 110 1
74 122 1
74 146 1
74 182 1
74 194 1
74 362 1
74 398 1
74 410 1
75 75 1
75 111 1
75 123 1
75 147 1
75 183 1
75 195 1
75 363 1
75 399 1
75 411 1
76 76 1
76 112 1
76 124 1
76 148 1
76 184 1
76 196 1
76 364 1
76 400 1
76 412 1
77 77 1
77 113 1
77 125 1
77 149 1
77 185 1
77 197 1
77 365 1
77 401 1
77 413 1
78 78 1
78 114 1
78 126 1
78 150 1
78 186 1
78 198 1
78 366 1
78 402 1
78 414 1
79 79 1
79 115 1
79 127 1
79 151 1
79 187 1
79 199 1
79 367 1
79 403 1
79 415 1
80 80 1
80 116 1
80 128 1
80 152 1
80 188 1
80 200 1
80 368 1
80 404 1
80 416 1
81 81 1
81 117 1
81 129 1
81 153 1
81 189 1
81 201 1
81 369 1
81 405 1
81 417 1
82 82 1
82 118 1
82 130 1
82 154 1
82 190 1
82 202 1
82 370 1
82 406 1
82 418 1
83 83 1
83 119 1
83 131 1
83 155 1
83 191 1
83 203 1
83 371 1
83 407 1
83 419 1
84 84 1
84 120 1
84 132 1
84 156 1
84 192 1
84 204 1
84 372 1
84 408 1
84 420 1
85 85 1
85 109 1
85 133 1
85 157 1
85 181 1
85 205 1
85 373 1
85 397 1
85 421 1
86 86 1
86 110 1
86 134 1
86 158 1
86 182 1
86 206 1
86 374 1
86 398 1
86 422 1
87 87 1
87 111 1
87 135 1
87 159 1
87 183 1
87 207 1
87 375 1
87 399 1
87 423 1
88 88 1
88 112 1
88 136 1
88 160 1
88 184 1
88 208 1
88 376 1
88 400 1
88 424 1
89 89 1
89 113 1
89 137 1
89 161 1
89 185 1
89 209 1
89 377 1
89 401 1
89 425 1
90 90 1
90 114 1
90 138 1
90 162 1
90 186 1
90 210 1
90 378 1
90 402 1
90 426 1
91 91 1
91 115 1
91 139 1
91 163 1
91 187 1
91 211 1
91 379 1
91 403 1
91 427 1
92 92 1
92 116 1
92 140 1
92 164 1
92 188 1
92 212 1
92 380 1
92 404 1
92 428 1
93 93 1
93 117 1
93 141 1
93 165 1
93 189 1
93 213 1
93 381 1
93 405 1
93 429 1
94 94 1
94 118 1
94 142 1
94 166 1
94 190 1
94 214 1
94 382 1
94 406 1
94 430 1
95 95 1
95 119 1
95 143 1
95 167 1
95 191 1
95 215 1
95 383 1
95 407 1
95 431 1
96 96 1
96 120 1
96 144 1
96 168 1
96 192 1
96 216 1
96 384 1
96 408 1
96 432 1
97 97 1
97 121 1
97 133 1
97 169 1
97 193 1
97 205 1
97 385 1
97 409 1
97 421 1
98 98 1
98 122 1
98 134 1
98 170 1
98 194 1
98 206 1
98 386 1
98 410 1
98 422 1
99 99 1
99 123 1
99 135 1
99 171 1
99 195 1
99 207 1
99 387 1
99 411 1
99 423 1
100 100 1
100 124 1
100 136 1
100 172 1
100 196 1
100 208 1
100 388 1
100 412 1
100 424 1
101 101 1
101 125 1
101 137 1
101 173 1
101 197 1
101 209 1
101 389 1
101 413 1
101 425 1
102 102 1
102 126 1
102 138 1
102 174 1
102 198 1
102 210 1
102 390 1
102 414 1
102 426 1
103 103 1
103 127 1
103 139 1
103 175 1
103 199 1
103 211 1
103 391 1
103 415 1
103 427 1
104 104 1
104 128 1
104 140 1
104 176 1
104 200 1
104 212 1
104 392 1
104 416 1
104 428 1
105 105 1
105 129 1
105 141 1
105 177 1
105 201 1
105 213 1
105 393 1
105 417 1
105 429 1
106 106 1
106 130 1
106 142 1
106 178 1
106 202 1
106 214 1
106 394 1
106 418 1
106 430 1
107 107 1
107 131 1
107 143 1
107 179 1
107 203 1
107 215 1
107 395 1
107 419 1
107 431 1
108 108 1
108 132 1
108 144 1
108 180 1
108 204 1
108 216 1
108 396 1
108 420 1
108 432 1
109 1 1
109 39 1
109 59 1
109 75 1
109 115 1
109 124 1
109 221 1
109 261 1
109 270 1
110 2 1
110 41 1
110 60 1
110 77 1
110 117 1
110 126 1
110 224 1
110 263 1
110 265 1
111 3 1
111 43 1
111 52 1
111 79 1
111 109 1
111 128 1
111 225 1
111 254 1
111 274 1
112 4 1
112 44 1
112 55 1
112 80 1
112 119 1
112 121 1
112 226 1
112 264 1
112 266 1
113 5 1
113 45 1
113 54 1
113 81 1
113 110 1
113 130 1
113 227 1
113 256 1
113 267 1
114 6 1
114 46 1
114 57 1
114 82 1
114 120 1
114 122 1
114 219 1
114 259 1
114 268 1
115 7 1
115 37 1
115 56 1
115 73 1
115 111 1
115 131 1
115 218 1
115 257 1
115 276 1
116 8 1
116 47 1
116 49 1
116 83 1
116 112 1
116 123 1
116 228 1
116 258 1
116 269 1
117 9 1
117 38 1
117 58 1
117 74 1
117 113 1
117 132 1
117 220 1
117 260 1
117 271 1
118 10 1
118 48 1
118 50 1
118 84 1
118 114 1
118 125 1
118 223 1
118 253 1
118 272 1
119 11 1
119 40 1
119 51 1
119 76 1
119 116 1
119 127 1
119 222 1
119 262 1
119 273 1
120 12 1
120 42 1
120 53 1
120 78 1
120 118 1
120 129 1
120 217 1
120 255 1
120 275 1
121 24 1
121 39 1
121 65 1
121 90 1
121 115 1
121 141 1
121 229 1
121 261 1
121 287 1
122 19 1
122 41 1
122 68 1
122 85 1
122 117 1
122 143 1
122 230 1
122 263 1
122 288 1
123 18 1
123 43 1
123 69 1
123 94 1
123 109 1
123 134 1
123 231 1
123 254 1
123 280 1
124 21 1
124 44 1
124 70 1
124 86 1
124 119 1
124 144 1
124 232 1
124 264 1
124 283 1
125 13 1
125 45 1
125 71 1
125 87 1
125 110 1
125 136 1
125 233 1
125 256 1
125 282 1
126 23 1
126 46 1
126 63 1
126 88 1
126 120 1
126 139 1
126 234 1
126 259 1
126 285 1
127 22 1
127 37 1
127 62 1
127 96 1
127 111 1
127 137 1
127 235 1
127 257 1
127 284 1
128 14 1
128 47 1
128 72 1
128 89 1
128 112 1
128 138 1
128 236 1
128 258 1
128 277 1
129 15 1
129 38 1
129 64 1
129 91 1
129 113 1
129 140 1
129 237 1
129 260 1
129 286 1
130 16 1
130 48 1
130 67 1
130 92 1
130 114 1
130 133 1
130 238 1
130 253 1
130 278 1
131 17 1
131 40 1
131 66 1
131 93 1
131 116 1
131 142 1
131 239 1
131 262 1
131 279 1
132 20 1
132 42 1
132 61 1
132 95 1
132 118 1
132 135 1
132 240 1
132 255 1
132 281 1
133 26 1
133 59 1
133 65 1
133 101 1
133 124 1
133 141 1
133 248 1
133 270 1
133 287 1
134 28 1
134 60 1
134 68 1
134 104 1
134 126 1
134 143 1
134 250 1
134 265 1
134 288 1
135 29 1
135 52 1
135 69 1
135 105 1
135 128 1
135 134 1
135 251 1
135 274 1
135 280 1
136 30 1
136 55 1
136 70 1
136 106 1
136 121 1
136 144 1
136 243 1
136 266 1
136 283 1
137 32 1
137 54 1
137 71 1
137 107 1
137 130 1
137 136 1
137 252 1
137 267 1
137 282 1
138 25 1
138 57 1
138 63 1
138 99 1
138 122 1
138 139 1
138 245 1
138 268 1
138 285 1
139 33 1
139 56 1
139 62 1
139 98 1
139 131 1
139 137 1
139 244 1
139 276 1
139 284 1
140 34 1
140 49 1
140 72 1
140 108 1
140 123 1
140 138 1
140 247 1
140 269 1
140 277 1
141 35 1
141 58 1
141 64 1
141 100 1
141 132 1
141 140 1
141 246 1
141 271 1
141 286 1
142 27 1
142 50 1
142 67 1
142 103 1
142 125 1
142 133 1
142 249 1
142 272 1
142 278 1
143 36 1
143 51 1
143 66 1
143 102 1
143 127 1
143 142 1
143 241 1
143 273 1
143 279 1
144 31 1
144 53 1
144 61 1
144 97 1
144 129 1
144 135 1
144 242 1
144 275 1
144 281 1
145 1 1
145 39 1
145 59 1
145 149 1
145 189 1
145 198 1
145 295 1
145 325 1
145 344 1
146 2 1
146 41 1
146 60 1
146 152 1
146 191 1
146 193 1
146 297 1
146 326 1
146 346 1
147 3 1
147 43 1
147 52 1
147 153 1
147 182 1
147 202 1
147 289 1
147 327 1
147 347 1
148 4 1
148 44 1
148 55 1
148 154 1
148 192 1
148 194 1
148 299 1
148 328 1
148 339 1
149 5 1
149 45 1
149 54 1
149 155 1
149 184 1
149 195 1
149 290 1
149 329 1
149 348 1
150 6 1
150 46 1
150 57 1
150 147 1
150 187 1
150 196 1
150 300 1
150 330 1
150 341 1
151 7 1
151 37 1
151 56 1
151 146 1
151 185 1
151 204 1
151 291 1
151 331 1
151 340 1
152 8 1
152 47 1
152 49 1
152 156 1
152 186 1
152 197 1
152 292 1
152 332 1
152 343 1
153 9 1
153 38 1
153 58 1
153 148 1
153 188 1
153 199 1
153 293 1
153 333 1
153 342 1
154 10 1
154 48 1
154 50 1
154 151 1
154 181 1
154 200 1
154 294 1
154 334 1
154 345 1
155 11 1
155 40 1
155 51 1
155 150 1
155 190 1
155 201 1
155 296 1
155 335 1
155 337 1
156 12 1
156 42 1
156 53 1
156 145 1
156 183 1
156 203 1
156 298 1
156 336 1
156 338 1
157 24 1
157 39 1
157 65 1
157 157 1
157 189 1
157 215 1
157 310 1
157 325 1
157 350 1
158 19 1
158 41 1
158 68 1
158 158 1
158 191 1
158 216 1
158 303 1
158 326 1
158 352 1
159 18 1
159 43 1
159 69 1
159 159 1
159 182 1
159 208 1
159 312 1
159 327 1
159 353 1
160 21 1
160 44 1
160 70 1
160 160 1
160 192 1
160 211 1
160 305 1
160 328 1
160 354 1
161 13 1
161 45 1
161 71 1
161 161 1
161 184 1
161 210 1
161 307 1
161 329 1
161 356 1
162 23 1
162 46 1
162 63 1
162 162 1
162 187 1
162 213 1
162 308 1
162 330 1
162 349 1
163 22 1
163 37 1
163 62 1
163 163 1
163 185 1
163 212 1
163 306 1
163 331 1
163 357 1
164 14 1
164 47 1
164 72 1
164 164 1
164 186 1
164 205 1
164 309 1
164 332 1
164 358 1
165 15 1
165 38 1
165 64 1
165 165 1
165 188 1
165 214 1
165 301 1
165 333 1
165 359 1
166 16 1
166 48 1
166 67 1
166 166 1
166 181 1
166 206 1
166 311 1
166 334 1
166 351 1
167 17 1
167 40 1
167 66 1
167 167 1
167 190 1
167 207 1
167 302 1
167 335 1
167 360 1
168 20 1
168 42 1
168 61 1
168 168 1
168 183 1
168 209 1
168 304 1
168 336 1
168 355 1
169 26 1
169 59 1
169 65 1
169 176 1
169 198 1
169 215 1
169 321 1
169 344 1
169 350 1
170 28 1
170 60 1
170 68 1
170 178 1
170 193 1
170 216 1
170 323 1
170 346 1
170 352 1
171 29 1
171 52 1
171 69 1
171 179 1
171 202 1
171 208 1
171 314 1
171 347 1
171 353 1
172 30 1
172 55 1
172 70 1
172 171 1
172 194 1
172 211 1
172 324 1
172 339 1
172 354 1
173 32 1
173 54 1
173 71 1
173 180 1
173 195 1
173 210 1
173 316 1
173 348 1
173 356 1
174 25 1
174 57 1
174 63 1
174 173 1
174 196 1
174 213 1
174 319 1
174 341 1
174 349 1
175 33 1
175 56 1
175 62 1
175 172 1
175 204 1
175 212 1
175 317 1
175 340 1
175 357 1
176 34 1
176 49 1
176 72 1
176 175 1
176 197 1
176 205 1
176 318 1
176 343 1
176 358 1
177 35 1
177 58 1
177 64 1
177 174 1
177 199 1
177 214 1
177 320 1
177 342 1
177 359 1
178 27 1
178 50 1
178 67 1
178 177 1
178 200 1
178 206 1
178 313 1
178 345 1
178 351 1
179 36 1
179 51 1
179 66 1
179 169 1
179 201 1
179 207 1
179 322 1
179 337 1
179 360 1
180 31 1
180 53 1
180 61 1
180 170 1
180 203 1
180 209 1
180 315 1
180 338 1
180 355 1
181 75 1
181 115 1
181 124 1
181 149 1
181 189 1
181 198 1
181 368 1
181 407 1
181 409 1
182 77 1
182 117 1
182 126 1
182 152 1
182 191 1
182 193 1
182 370 1
182 408 1
182 410 1
183 79 1
183 109 1
183 128 1
183 153 1
183 182 1
183 202 1
183 371 1
183 400 1
183 411 1
184 80 1
184 119 1
184 121 1
184 154 1
184 192 1
184 194 1
184 363 1
184 403 1
184 412 1
185 81 1
185 110 1
185 130 1
185 155 1
185 184 1
185 195 1
185 372 1
185 402 1
185 413 1
186 82 1
186 120 1
186 122 1
186 147 1
186 187 1
186 196 1
186 365 1
186 405 1
186 414 1
187 73 1
187 111 1
187 131 1
187 146 1
187 185 1
187 204 1
187 364 1
187 404 1
187 415 1
188 83 1
188 112 1
188 123 1
188 156 1
188 186 1
188 197 1
188 367 1
188 397 1
188 416 1
189 74 1
189 113 1
189 132 1
189 148 1
189 188 1
189 199 1
189 366 1
189 406 1
189 417 1
190 84 1
190 114 1
190 125 1
190 151 1
190 181 1
190 200 1
190 369 1
190 398 1
190 418 1
191 76 1
191 116 1
191 127 1
191 150 1
191 190 1
191 201 1
191 361 1
191 399 1
191 419 1
192 78 1
192 118 1
192 129 1
192 145 1
192 183 1
192 203 1
192 362 1
192 401 1
192 420 1
193 90 1
193 115 1
193 141 1
193 157 1
193 189 1
193 215 1
193 374 1
193 407 1
193 432 1
194 85 1
194 117 1
194 143 1
194 158 1
194 191 1
194 216 1
194 376 1
194 408 1
194 427 1
195 94 1
195 109 1
195 134 1
195 159 1
195 182 1
195 208 1
195 377 1
195 400 1
195 426 1
196 86 1
196 119 1
196 144 1
196 160 1
196 192 1
196 211 1
196 378 1
196 403 1
196 429 1
197 87 1
197 110 1
197 136 1
197 161 1
197 184 1
197 210 1
197 380 1
197 402 1
197 421 1
198 88 1
198 120 1
198 139 1
198 162 1
198 187 1
198 213 1
198 373 1
198 405 1
198 431 1
199 96 1
199 111 1
199 137 1
199 163 1
199 185 1
199 212 1
199 381 1
199 404 1
199 430 1
200 89 1
200 112 1
200 138 1
200 164 1
200 186 1
200 205 1
200 382 1
200 397 1
200 422 1
201 91 1
201 113 1
201 140 1
201 165 1
201 188 1
201 214 1
201 383 1
201 406 1
201 423 1
202 92 1
202 114 1
202 133 1
202 166 1
202 181 1
202 206 1
202 375 1
202 398 1
202 424 1
203 93 1
203 116 1
203 142 1
203 167 1
203 190 1
203 207 1
203 384 1
203 399 1
203 425 1
204 95 1
204 118 1
204 135 1
204 168 1
204 183 1
204 209 1
204 379 1
204 401 1
204 428 1
205 101 1
205 124 1
205 141 1
205 176 1
205 198 1
205 215 1
205 394 1
205 409 1
205 432 1
206 104 1
206 126 1
206 143 1
206 178 1
206 193 1
206 216 1
206 387 1
206 410 1
206 427 1
207 105 1
207 128 1
207 134 1
207 179 1
207 202 1
207 208 1
207 396 1
207 411 1
207 426 1
208 106 1
208 121 1
208 144 1
208 171 1
208 194 1
208 211 1
208 389 1
208 412 1
208 429 1
209 107 1
209 130 1
209 136 1
209 180 1
209 195 1
209 210 1
209 391 1
209 413 1
209 421 1
210 99 1
210 122 1
210 139 1
210 173 1
210 196 1
210 213 1
210 392 1
210 414 1
210 431 1
211 98 1
211 131 1
211 137 1
211 172 1
211 204 1
211 212 1
211 390 1
211 415 1
211 430 1
212 108 1
212 123 1
212 138 1
212 175 1
212 197 1
212 205 1
212 393 1
212 416 1
212 422 1
213 100 1
213 132 1
213 140 1
213 174 1
213 199 1
213 214 1
213 385 1
213 417 1
213 423 1
214 103 1
214 125 1
214 133 1
214 177 1
214 200 1
214 206 1
214 395 1
214 418 1
214 424 1
215 102 1
215 127 1
215 142 1
215 169 1
215 201 1
215 207 1
215 386 1
215 419 1
215 425 1
216 97 1
216 129 1
216 135 1
216 170 1
216 203 1
216 209 1
216 388 1
216 420 1
216 428 1
