%%MatrixMarket matrix coordinate integer general
306 612 2754
1 1 1
1 52 1
1 69 1
1 103 1
1 154 1
1 171 1
1 307 1
1 358 1
1 375 1
2 2 1
2 53 1
2 70 1
2 104 1
2 155 1
2 172 1
2 308 1
2 359 1
2 376 1
3 3 1
3 54 1
3 71 1
3 105 1
3 156 1
3 173 1
3 309 1
3 360 1
3 377 1
4 4 1
4 55 1
4 72 1
4 106 1
4 157 1
4 174 1
4 310 1
4 361 1
4 378 1
5 5 1
5 56 1
5 73 1
5 107 1
5 158 1
5 175 1
5 311 1
5 362 1
5 379 1
6 6 1
6 57 1
6 74 1
6 108 1
6 159 1
6 176 1
6 312 1
6 363 1
6 380 1
7 7 1
7 58 1
7 75 1
7 109 1
7 160 1
7 177 1
7 313 1
7 364 1
7 381 1
8 8 1
8 59 1
8 76 1
8 110 1
8 161 1
8 178 1
8 314 1
8 365 1
8 382 1
9 9 1
9 60 1
9 77 1
9 111 1
9 162 1
9 179 1
9 315 1
9 366 1
9 383 1
10 10 1
10 61 1
10 78 1
10 112 1
10 163 1
10 180 1
10 316 1
10 367 1
10 384 1
11 11 1
11 62 1
11 79 1
11 113 1
11 164 1
11 181 1
11 317 1
11 368 1
11 385 1
12 12 1
12 63 1
12 80 1
12 114 1
12 165 1
12 182 1
12 318 1
12 369 1
12 386 1
13 13 1
13 64 1
13 81 1
13 115 1
13 166 1
13 183 1
13 319 1
13 370 1
13 387 1
14 14 1
14 65 1
14 82 1
14 116 1
14 167 1
14 184 1
14 320 1
14 371 1
14 388 1
15 15 1
15 66 1
15 83 1
15 117 1
15 168 1
15 185 1
15 321 1
15 372 1
15 389 1
16 16 1
16 67 1
16 84 1
16 118 1
16 169 1
16 186 1
16 322 1
16 373 1
16 390 1
17 17 1
17 68 1
17 85 1
17 119 1
17 170 1
17 187 1
17 323 1
17 374 1
17 391 1
18 18 1
18 52 1
18 86 1
18 120 1
18 154 1
18 188 1
18 324 1
18 358 1
18 392 1
19 19 1
19 53 1
19 87 1
19 121 1
19 155 1
19 189 1
19 325 1
19 359 1
19 393 1
20 20 1
20 54 1
20 88 1
20 122 1
20 156 1
20 190 1
20 326 1
20 360 1
20 394 1
21 21 1
21 55 1
21 89 1
21 123 1
21 157 1
21 191 1
21 327 1
21 361 1
21 395 1
22 22 1
22 56 1
22 90 1
22 124 1
22 158 1
22 192 1
22 328 1
22 362 1
22 396 1
23 23 1
23 57 1
23 91 1
23 125 1
23 159 1
23 193 1
23 329 1
23 363 1
23 397 1
24 24 1
24 58 1
24 92 1
24 126 1
24 160 1
24 194 1
24 330 1
24 364 1
24 398 1
25 25 1
25 59 1
25 93 1
25 127 1
25 161 1
25 195 1
25 331 1
25 365 1
25 399 1
26 26 1
26 60 1
26 94 1
26 128 1
26 162 1
26 196 1
26 332 1
26 366 1
26 400 1
27 27 1
27 61 1
27 95 1
27 129 1
27 163 1
27 197 1
27 333 1
27 367 1
27 401 1
28 28 1
28 62 1
28 96 1
28 130 1
28 164 1
28 198 1
28 334 1
28 368 1
28 402 1
29 29 1
29 63 1
29 97 1
29 131 1
29 165 1
29 199 1
29 335 1
29 369 1
29 403 1
30 30 1
30 64 1
30 98 1
30 132 1
30 166 1
30 200 1
30 336 1
30 370 1
30 404 1
31 31 1
31 65 1
31 99 1
31 133 1
31 167 1
31 201 1
31 337 1
31 371 1
31 405 1
32 32 1
32 66 1
32 100 1
32 134 1
32 168 1
32 202 1
32 338 1
32 372 1
32 406 1
33 33 1
33 67 1
33 101 1
33 135 1
33 169 1
33 203 1
33 339 1
33 373 1
33 407 1
34 34 1
34 68 1
34 102 1
34 136 1
34 170 1
34 204 1
34 340 1
34 374 1
34 408 1
35 35 1
35 69 1
35 86 1
35 137 1
35 171 1
35 188 1
35 341 1
35 375 1
35 392 1
36 36 1
36 70 1
36 87 1
36 138 1
36 172 1
36 189 1
36 342 1
36 376 1
36 393 1
37 37 1
37 71 1
37 88 1
37 139 1
37 173 1
37 190 1
37 343 1
37 377 1
37 394 1
38 38 1
38 72 1
38 89 1
38 140 1
38 174 1
38 191 1
38 344 1
38 378 1
38 395 1
39 39 1
39 73 1
39 90 1
39 141 1
39 175 1
39 192 1
39 345 1
39 379 1
39 396 1
40 40 1
40 74 1
40 91 1
40 142 1
40 176 1
40 193 1
40 346 1
40 380 1
40 397 1
41 41 1
41 75 1
41 92 1
41 143 1
41 177 1
41 194 1
41 347 1
41 381 1
41 398 1
42 42 1
42 76 1
42 93 1
42 144 1
42 178 1
42 195 1
42 348 1
42 382 1
42 399 1
43 43 1
43 77 1
43 94 1
43 145 1
43 179 1
43 196 1
43 349 1
43 383 1
43 400 1
44 44 1
44 78 1
44 95 1
44 146 1
44 180 1
44 197 1
44 350 1
44 384 1
44 401 1
45 45 1
45 79 1
45 96 1
45 147 1
45 181 1
45 198 1
45 351 1
45 385 1
45 402 1
46 46 1
46 80 1
46 97 1
46 148 1
46 182 1
46 199 1
46 352 1
46 386 1
46 403 1
47 47 1
47 81 1
47 98 1
47 149 1
47 183 1
47 200 1
47 353 1
47 387 1
47 404 1
48 48 1
48 82 1
48 99 1
48 150 1
48 184 1
48 201 1
48 354 1
48 388 1
48 405 1
49 49 1
49 83 1
49 100 1
49 151 1
49 185 1
49 202 1
49 355 1
49 389 1
49 406 1
50 50 1
50 84 1
50 101 1
50 152 1
50 186 1
50 203 1
50 356 1
50 390 1
50 407 1
51 51 1
51 85 1
51 102 1
51 153 1
51 187 1
51 204 1
51 357 1
51 391 1
51 408 1
52 1 1
52 52 1
52 69 1
52 205 1
52 256 1
52 273 1
52 409 1
52 460 1
52 477 1
53 2 1
53 53 1
53 70 1
53 206 1
53 257 1
53 274 1
53 410 1
53 461 1
53 478 1
54 3 1
54 54 1
54 71 1
54 207 1
54 258 1
54 275 1
54 411 1
54 462 1
54 479 1
55 4 1
55 55 1
55 72 1
55 208 1
55 259 1
55 276 1
55 412 1
55 463 1
55 480 1
56 5 1
56 56 1
56 73 1
56 209 1
56 260 1
56 277 1
56 413 1
56 464 1
56 481 1
57 6 1
57 57 1
57 74 1
57 210 1
57 261 1
57 278 1
57 414 1
57 465 1
57 482 1
58 7 1
58 58 1
58 75 1
58 211 1
58 262 1
58 279 1
58 415 1
58 466 1
58 483 1
59 8 1
59 59 1
59 76 1
59 212 1
59 263 1
59 280 1
59 416 1
59 467 1
59 484 1
60 9 1
60 60 1
60 77 1
60 213 1
60 264 1
60 281 1
60 417 1
60 468 1
60 485 1
61 10 1
61 61 1
61 78 1
61 214 1
61 265 1
61 282 1
61 418 1
61 469 1
61 486 1
62 11 1
62 62 1
62 79 1
62 215 1
62 266 1
62 283 1
62 419 1
62 470 1
62 487 1
63 12 1
63 63 1
63 80 1
63 216 1
63 267 1
63 284 1
63 420 1
63 471 1
63 488 1
64 13 1
64 64 1
64 81 1
64 217 1
64 268 1
64 285 1
64 421 1
64 472 1
64 489 1
65 14 1
65 65 1
65 82 1
65 218 1
65 269 1
65 286 1
65 422 1
65 473 1
65 490 1
66 15 1
66 66 1
66 83 1
66 219 1
66 270 1
66 287 1
66 423 1
66 474 1
66 491 1
67 16 1
67 67 1
67 84 1
67 220 1
67 271 1
67 288 1
67 424 1
67 475 1
67 492 1
68 17 1
68 68 1
68 85 1
68 221 1
68 272 1
68 289 1
68 425 1
68 476 1
68 493 1
69 18 1
69 52 1
69 86 1
69 222 1
69 256 1
69 290 1
69 426 1
69 460 1
69 494 1
70 19 1
70 53 1
70 87 1
70 223 1
70 257 1
70 291 1
70 427 1
70 461 1
70 495 1
71 20 1
71 54 1
71 88 1
71 224 1
71 258 1
71 292 1
71 428 1
71 462 1
71 496 1
72 21 1
72 55 1
72 89 1
72 225 1
72 259 1
72 293 1
72 429 1
72 463 1
72 497 1
73 22 1
73 56 1
73 90 1
73 226 1
73 260 1
73 294 1
73 430 1
73 464 1
73 498 1
74 23 1
74 57 1
74 91 1
74 227 1
74 261 1
74 295 1
74 431 1
74 465 1
74 499 1
75 24 1
75 58 1
75 92 1
75 228 1
75 262 1
75 296 1
75 432 1
75 466 1
75 500 1
76 25 1
76 59 1
76 93 1
76 229 1
76 263 1
76 297 1
76 433 1
76 467 1
76 501 1
77 26 1
77 60 1
77 94 1
77 230 1
77 264 1
77 298 1
77 434 1
77 468 1
77 502 1
78 27 1
78 61 1
78 95 1
78 231 1
78 265 1
78 299 1
78 435 1
78 469 1
78 503 1
79 28 1
79 62 1
79 96 1
79 232 1
79 266 1
79 300 1
79 436 1
79 470 1
79 504 1
80 29 1
80 63 1
80 97 1
80 233 1
80 267 1
80 301 1
80 437 1
80 471 1
80 505 1
81 30 1
81 64 1
81 98 1
81 234 1
81 268 1
81 302 1
81 438 1
81 472 1
81 506 1
82 31 1
82 65 1
82 99 1
82 235 1
82 269 1
82 303 1
82 439 1
82 473 1
82 507 1
83 32 1
83 66 1
83 100 1
83 236 1
83 270 1
83 304 1
83 440 1
83 474 1
83 508 1
84 33 1
84 67 1
84 101 1
84 237 1
84 271 1
84 305 1
84 441 1
84 475 1
84 509 1
85 34 1
85 68 1
85 102 1
85 238 1
85 272 1
85 306 1
85 442 1
85 476 1
85 510 1
86 35 1
86 69 1
86 86 1
86 239 1
86 273 1
86 290 1
86 443 1
86 477 1
86 494 1
87 36 1
87 70 1
87 87 1
87 240 1
87 274 1
87 291 1
87 444 1
87 478 1
87 495 1
88 37 1
88 71 1
88 88 1
88 241 1
88 275 1
88 292 1
88 445 1
88 479 1
88 496 1
89 38 1
89 72 1
89 89 1
89 242 1
89 276 1
89 293 1
89 446 1
89 480 1
89 497 1
90 39 1
90 73 1
90 90 1
90 243 1
90 277 1
90 294 1
90 447 1
90 481 1
90 498 1
91 40 1
91 74 1
91 91 1
91 244 1
91 278 1
91 295 1
91 448 1
91 482 1
91 499 1
92 41 1
92 75 1
92 92 1
92 245 1
92 279 1
92 296 1
92 449 1
92 483 1
92 500 1
93 42 1
93 76 1
93 93 1
93 246 1
93 280 1
93 297 1
93 450 1
93 484 1
93 501 1
94 43 1
94 77 1
94 94 1
94 247 1
94 281 1
94 298 1
94 451 1
94 485 1
94 502 1
95 44 1
95 78 1
95 95 1
95 248 1
95 282 1
95 299 1
95 452 1
95 486 1
95 503 1
96 45 1
96 79 1
96 96 1
96 249 1
96 283 1
96 300 1
96 453 1
96 487 1
96 504 1
97 46 1
97 80 1
97 97 1
97 250 1
97 284 1
97 301 1
97 454 1
97 488 1
97 505 1
98 47 1
98 81 1
98 98 1
98 251 1
98 285 1
98 302 1
98 455 1
98 489 1
98 506 1
99 48 1
99 82 1
99 99 1
99 252 1
99 286 1
99 303 1
99 456 1
99 490 1
99 507 1
100 49 1
100 83 1
100 100 1
100 253 1
100 287 1
100 304 1
100 457 1
100 491 1
100 508 1
101 50 1
101 84 1
101 101 1
101 254 1
101 288 1
101 305 1
101 458 1
101 492 1
101 509 1
102 51 1
102 85 1
102 102 1
102 255 1
102 289 1
102 306 1
102 459 1
102 493 1
102 510 1
103 103 1
103 154 1
103 171 1
103 205 1
103 256 1
103 273 1
103 511 1
103 562 1
103 579 1
104 104 1
104 155 1
104 172 1
104 206 1
104 257 1
104 274 1
104 512 1
104 563 1
104 580 1
105 105 1
105 156 1
105 173 1
105 207 1
105 258 1
105 275 1
105 513 1
105 564 1
105 581 1
106 106 1
106 157 1
106 174 1
106 208 1
106 259 1
106 276 1
106 514 1
106 565 1
106 582 1
107 107 1
107 158 1
107 175 1
107 209 1
107 260 1
107 277 1
107 515 1
107 566 1
107 583 1
108 108 1
108 159 1
108 176 1
108 210 1
108 261 1
108 278 1
108 516 1
108 567 1
108 584 1
109 109 1
109 160 1
109 177 1
109 211 1
109 262 1
109 279 1
109 517 1
109 568 1
109 585 1
110 110 1
110 161 1
110 178 1
110 212 1
110 263 1
110 280 1
110 518 1
110 569 1
110 586 1
111 111 1
111 162 1
111 179 1
111 213 1
111 264 1
111 281 1
111 519 1
111 570 1
111 587 1
112 112 1
112 163 1
112 180 1
112 214 1
112 265 1
112 282 1
112 520 1
112 571 1
112 588 1
113 113 1
113 164 1
113 181 1
113 215 1
113 266 1
113 283 1
113 521 1
113 572 1
113 589 1
114 114 1
114 165 1
114 182 1
114 216 1
114 267 1
114 284 1
114 522 1
114 573 1
114 590 1
115 115 1
115 166 1
115 183 1
115 217 1
115 268 1
115 285 1
115 523 1
115 574 1
115 591 1
116 116 1
116 167 1
116 184 1
116 218 1
116 269 1
116 286 1
116 524 1
116 575 1
116 592 1
117 117 1
117 168 1
117 185 1
117 219 1
117 270 1
117 287 1
117 525 1
117 576 1
117 593 1
118 118 1
118 169 1
118 186 1
118 220 1
118 271 1
118 288 1
118 526 1
118 577 1
118 594 1
119 119 1
119 170 1
119 187 1
119 221 1
119 272 1
119 289 1
119 527 1
119 578 1
119 595 1
120 120 1
120 154 1
120 188 1
120 222 1
120 256 1
120 290 1
120 528 1
120 562 1
120 596 1
121 121 1
121 155 1
121 189 1
121 223 1
121 257 1
121 291 1
121 529 1
121 563 1
121 597 1
122 122 1
122 156 1
122 190 1
122 224 1
122 258 1
122 292 1
122 530 1
122 564 1
122 598 1
123 123 1
123 157 1
123 191 1
123 225 1
123 259 1
123 293 1
123 531 1
123 565 1
123 599 1
124 124 1
124 158 1
124 192 1
124 226 1
124 260 1
124 294 1
124 532 1
124 566 1
124 600 1
125 125 1
125 159 1
125 193 1
125 227 1
125 261 1
125 295 1
125 533 1
125 567 1
125 601 1
126 126 1
126 160 1
126 194 1
126 228 1
126 262 1
126 296 1
126 534 1
126 568 1
126 602 1
127 127 1
127 161 1
127 195 1
127 229 1
127 263 1
127 297 1
127 535 1
127 569 1
127 603 1
128 128 1
128 162 1
128 196 1
128 230 1
128 264 1
128 298 1
128 536 1
128 570 1
128 604 1
129 129 1
129 163 1
129 197 1
129 231 1
129 265 1
129 299 1
129 537 1
129 571 1
129 605 1
130 130 1
130 164 1
130 198 1
130 232 1
130 266 1
130 300 1
130 538 1
130 572 1
130 606 1
131 131 1
131 165 1
131 199 1
131 233 1
131 267 1
131 301 1
131 539 1
131 573 1
131 607 1
132 132 1
132 166 1
132 200 1
132 234 1
132 268 1
132 302 1
132 540 1
132 574 1
132 608 1
133 133 1
133 167 1
133 201 1
133 235 1
133 269 1
133 303 1
133 541 1
133 575 1
133 609 1
134 134 1
134 168 1
134 202 1
134 236 1
134 270 1
134 304 1
134 542 1
134 576 1
134 610 1
135 135 1
135 169 1
135 203 1
135 237 1
135 271 1
135 305 1
135 543 1
135 577 1
135 611 1
136 136 1
136 170 1
136 204 1
136 238 1
136 272 1
136 306 1
136 544 1
136 578 1
136 612 1
137 137 1
137 171 1
137 188 1
137 239 1
137 273 1
137 290 1
137 545 1
137 579 1
137 596 1
138 138 1
138 172 1
138 189 1
138 240 1
138 274 1
138 291 1
138 546 1
138 580 1
138 597 1
139 139 1
139 173 1
139 190 1
139 241 1
139 275 1
139 292 1
139 547 1
139 581 1
139 598 1
140 140 1
140 174 1
140 191 1
140 242 1
140 276 1
140 293 1
140 548 1
140 582 1
140 599 1
141 141 1
141 175 1
141 192 1
141 243 1
141 277 1
141 294 1
141 549 1
141 583 1
141 600 1
142 142 1
142 176 1
142 193 1
142 244 1
142 278 1
142 295 1
142 550 1
142 584 1
142 601 1
143 143 1
143 177 1
143 194 1
143 245 1
143 279 1
143 296 1
143 551 1
143 585 1
143 602 1
144 144 1
144 178 1
144 195 1
144 246 1
144 280 1
144 297 1
144 552 1
144 586 1
144 603 1
145 145 1
145 179 1
145 196 1
145 247 1
145 281 1
145 298 1
145 553 1
145 587 1
145 604 1
146 146 1
146 180 1
146 197 1
146 248 1
146 282 1
146 299 1
146 554 1
146 588 1
146 605 1
147 147 1
147 181 1
147 198 1
147 249 1
147 283 1
147 300 1
147 555 1
147 589 1
147 606 1
148 148 1
148 182 1
148 199 1
148 250 1
148 284 1
148 301 1
148 556 1
148 590 1
148 607 1
149 149 1
149 183 1
149 200 1
149 251 1
149 285 1
149 302 1
149 557 1
149 591 1
149 608 1
150 150 1
150 184 1
150 201 1
150 252 1
150 286 1
150 303 1
150 558 1
150 592 1
150 609 1
151 151 1
151 185 1
151 202 1
151 253 1
151 287 1
151 304 1
151 559 1
151 593 1
151 610 1
152 152 1
152 186 1
152 203 1
152 254 1
152 288 1
152 305 1
152 560 1
152 594 1
152 611 1
153 153 1
153 187 1
153 204 1
153 255 1
153 289 1
153 306 1
153 561 1
153 595 1
153 612 1
154 1 1
154 72 1
154 88 1
154 103 1
154 174 1
154 190 1
154 206 1
154 277 1
154 293 1
155 2 1
155 73 1
155 89 1
155 104 1
155 175 1
155 191 1
155 207 1
155 278 1
155 294 1
156 3 1
156 74 1
156 90 1
156 105 1
156 176 1
156 192 1
156 208 1
156 279 1
156 295 1
157 4 1
157 75 1
157 91 1
157 106 1
157 177 1
157 193 1
157 209 1
157 280 1
157 296 1
158 5 1
158 76 1
158 92 1
158 107 1
158 178 1
158 194 1
158 210 1
158 281 1
158 297 1
159 6 1
159 77 1
159 93 1
159 108 1
159 179 1
159 195 1
159 211 1
159 282 1
159 298 1
160 7 1
160 78 1
160 94 1
160 109 1
160 180 1
160 196 1
160 212 1
160 283 1
160 299 1
161 8 1
161 79 1
161 95 1
161 110 1
161 181 1
161 197 1
161 213 1
161 284 1
161 300 1
162 9 1
162 80 1
162 96 1
162 111 1
162 182 1
162 198 1
162 214 1
162 285 1
162 301 1
163 10 1
163 81 1
163 97 1
163 112 1
163 183 1
163 199 1
163 215 1
163 286 1
163 302 1
164 11 1
164 82 1
164 98 1
164 113 1
164 184 1
164 200 1
164 216 1
164 287 1
164 303 1
165 12 1
165 83 1
165 99 1
165 114 1
165 185 1
165 201 1
165 217 1
165 288 1
165 304 1
166 13 1
166 84 1
166 100 1
166 115 1
166 186 1
166 202 1
166 218 1
166 289 1
166 305 1
167 14 1
167 85 1
167 101 1
167 116 1
167 187 1
167 203 1
167 219 1
167 273 1
167 306 1
168 15 1
168 69 1
168 102 1
168 117 1
168 171 1
168 204 1
168 220 1
168 274 1
168 290 1
169 16 1
169 70 1
169 86 1
169 118 1
169 172 1
169 188 1
169 221 1
169 275 1
169 291 1
170 17 1
170 71 1
170 87 1
170 119 1
170 173 1
170 189 1
170 205 1
170 276 1
170 292 1
171 33 1
171 42 1
171 72 1
171 135 1
171 144 1
171 174 1
171 238 1
171 247 1
171 277 1
172 34 1
172 43 1
172 73 1
172 136 1
172 145 1
172 175 1
172 222 1
172 248 1
172 278 1
173 18 1
173 44 1
173 74 1
173 120 1
173 146 1
173 176 1
173 223 1
173 249 1
173 279 1
174 19 1
174 45 1
174 75 1
174 121 1
174 147 1
174 177 1
174 224 1
174 250 1
174 280 1
175 20 1
175 46 1
175 76 1
175 122 1
175 148 1
175 178 1
175 225 1
175 251 1
175 281 1
176 21 1
176 47 1
176 77 1
176 123 1
176 149 1
176 179 1
176 226 1
176 252 1
176 282 1
177 22 1
177 48 1
177 78 1
177 124 1
177 150 1
177 180 1
177 227 1
177 253 1
177 283 1
178 23 1
178 49 1
178 79 1
178 125 1
178 151 1
178 181 1
178 228 1
178 254 1
178 284 1
179 24 1
179 50 1
179 80 1
179 126 1
179 152 1
179 182 1
179 229 1
179 255 1
179 285 1
180 25 1
180 51 1
180 81 1
180 127 1
180 153 1
180 183 1
180 230 1
180 239 1
180 286 1
181 26 1
181 35 1
181 82 1
181 128 1
181 137 1
181 184 1
181 231 1
181 240 1
181 287 1
182 27 1
182 36 1
182 83 1
182 129 1
182 138 1
182 185 1
182 232 1
182 241 1
182 288 1
183 28 1
183 37 1
183 84 1
183 130 1
183 139 1
183 186 1
183 233 1
183 242 1
183 289 1
184 29 1
184 38 1
184 85 1
184 131 1
184 140 1
184 187 1
184 234 1
184 243 1
184 273 1
185 30 1
185 39 1
185 69 1
185 132 1
185 141 1
185 171 1
185 235 1
185 244 1
185 274 1
186 31 1
186 40 1
186 70 1
186 133 1
186 142 1
186 172 1
186 236 1
186 245 1
186 275 1
187 32 1
187 41 1
187 71 1
187 134 1
187 143 1
187 173 1
187 237 1
187 246 1
187 276 1
188 33 1
188 57 1
188 88 1
188 135 1
188 159 1
188 190 1
188 238 1
188 262 1
188 293 1
189 34 1
189 58 1
189 89 1
189 136 1
189 160 1
189 191 1
189 222 1
189 263 1
189 294 1
190 18 1
190 59 1
190 90 1
190 120 1
190 161 1
190 192 1
190 223 1
190 264 1
190 295 1
191 19 1
191 60 1
191 91 1
191 121 1
191 162 1
191 193 1
191 224 1
191 265 1
191 296 1
192 20 1
192 61 1
192 92 1
192 122 1
192 163 1
192 194 1
192 225 1
192 266 1
192 297 1
193 21 1
193 62 1
193 93 1
193 123 1
193 164 1
193 195 1
193 226 1
193 267 1
193 298 1
194 22 1
194 63 1
194 94 1
194 124 1
194 165 1
194 196 1
194 227 1
194 268 1
194 299 1
195 23 1
195 64 1
195 95 1
195 125 1
195 166 1
195 197 1
195 228 1
195 269 1
195 300 1
196 24 1
196 65 1
196 96 1
196 126 1
196 167 1
196 198 1
196 229 1
196 270 1
196 301 1
197 25 1
197 66 1
197 97 1
197 127 1
197 168 1
197 199 1
197 230 1
197 271 1
197 302 1
198 26 1
198 67 1
198 98 1
198 128 1
198 169 1
198 200 1
198 231 1
198 272 1
198 303 1
199 27 1
199 68 1
199 99 1
199 129 1
199 170 1
199 201 1
199 232 1
199 256 1
199 304 1
200 28 1
200 52 1
200 100 1
200 130 1
200 154 1
200 202 1
200 233 1
200 257 1
200 305 1
201 29 1
201 53 1
201 101 1
201 131 1
201 155 1
201 203 1
201 234 1
201 258 1
201 306 1
202 30 1
202 54 1
202 102 1
202 132 1
202 156 1
202 204 1
202 235 1
202 259 1
202 290 1
203 31 1
203 55 1
203 86 1
203 133 1
203 157 1
203 188 1
203 236 1
203 260 1
203 291 1
204 32 1
204 56 1
204 87 1
204 134 1
204 158 1
204 189 1
204 237 1
204 261 1
204 292 1
205 1 1
205 72 1
205 88 1
205 308 1
205 379 1
205 395 1
205 419 1
205 490 1
205 506 1
206 2 1
206 73 1
206 89 1
206 309 1
206 380 1
206 396 1
206 420 1
206 491 1
206 507 1
207 3 1
207 74 1
207 90 1
207 310 1
207 381 1
207 397 1
207 421 1
207 492 1
207 508 1
208 4 1
208 75 1
208 91 1
208 311 1
208 382 1
208 398 1
208 422 1
208 493 1
208 509 1
209 5 1
209 76 1
209 92 1
209 312 1
209 383 1
209 399 1
209 423 1
209 477 1
209 510 1
210 6 1
210 77 1
210 93 1
210 313 1
210 384 1
210 400 1
210 424 1
210 478 1
210 494 1
211 7 1
211 78 1
211 94 1
211 314 1
211 385 1
211 401 1
211 425 1
211 479 1
211 495 1
212 8 1
212 79 1
212 95 1
212 315 1
212 386 1
212 402 1
212 409 1
212 480 1
212 496 1
213 9 1
213 80 1
213 96 1
213 316 1
213 387 1
213 403 1
213 410 1
213 481 1
213 497 1
214 10 1
214 81 1
214 97 1
214 317 1
214 388 1
214 404 1
214 411 1
214 482 1
214 498 1
215 11 1
215 82 1
215 98 1
215 318 1
215 389 1
215 405 1
215 412 1
215 483 1
215 499 1
216 12 1
216 83 1
216 99 1
216 319 1
216 390 1
216 406 1
216 413 1
216 484 1
216 500 1
217 13 1
217 84 1
217 100 1
217 320 1
217 391 1
217 407 1
217 414 1
217 485 1
217 501 1
218 14 1
218 85 1
218 101 1
218 321 1
218 375 1
218 408 1
218 415 1
218 486 1
218 502 1
219 15 1
219 69 1
219 102 1
219 322 1
219 376 1
219 392 1
219 416 1
219 487 1
219 503 1
220 16 1
220 70 1
220 86 1
220 323 1
220 377 1
220 393 1
220 417 1
220 488 1
220 504 1
221 17 1
221 71 1
221 87 1
221 307 1
221 378 1
221 394 1
221 418 1
221 489 1
221 505 1
222 33 1
222 42 1
222 72 1
222 340 1
222 349 1
222 379 1
222 434 1
222 443 1
222 490 1
223 34 1
223 43 1
223 73 1
223 324 1
223 350 1
223 380 1
223 435 1
223 444 1
223 491 1
224 18 1
224 44 1
224 74 1
224 325 1
224 351 1
224 381 1
224 436 1
224 445 1
224 492 1
225 19 1
225 45 1
225 75 1
225 326 1
225 352 1
225 382 1
225 437 1
225 446 1
225 493 1
226 20 1
226 46 1
226 76 1
226 327 1
226 353 1
226 383 1
226 438 1
226 447 1
226 477 1
227 21 1
227 47 1
227 77 1
227 328 1
227 354 1
227 384 1
227 439 1
227 448 1
227 478 1
228 22 1
228 48 1
228 78 1
228 329 1
228 355 1
228 385 1
228 440 1
228 449 1
228 479 1
229 23 1
229 49 1
229 79 1
229 330 1
229 356 1
229 386 1
229 441 1
229 450 1
229 480 1
230 24 1
230 50 1
230 80 1
230 331 1
230 357 1
230 387 1
230 442 1
230 451 1
230 481 1
231 25 1
231 51 1
231 81 1
231 332 1
231 341 1
231 388 1
231 426 1
231 452 1
231 482 1
232 26 1
232 35 1
232 82 1
232 333 1
232 342 1
232 389 1
232 427 1
232 453 1
232 483 1
233 27 1
233 36 1
233 83 1
233 334 1
233 343 1
233 390 1
233 428 1
233 454 1
233 484 1
234 28 1
234 37 1
234 84 1
234 335 1
234 344 1
234 391 1
234 429 1
234 455 1
234 485 1
235 29 1
235 38 1
235 85 1
235 336 1
235 345 1
235 375 1
235 430 1
235 456 1
235 486 1
236 30 1
236 39 1
236 69 1
236 337 1
236 346 1
236 376 1
236 431 1
236 457 1
236 487 1
237 31 1
237 40 1
237 70 1
237 338 1
237 347 1
237 377 1
237 432 1
237 458 1
237 488 1
238 32 1
238 41 1
238 71 1
238 339 1
238 348 1
238 378 1
238 433 1
238 459 1
238 489 1
239 33 1
239 57 1
239 88 1
239 340 1
239 364 1
239 395 1
239 434 1
239 475 1
239 506 1
240 34 1
240 58 1
240 89 1
240 324 1
240 365 1
240 396 1
240 435 1
240 476 1
240 507 1
241 18 1
241 59 1
241 90 1
241 325 1
241 366 1
241 397 1
241 436 1
241 460 1
241 508 1
242 19 1
242 60 1
242 91 1
242 326 1
242 367 1
242 398 1
242 437 1
242 461 1
242 509 1
243 20 1
243 61 1
243 92 1
243 327 1
243 368 1
243 399 1
243 438 1
243 462 1
243 510 1
244 21 1
244 62 1
244 93 1
244 328 1
244 369 1
244 400 1
244 439 1
244 463 1
244 494 1
245 22 1
245 63 1
245 94 1
245 329 1
245 370 1
245 401 1
245 440 1
245 464 1
245 495 1
246 23 1
246 64 1
246 95 1
246 330 1
246 371 1
246 402 1
246 441 1
246 465 1
246 496 1
247 24 1
247 65 1
247 96 1
247 331 1
247 372 1
247 403 1
247 442 1
247 466 1
247 497 1
248 25 1
248 66 1
248 97 1
248 332 1
248 373 1
248 404 1
248 426 1
248 467 1
248 498 1
249 26 1
249 67 1
249 98 1
249 333 1
249 374 1
249 405 1
249 427 1
249 468 1
249 499 1
250 27 1
250 68 1
250 99 1
250 334 1
250 358 1
250 406 1
250 428 1
250 469 1
250 500 1
251 28 1
251 52 1
251 100 1
251 335 1
251 359 1
251 407 1
251 429 1
251 470 1
251 501 1
252 29 1
252 53 1
252 101 1
252 336 1
252 360 1
252 408 1
252 430 1
252 471 1
252 502 1
253 30 1
253 54 1
253 102 1
253 337 1
253 361 1
253 392 1
253 431 1
253 472 1
253 503 1
254 31 1
254 55 1
254 86 1
254 338 1
254 362 1
254 393 1
254 432 1
254 473 1
254 504 1
255 32 1
255 56 1
255 87 1
255 339 1
255 363 1
255 394 1
255 433 1
255 474 1
255 505 1
256 103 1
256 174 1
256 190 1
256 308 1
256 379 1
256 395 1
256 523 1
256 594 1
256 610 1
257 104 1
257 175 1
257 191 1
257 309 1
257 380 1
257 396 1
257 524 1
257 595 1
257 611 1
258 105 1
258 176 1
258 192 1
258 310 1
258 381 1
258 397 1
258 525 1
258 579 1
258 612 1
259 106 1
259 177 1
259 193 1
259 311 1
259 382 1
259 398 1
259 526 1
259 580 1
259 596 1
260 107 1
260 178 1
260 194 1
260 312 1
260 383 1
260 399 1
260 527 1
260 581 1
260 597 1
261 108 1
261 179 1
261 195 1
261 313 1
261 384 1
261 400 1
261 511 1
261 582 1
261 598 1
262 109 1
262 180 1
262 196 1
262 314 1
262 385 1
262 401 1
262 512 1
262 583 1
262 599 1
263 110 1
263 181 1
263 197 1
263 315 1
263 386 1
263 402 1
263 513 1
263 584 1
263 600 1
264 111 1
264 182 1
264 198 1
264 316 1
264 387 1
264 403 1
264 514 1
264 585 1
264 601 1
265 112 1
265 183 1
265 199 1
265 317 1
265 388 1
265 404 1
265 515 1
265 586 1
265 602 1
266 113 1
266 184 1
266 200 1
266 318 1
266 389 1
266 405 1
266 516 1
266 587 1
266 603 1
267 114 1
267 185 1
267 201 1
267 319 1
267 390 1
267 406 1
267 517 1
267 588 1
267 604 1
268 115 1
268 186 1
268 202 1
268 320 1
268 391 1
268 407 1
268 518 1
268 589 1
268 605 1
269 116 1
269 187 1
269 203 1
269 321 1
269 375 1
269 408 1
269 519 1
269 590 1
269 606 1
270 117 1
270 171 1
270 204 1
270 322 1
270 376 1
270 392 1
270 520 1
270 591 1
270 607 1
271 118 1
271 172 1
271 188 1
271 323 1
271 377 1
271 393 1
271 521 1
271 592 1
271 608 1
272 119 1
272 173 1
272 189 1
272 307 1
272 378 1
272 394 1
272 522 1
272 593 1
272 609 1
273 135 1
273 144 1
273 174 1
273 340 1
273 349 1
273 379 1
273 538 1
273 547 1
273 594 1
274 136 1
274 145 1
274 175 1
274 324 1
274 350 1
274 380 1
274 539 1
274 548 1
274 595 1
275 120 1
275 146 1
275 176 1
275 325 1
275 351 1
275 381 1
275 540 1
275 549 1
275 579 1
276 121 1
276 147 1
276 177 1
276 326 1
276 352 1
276 382 1
276 541 1
276 550 1
276 580 1
277 122 1
277 148 1
277 178 1
277 327 1
277 353 1
277 383 1
277 542 1
277 551 1
277 581 1
278 123 1
278 149 1
278 179 1
278 328 1
278 354 1
278 384 1
278 543 1
278 552 1
278 582 1
279 124 1
279 150 1
279 180 1
279 329 1
279 355 1
279 385 1
279 544 1
279 553 1
279 583 1
280 125 1
280 151 1
280 181 1
280 330 1
280 356 1
280 386 1
280 528 1
280 554 1
280 584 1
281 126 1
281 152 1
281 182 1
281 331 1
281 357 1
281 387 1
281 529 1
281 555 1
281 585 1
282 127 1
282 153 1
282 183 1
282 332 1
282 341 1
282 388 1
282 530 1
282 556 1
282 586 1
283 128 1
283 137 1
283 184 1
283 333 1
283 342 1
283 389 1
283 531 1
283 557 1
283 587 1
284 129 1
284 138 1
284 185 1
284 334 1
284 343 1
284 390 1
284 532 1
284 558 1
284 588 1
285 130 1
285 139 1
285 186 1
285 335 1
285 344 1
285 391 1
285 533 1
285 559 1
285 589 1
286 131 1
286 140 1
286 187 1
286 336 1
286 345 1
286 375 1
286 534 1
286 560 1
286 590 1
287 132 1
287 141 1
287 171 1
287 337 1
287 346 1
287 376 1
287 535 1
287 561 1
287 591 1
288 133 1
288 142 1
288 172 1
288 338 1
288 347 1
288 377 1
288 536 1
288 545 1
288 592 1
289 134 1
289 143 1
289 173 1
289 339 1
289 348 1
289 378 1
289 537 1
289 546 1
289 593 1
290 135 1
290 159 1
290 190 1
290 340 1
290 364 1
290 395 1
290 538 1
290 562 1
290 610 1
291 136 1
291 160 1
291 191 1
291 324 1
291 365 1
291 396 1
291 539 1
291 563 1
291 611 1
292 120 1
292 161 1
292 192 1
292 325 1
292 366 1
292 397 1
292 540 1
292 564 1
292 612 1
293 121 1
293 162 1
293 193 1
293 326 1
293 367 1
293 398 1
293 541 1
293 565 1
293 596 1
294 122 1
294 163 1
294 194 1
294 327 1
294 368 1
294 399 1
294 542 1
294 566 1
294 597 1
295 123 1
295 164 1
295 195 1
295 328 1
295 369 1
295 400 1
295 543 1
295 567 1
295 598 1
296 124 1
296 165 1
296 196 1
296 329 1
296 370 1
296 401 1
296 544 1
296 568 1
296 599 1
297 125 1
297 166 1
297 197 1
297 330 1
297 371 1
297 402 1
297 528 1
297 569 1
297 600 1
298 126 1
298 167 1
298 198 1
298 331 1
298 372 1
298 403 1
298 529 1
298 570 1
298 601 1
299 127 1
299 168 1
299 199 1
299 332 1
299 373 1
299 404 1
299 530 1
299 571 1
299 602 1
300 128 1
300 169 1
300 200 1
300 333 1
300 374 1
300 405 1
300 531 1
300 572 1
300 603 1
301 129 1
301 170 1
301 201 1
301 334 1
301 358 1
301 406 1
301 532 1
301 573 1
301 604 1
302 130 1
302 154 1
302 202 1
302 335 1
302 359 1
302 407 1
302 533 1
302 574 1
302 605 1
303 131 1
303 155 1
303 203 1
303 336 1
303 360 1
303 408 1
303 534 1
303 575 1
303 606 1
304 132 1
304 156 1
304 204 1
304 337 1
304 361 1
304 392 1
304 535 1
304 576 1
304 607 1
305 133 1
305 157 1
305 188 1
305 338 1
305 362 1
305 393 1
305 536 1
305 577 1
305 608 1
306 134 1
306 158 1
306 189 1
306 339 1
306 363 1
306 394 1
306 537 1
306 578 1
306 609 1
