%%MatrixMarket matrix coordinate integer general
342 684 3078
1 1 1
1 20 1
1 67 1
1 343 1
1 362 1
1 409 1
1 457 1
1 476 1
1 523 1
2 2 1
2 21 1
2 68 1
2 344 1
2 363 1
2 410 1
2 458 1
2 477 1
2 524 1
3 3 1
3 22 1
3 69 1
3 345 1
3 364 1
3 411 1
3 459 1
3 478 1
3 525 1
4 4 1
4 23 1
4 70 1
4 346 1
4 365 1
4 412 1
4 460 1
4 479 1
4 526 1
5 5 1
5 24 1
5 71 1
5 347 1
5 366 1
5 413 1
5 461 1
5 480 1
5 527 1
6 6 1
6 25 1
6 72 1
6 348 1
6 367 1
6 414 1
6 462 1
6 481 1
6 528 1
7 7 1
7 26 1
7 73 1
7 349 1
7 368 1
7 415 1
7 463 1
7 482 1
7 529 1
8 8 1
8 27 1
8 74 1
8 350 1
8 369 1
8 416 1
8 464 1
8 483 1
8 530 1
9 9 1
9 28 1
9 75 1
9 351 1
9 370 1
9 417 1
9 465 1
9 484 1
9 531 1
10 10 1
10 29 1
10 76 1
10 352 1
10 371 1
10 418 1
10 466 1
10 485 1
10 532 1
11 11 1
11 30 1
11 58 1
11 353 1
11 372 1
11 400 1
11 467 1
11 486 1
11 514 1
12 12 1
12 31 1
12 59 1
12 354 1
12 373 1
12 401 1
12 468 1
12 487 1
12 515 1
13 13 1
13 32 1
13 60 1
13 355 1
13 374 1
13 402 1
13 469 1
13 488 1
13 516 1
14 14 1
14 33 1
14 61 1
14 356 1
14 375 1
14 403 1
14 470 1
14 489 1
14 517 1
15 15 1
15 34 1
15 62 1
15 357 1
15 376 1
15 404 1
15 471 1
15 490 1
15 518 1
16 16 1
16 35 1
16 63 1
16 358 1
16 377 1
16 405 1
16 472 1
16 491 1
16 519 1
17 17 1
17 36 1
17 64 1
17 359 1
17 378 1
17 406 1
17 473 1
17 492 1
17 520 1
18 18 1
18 37 1
18 65 1
18 360 1
18 379 1
18 407 1
18 474 1
18 493 1
18 521 1
19 19 1
19 38 1
19 66 1
19 361 1
19 380 1
19 408 1
19 475 1
19 494 1
19 522 1
20 1 1
20 57 1
20 84 1
20 343 1
20 399 1
20 426 1
20 457 1
20 513 1
20 540 1
21 2 1
21 39 1
21 85 1
21 344 1
21 381 1
21 427 1
21 458 1
21 495 1
21 541 1
22 3 1
22 40 1
22 86 1
22 345 1
22 382 1
22 428 1
22 459 1
22 496 1
22 542 1
23 4 1
23 41 1
23 87 1
23 346 1
23 383 1
23 429 1
23 460 1
23 497 1
23 543 1
24 5 1
24 42 1
24 88 1
24 347 1
24 384 1
24 430 1
24 461 1
24 498 1
24 544 1
25 6 1
25 43 1
25 89 1
25 348 1
25 385 1
25 431 1
25 462 1
25 499 1
25 545 1
26 7 1
26 44 1
26 90 1
26 349 1
26 386 1
26 432 1
26 463 1
26 500 1
26 546 1
27 8 1
27 45 1
27 91 1
27 350 1
27 387 1
27 433 1
27 464 1
27 501 1
27 547 1
28 9 1
28 46 1
28 92 1
28 351 1
28 388 1
28 434 1
28 465 1
28 502 1
28 548 1
29 10 1
29 47 1
29 93 1
29 352 1
29 389 1
29 435 1
29 466 1
29 503 1
29 549 1
30 11 1
30 48 1
30 94 1
30 353 1
30 390 1
30 436 1
30 467 1
30 504 1
30 550 1
31 12 1
31 49 1
31 95 1
31 354 1
31 391 1
31 437 1
31 468 1
31 505 1
31 551 1
32 13 1
32 50 1
32 77 1
32 355 1
32 392 1
32 419 1
32 469 1
32 506 1
32 533 1
33 14 1
33 51 1
33 78 1
33 356 1
33 393 1
33 420 1
33 470 1
33 507 1
33 534 1
34 15 1
34 52 1
34 79 1
34 357 1
34 394 1
34 421 1
34 471 1
34 508 1
34 535 1
35 16 1
35 53 1
35 80 1
35 358 1
35 395 1
35 422 1
35 472 1
35 509 1
35 536 1
36 17 1
36 54 1
36 81 1
36 359 1
36 396 1
36 423 1
36 473 1
36 510 1
36 537 1
37 18 1
37 55 1
37 82 1
37 360 1
37 397 1
37 424 1
37 474 1
37 511 1
37 538 1
38 19 1
38 56 1
38 83 1
38 361 1
38 398 1
38 425 1
38 475 1
38 512 1
38 539 1
39 20 1
39 57 1
39 103 1
39 362 1
39 399 1
39 445 1
39 476 1
39 513 1
39 559 1
40 21 1
40 39 1
40 104 1
40 363 1
40 381 1
40 446 1
40 477 1
40 495 1
40 560 1
41 22 1
41 40 1
41 105 1
41 364 1
41 382 1
41 447 1
41 478 1
41 496 1
41 561 1
42 23 1
42 41 1
42 106 1
42 365 1
42 383 1
42 448 1
42 479 1
42 497 1
42 562 1
43 24 1
43 42 1
43 107 1
43 366 1
43 384 1
43 449 1
43 480 1
43 498 1
43 563 1
44 25 1
44 43 1
44 108 1
44 367 1
44 385 1
44 450 1
44 481 1
44 499 1
44 564 1
45 26 1
45 44 1
45 109 1
45 368 1
45 386 1
45 451 1
45 482 1
45 500 1
45 565 1
46 27 1
46 45 1
46 110 1
46 369 1
46 387 1
46 452 1
46 483 1
46 501 1
46 566 1
47 28 1
47 46 1
47 111 1
47 370 1
47 388 1
47 453 1
47 484 1
47 502 1
47 567 1
48 29 1
48 47 1
48 112 1
48 371 1
48 389 1
48 454 1
48 485 1
48 503 1
48 568 1
49 30 1
49 48 1
49 113 1
49 372 1
49 390 1
49 455 1
49 486 1
49 504 1
49 569 1
50 31 1
50 49 1
50 114 1
50 373 1
50 391 1
50 456 1
50 487 1
50 505 1
50 570 1
51 32 1
51 50 1
51 96 1
51 374 1
51 392 1
51 438 1
51 488 1
51 506 1
51 552 1
52 33 1
52 51 1
52 97 1
52 375 1
52 393 1
52 439 1
52 489 1
52 507 1
52 553 1
53 34 1
53 52 1
53 98 1
53 376 1
53 394 1
53 440 1
53 490 1
53 508 1
53 554 1
54 35 1
54 53 1
54 99 1
54 377 1
54 395 1
54 441 1
54 491 1
54 509 1
54 555 1
55 36 1
55 54 1
55 100 1
55 378 1
55 396 1
55 442 1
55 492 1
55 510 1
55 556 1
56 37 1
56 55 1
56 101 1
56 379 1
56 397 1
56 443 1
56 493 1
56 511 1
56 557 1
57 38 1
57 56 1
57 102 1
57 380 1
57 398 1
57 444 1
57 494 1
57 512 1
57 558 1
58 115 1
58 134 1
58 181 1
58 343 1
58 362 1
58 409 1
58 571 1
58 590 1
58 637 1
59 116 1
59 135 1
59 182 1
59 344 1
59 363 1
59 410 1
59 572 1
59 591 1
59 638 1
60 117 1
60 136 1
60 183 1
60 345 1
60 364 1
60 411 1
60 573 1
60 592 1
60 639 1
61 118 1
61 137 1
61 184 1
61 346 1
61 365 1
61 412 1
61 574 1
61 593 1
61 640 1
62 119 1
62 138 1
62 185 1
62 347 1
62 366 1
62 413 1
62 575 1
62 594 1
62 641 1
63 120 1
63 139 1
63 186 1
63 348 1
63 367 1
63 414 1
63 576 1
63 595 1
63 642 1
64 121 1
64 140 1
64 187 1
64 349 1
64 368 1
64 415 1
64 577 1
64 596 1
64 643 1
65 122 1
65 141 1
65 188 1
65 350 1
65 369 1
65 416 1
65 578 1
65 597 1
65 644 1
66 123 1
66 142 1
66 189 1
66 351 1
66 370 1
66 417 1
66 579 1
66 598 1
66 645 1
67 124 1
67 143 1
67 190 1
67 352 1
67 371 1
67 418 1
67 580 1
67 599 1
67 646 1
68 125 1
68 144 1
68 172 1
68 353 1
68 372 1
68 400 1
68 581 1
68 600 1
68 628 1
69 126 1
69 145 1
69 173 1
69 354 1
69 373 1
69 401 1
69 582 1
69 601 1
69 629 1
70 127 1
70 146 1
70 174 1
70 355 1
70 374 1
70 402 1
70 583 1
70 602 1
70 630 1
71 128 1
71 147 1
71 175 1
71 356 1
71 375 1
71 403 1
71 584 1
71 603 1
71 631 1
72 129 1
72 148 1
72 176 1
72 357 1
72 376 1
72 404 1
72 585 1
72 604 1
72 632 1
73 130 1
73 149 1
73 177 1
73 358 1
73 377 1
73 405 1
73 586 1
73 605 1
73 633 1
74 131 1
74 150 1
74 178 1
74 359 1
74 378 1
74 406 1
74 587 1
74 606 1
74 634 1
75 132 1
75 151 1
75 179 1
75 360 1
75 379 1
75 407 1
75 588 1
75 607 1
75 635 1
76 133 1
76 152 1
76 180 1
76 361 1
76 380 1
76 408 1
76 589 1
76 608 1
76 636 1
77 115 1
77 171 1
77 198 1
77 343 1
77 399 1
77 426 1
77 571 1
77 627 1
77 654 1
78 116 1
78 153 1
78 199 1
78 344 1
78 381 1
78 427 1
78 572 1
78 609 1
78 655 1
79 117 1
79 154 1
79 200 1
79 345 1
79 382 1
79 428 1
79 573 1
79 610 1
79 656 1
80 118 1
80 155 1
80 201 1
80 346 1
80 383 1
80 429 1
80 574 1
80 611 1
80 657 1
81 119 1
81 156 1
81 202 1
81 347 1
81 384 1
81 430 1
81 575 1
81 612 1
81 658 1
82 120 1
82 157 1
82 203 1
82 348 1
82 385 1
82 431 1
82 576 1
82 613 1
82 659 1
83 121 1
83 158 1
83 204 1
83 349 1
83 386 1
83 432 1
83 577 1
83 614 1
83 660 1
84 122 1
84 159 1
84 205 1
84 350 1
84 387 1
84 433 1
84 578 1
84 615 1
84 661 1
85 123 1
85 160 1
85 206 1
85 351 1
85 388 1
85 434 1
85 579 1
85 616 1
85 662 1
86 124 1
86 161 1
86 207 1
86 352 1
86 389 1
86 435 1
86 580 1
86 617 1
86 663 1
87 125 1
87 162 1
87 208 1
87 353 1
87 390 1
87 436 1
87 581 1
87 618 1
87 664 1
88 126 1
88 163 1
88 209 1
88 354 1
88 391 1
88 437 1
88 582 1
88 619 1
88 665 1
89 127 1
89 164 1
89 191 1
89 355 1
89 392 1
89 419 1
89 583 1
89 620 1
89 647 1
90 128 1
90 165 1
90 192 1
90 356 1
90 393 1
90 420 1
90 584 1
90 621 1
90 648 1
91 129 1
91 166 1
91 193 1
91 357 1
91 394 1
91 421 1
91 585 1
91 622 1
91 649 1
92 130 1
92 167 1
92 194 1
92 358 1
92 395 1
92 422 1
92 586 1
92 623 1
92 650 1
93 131 1
93 168 1
93 195 1
93 359 1
93 396 1
93 423 1
93 587 1
93 624 1
93 651 1
94 132 1
94 169 1
94 196 1
94 360 1
94 397 1
94 424 1
94 588 1
94 625 1
94 652 1
95 133 1
95 170 1
95 197 1
95 361 1
95 398 1
95 425 1
95 589 1
95 626 1
95 653 1
96 134 1
96 171 1
96 217 1
96 362 1
96 399 1
96 445 1
96 590 1
96 627 1
96 673 1
97 135 1
97 153 1
97 218 1
97 363 1
97 381 1
97 446 1
97 591 1
97 609 1
97 674 1
98 136 1
98 154 1
98 219 1
98 364 1
98 382 1
98 447 1
98 592 1
98 610 1
98 675 1
99 137 1
99 155 1
99 220 1
99 365 1
99 383 1
99 448 1
99 593 1
99 611 1
99 676 1
100 138 1
100 156 1
100 221 1
100 366 1
100 384 1
100 449 1
100 594 1
100 612 1
100 677 1
101 139 1
101 157 1
101 222 1
101 367 1
101 385 1
101 450 1
101 595 1
101 613 1
101 678 1
102 140 1
102 158 1
102 223 1
102 368 1
102 386 1
102 451 1
102 596 1
102 614 1
102 679 1
103 141 1
103 159 1
103 224 1
103 369 1
103 387 1
103 452 1
103 597 1
103 615 1
103 680 1
104 142 1
104 160 1
104 225 1
104 370 1
104 388 1
104 453 1
104 598 1
104 616 1
104 681 1
105 143 1
105 161 1
105 226 1
105 371 1
105 389 1
105 454 1
105 599 1
105 617 1
105 682 1
106 144 1
106 162 1
106 227 1
106 372 1
106 390 1
106 455 1
106 600 1
106 618 1
106 683 1
107 145 1
107 163 1
107 228 1
107 373 1
107 391 1
107 456 1
107 601 1
107 619 1
107 684 1
108 146 1
108 164 1
108 210 1
108 374 1
108 392 1
108 438 1
108 602 1
108 620 1
108 666 1
109 147 1
109 165 1
109 211 1
109 375 1
109 393 1
109 439 1
109 603 1
109 621 1
109 667 1
110 148 1
110 166 1
110 212 1
110 376 1
110 394 1
110 440 1
110 604 1
110 622 1
110 668 1
111 149 1
111 167 1
111 213 1
111 377 1
111 395 1
111 441 1
111 605 1
111 623 1
111 669 1
112 150 1
112 168 1
112 214 1
112 378 1
112 396 1
112 442 1
112 606 1
112 624 1
112 670 1
113 151 1
113 169 1
113 215 1
113 379 1
113 397 1
113 443 1
113 607 1
113 625 1
113 671 1
114 152 1
114 170 1
114 216 1
114 380 1
114 398 1
114 444 1
114 608 1
114 626 1
114 672 1
115 229 1
115 248 1
115 295 1
115 457 1
115 476 1
115 523 1
115 571 1
115 590 1
115 637 1
116 230 1
116 249 1
116 296 1
116 458 1
116 477 1
116 524 1
116 572 1
116 591 1
116 638 1
117 231 1
117 250 1
117 297 1
117 459 1
117 478 1
117 525 1
117 573 1
117 592 1
117 639 1
118 232 1
118 251 1
118 298 1
118 460 1
118 479 1
118 526 1
118 574 1
118 593 1
118 640 1
119 233 1
119 252 1
119 299 1
119 461 1
119 480 1
119 527 1
119 575 1
119 594 1
119 641 1
120 234 1
120 253 1
120 300 1
120 462 1
120 481 1
120 528 1
120 576 1
120 595 1
120 642 1
121 235 1
121 254 1
121 301 1
121 463 1
121 482 1
121 529 1
121 577 1
121 596 1
121 643 1
122 236 1
122 255 1
122 302 1
122 464 1
122 483 1
122 530 1
122 578 1
122 597 1
122 644 1
123 237 1
123 256 1
123 303 1
123 465 1
123 484 1
123 531 1
123 579 1
123 598 1
123 645 1
124 238 1
124 257 1
124 304 1
124 466 1
124 485 1
124 532 1
124 580 1
124 599 1
124 646 1
125 239 1
125 258 1
125 286 1
125 467 1
125 486 1
125 514 1
125 581 1
125 600 1
125 628 1
126 240 1
126 259 1
126 287 1
126 468 1
126 487 1
126 515 1
126 582 1
126 601 1
126 629 1
127 241 1
127 260 1
127 288 1
127 469 1
127 488 1
127 516 1
127 583 1
127 602 1
127 630 1
128 242 1
128 261 1
128 289 1
128 470 1
128 489 1
128 517 1
128 584 1
128 603 1
128 631 1
129 243 1
129 262 1
129 290 1
129 471 1
129 490 1
129 518 1
129 585 1
129 604 1
129 632 1
130 244 1
130 263 1
130 291 1
130 472 1
130 491 1
130 519 1
130 586 1
130 605 1
130 633 1
131 245 1
131 264 1
131 292 1
131 473 1
131 492 1
131 520 1
131 587 1
131 606 1
131 634 1
132 246 1
132 265 1
132 293 1
132 474 1
132 493 1
132 521 1
132 588 1
132 607 1
132 635 1
133 247 1
133 266 1
133 294 1
133 475 1
133 494 1
133 522 1
133 589 1
133 608 1
133 636 1
134 229 1
134 285 1
134 312 1
134 457 1
134 513 1
134 540 1
134 571 1
134 627 1
134 654 1
135 230 1
135 267 1
135 313 1
135 458 1
135 495 1
135 541 1
135 572 1
135 609 1
135 655 1
136 231 1
136 268 1
136 314 1
136 459 1
136 496 1
136 542 1
136 573 1
136 610 1
136 656 1
137 232 1
137 269 1
137 315 1
137 460 1
137 497 1
137 543 1
137 574 1
137 611 1
137 657 1
138 233 1
138 270 1
138 316 1
138 461 1
138 498 1
138 544 1
138 575 1
138 612 1
138 658 1
139 234 1
139 271 1
139 317 1
139 462 1
139 499 1
139 545 1
139 576 1
139 613 1
139 659 1
140 235 1
140 272 1
140 318 1
140 463 1
140 500 1
140 546 1
140 577 1
140 614 1
140 660 1
141 236 1
141 273 1
141 319 1
141 464 1
141 501 1
141 547 1
141 578 1
141 615 1
141 661 1
142 237 1
142 274 1
142 320 1
142 465 1
142 502 1
142 548 1
142 579 1
142 616 1
142 662 1
143 238 1
143 275 1
143 321 1
143 466 1
143 503 1
143 549 1
143 580 1
143 617 1
143 663 1
144 239 1
144 276 1
144 322 1
144 467 1
144 504 1
144 550 1
144 581 1
144 618 1
144 664 1
145 240 1
145 277 1
145 323 1
145 468 1
145 505 1
145 551 1
145 582 1
145 619 1
145 665 1
146 241 1
146 278 1
146 305 1
146 469 1
146 506 1
146 533 1
146 583 1
146 620 1
146 647 1
147 242 1
147 279 1
147 306 1
147 470 1
147 507 1
147 534 1
147 584 1
147 621 1
147 648 1
148 243 1
148 280 1
148 307 1
148 471 1
148 508 1
148 535 1
148 585 1
148 622 1
148 649 1
149 244 1
149 281 1
149 308 1
149 472 1
149 509 1
149 536 1
149 586 1
149 623 1
149 650 1
150 245 1
150 282 1
150 309 1
150 473 1
150 510 1
150 537 1
150 587 1
150 624 1
150 651 1
151 246 1
151 283 1
151 310 1
151 474 1
151 511 1
151 538 1
151 588 1
151 625 1
151 652 1
152 247 1
152 284 1
152 311 1
152 475 1
152 512 1
152 539 1
152 589 1
152 626 1
152 653 1
153 248 1
153 285 1
153 331 1
153 476 1
153 513 1
153 559 1
153 590 1
153 627 1
153 673 1
154 249 1
154 267 1
154 332 1
154 477 1
154 495 1
154 560 1
154 591 1
154 609 1
154 674 1
155 250 1
155 268 1
155 333 1
155 478 1
155 496 1
155 561 1
155 592 1
155 610 1
155 675 1
156 251 1
156 269 1
156 334 1
156 479 1
156 497 1
156 562 1
156 593 1
156 611 1
156 676 1
157 252 1
157 270 1
157 335 1
157 480 1
157 498 1
157 563 1
157 594 1
157 612 1
157 677 1
158 253 1
158 271 1
158 336 1
158 481 1
158 499 1
158 564 1
158 595 1
158 613 1
158 678 1
159 254 1
159 272 1
159 337 1
159 482 1
159 500 1
159 565 1
159 596 1
159 614 1
159 679 1
160 255 1
160 273 1
160 338 1
160 483 1
160 501 1
160 566 1
160 597 1
160 615 1
160 680 1
161 256 1
161 274 1
161 339 1
161 484 1
161 502 1
161 567 1
161 598 1
161 616 1
161 681 1
162 257 1
162 275 1
162 340 1
162 485 1
162 503 1
162 568 1
162 599 1
162 617 1
162 682 1
163 258 1
163 276 1
163 341 1
163 486 1
163 504 1
163 569 1
163 600 1
163 618 1
163 683 1
164 259 1
164 277 1
164 342 1
164 487 1
164 505 1
164 570 1
164 601 1
164 619 1
164 684 1
165 260 1
165 278 1
165 324 1
165 488 1
165 506 1
165 552 1
165 602 1
165 620 1
165 666 1
166 261 1
166 279 1
166 325 1
166 489 1
166 507 1
166 553 1
166 603 1
166 621 1
166 667 1
167 262 1
167 280 1
167 326 1
167 490 1
167 508 1
167 554 1
167 604 1
167 622 1
167 668 1
168 263 1
168 281 1
168 327 1
168 491 1
168 509 1
168 555 1
168 605 1
168 623 1
168 669 1
169 264 1
169 282 1
169 328 1
169 492 1
169 510 1
169 556 1
169 606 1
169 624 1
169 670 1
170 265 1
170 283 1
170 329 1
170 493 1
170 511 1
170 557 1
170 607 1
170 625 1
170 671 1
171 266 1
171 284 1
171 330 1
171 494 1
171 512 1
171 558 1
171 608 1
171 626 1
171 672 1
172 1 1
172 20 1
172 58 1
172 353 1
172 372 1
172 410 1
172 470 1
172 489 1
172 527 1
173 2 1
173 21 1
173 59 1
173 354 1
173 373 1
173 411 1
173 471 1
173 490 1
173 528 1
174 3 1
174 22 1
174 60 1
174 355 1
174 374 1
174 412 1
174 472 1
174 491 1
174 529 1
175 4 1
175 23 1
175 61 1
175 356 1
175 375 1
175 413 1
175 473 1
175 492 1
175 530 1
176 5 1
176 24 1
176 62 1
176 357 1
176 376 1
176 414 1
176 474 1
176 493 1
176 531 1
177 6 1
177 25 1
177 63 1
177 358 1
177 377 1
177 415 1
177 475 1
177 494 1
177 532 1
178 7 1
178 26 1
178 64 1
178 359 1
178 378 1
178 416 1
178 457 1
178 476 1
178 514 1
179 8 1
179 27 1
179 65 1
179 360 1
179 379 1
179 417 1
179 458 1
179 477 1
179 515 1
180 9 1
180 28 1
180 66 1
180 361 1
180 380 1
180 418 1
180 459 1
180 478 1
180 516 1
181 10 1
181 29 1
181 67 1
181 343 1
181 362 1
181 400 1
181 460 1
181 479 1
181 517 1
182 11 1
182 30 1
182 68 1
182 344 1
182 363 1
182 401 1
182 461 1
182 480 1
182 518 1
183 12 1
183 31 1
183 69 1
183 345 1
183 364 1
183 402 1
183 462 1
183 481 1
183 519 1
184 13 1
184 32 1
184 70 1
184 346 1
184 365 1
184 403 1
184 463 1
184 482 1
184 520 1
185 14 1
185 33 1
185 71 1
185 347 1
185 366 1
185 404 1
185 464 1
185 483 1
185 521 1
186 15 1
186 34 1
186 72 1
186 348 1
186 367 1
186 405 1
186 465 1
186 484 1
186 522 1
187 16 1
187 35 1
187 73 1
187 349 1
187 368 1
187 406 1
187 466 1
187 485 1
187 523 1
188 17 1
188 36 1
188 74 1
188 350 1
188 369 1
188 407 1
188 467 1
188 486 1
188 524 1
189 18 1
189 37 1
189 75 1
189 351 1
189 370 1
189 408 1
189 468 1
189 487 1
189 525 1
190 19 1
190 38 1
190 76 1
190 352 1
190 371 1
190 409 1
190 469 1
190 488 1
190 526 1
191 1 1
191 39 1
191 77 1
191 353 1
191 391 1
191 429 1
191 470 1
191 508 1
191 546 1
192 2 1
192 40 1
192 78 1
192 354 1
192 392 1
192 430 1
192 471 1
192 509 1
192 547 1
193 3 1
193 41 1
193 79 1
193 355 1
193 393 1
193 431 1
193 472 1
193 510 1
193 548 1
194 4 1
194 42 1
194 80 1
194 356 1
194 394 1
194 432 1
194 473 1
194 511 1
194 549 1
195 5 1
195 43 1
195 81 1
195 357 1
195 395 1
195 433 1
195 474 1
195 512 1
195 550 1
196 6 1
196 44 1
196 82 1
196 358 1
196 396 1
196 434 1
196 475 1
196 513 1
196 551 1
197 7 1
197 45 1
197 83 1
197 359 1
197 397 1
197 435 1
197 457 1
197 495 1
197 533 1
198 8 1
198 46 1
198 84 1
198 360 1
198 398 1
198 436 1
198 458 1
198 496 1
198 534 1
199 9 1
199 47 1
199 85 1
199 361 1
199 399 1
199 437 1
199 459 1
199 497 1
199 535 1
200 10 1
200 48 1
200 86 1
200 343 1
200 381 1
200 419 1
200 460 1
200 498 1
200 536 1
201 11 1
201 49 1
201 87 1
201 344 1
201 382 1
201 420 1
201 461 1
201 499 1
201 537 1
202 12 1
202 50 1
202 88 1
202 345 1
202 383 1
202 421 1
202 462 1
202 500 1
202 538 1
203 13 1
203 51 1
203 89 1
203 346 1
203 384 1
203 422 1
203 463 1
203 501 1
203 539 1
204 14 1
204 52 1
204 90 1
204 347 1
204 385 1
204 423 1
204 464 1
204 502 1
204 540 1
205 15 1
205 53 1
205 91 1
205 348 1
205 386 1
205 424 1
205 465 1
205 503 1
205 541 1
206 16 1
206 54 1
206 92 1
206 349 1
206 387 1
206 425 1
206 466 1
206 504 1
206 542 1
207 17 1
207 55 1
207 93 1
207 350 1
207 388 1
207 426 1
207 467 1
207 505 1
207 543 1
208 18 1
208 56 1
208 94 1
208 351 1
208 389 1
208 427 1
208 468 1
208 506 1
208 544 1
209 19 1
209 57 1
209 95 1
209 352 1
209 390 1
209 428 1
209 469 1
209 507 1
209 545 1
210 20 1
210 39 1
210 96 1
210 372 1
210 391 1
210 448 1
210 489 1
210 508 1
210 565 1
211 21 1
211 40 1
211 97 1
211 373 1
211 392 1
211 449 1
211 490 1
211 509 1
211 566 1
212 22 1
212 41 1
212 98 1
212 374 1
212 393 1
212 450 1
212 491 1
212 510 1
212 567 1
213 23 1
213 42 1
213 99 1
213 375 1
213 394 1
213 451 1
213 492 1
213 511 1
213 568 1
214 24 1
214 43 1
214 100 1
214 376 1
214 395 1
214 452 1
214 493 1
214 512 1
214 569 1
215 25 1
215 44 1
215 101 1
215 377 1
215 396 1
215 453 1
215 494 1
215 513 1
215 570 1
216 26 1
216 45 1
216 102 1
216 378 1
216 397 1
216 454 1
216 476 1
216 495 1
216 552 1
217 27 1
217 46 1
217 103 1
217 379 1
217 398 1
217 455 1
217 477 1
217 496 1
217 553 1
218 28 1
218 47 1
218 104 1
218 380 1
218 399 1
218 456 1
218 478 1
218 497 1
218 554 1
219 29 1
219 48 1
219 105 1
219 362 1
219 381 1
219 438 1
219 479 1
219 498 1
219 555 1
220 30 1
220 49 1
220 106 1
220 363 1
220 382 1
220 439 1
220 480 1
220 499 1
220 556 1
221 31 1
221 50 1
221 107 1
221 364 1
221 383 1
221 440 1
221 481 1
221 500 1
221 557 1
222 32 1
222 51 1
222 108 1
222 365 1
222 384 1
222 441 1
222 482 1
222 501 1
222 558 1
223 33 1
223 52 1
223 109 1
223 366 1
223 385 1
223 442 1
223 483 1
223 502 1
223 559 1
224 34 1
224 53 1
224 110 1
224 367 1
224 386 1
224 443 1
224 484 1
224 503 1
224 560 1
225 35 1
225 54 1
225 111 1
225 368 1
225 387 1
225 444 1
225 485 1
225 504 1
225 561 1
226 36 1
226 55 1
226 112 1
226 369 1
226 388 1
226 445 1
226 486 1
226 505 1
226 562 1
227 37 1
227 56 1
227 113 1
227 370 1
227 389 1
227 446 1
227 487 1
227 506 1
227 563 1
228 38 1
228 57 1
228 114 1
228 371 1
228 390 1
228 447 1
228 488 1
228 507 1
228 564 1
229 119 1
229 138 1
229 176 1
229 353 1
229 372 1
229 410 1
229 588 1
229 607 1
229 645 1
230 120 1
230 139 1
230 177 1
230 354 1
230 373 1
230 411 1
230 589 1
230 608 1
230 646 1
231 121 1
231 140 1
231 178 1
231 355 1
231 374 1
231 412 1
231 571 1
231 590 1
231 628 1
232 122 1
232 141 1
232 179 1
232 356 1
232 375 1
232 413 1
232 572 1
232 591 1
232 629 1
233 123 1
233 142 1
233 180 1
233 357 1
233 376 1
233 414 1
233 573 1
233 592 1
233 630 1
234 124 1
234 143 1
234 181 1
234 358 1
234 377 1
234 415 1
234 574 1
234 593 1
234 631 1
235 125 1
235 144 1
235 182 1
235 359 1
235 378 1
235 416 1
235 575 1
235 594 1
235 632 1
236 126 1
236 145 1
236 183 1
236 360 1
236 379 1
236 417 1
236 576 1
236 595 1
236 633 1
237 127 1
237 146 1
237 184 1
237 361 1
237 380 1
237 418 1
237 577 1
237 596 1
237 634 1
238 128 1
238 147 1
238 185 1
238 343 1
238 362 1
238 400 1
238 578 1
238 597 1
238 635 1
239 129 1
239 148 1
239 186 1
239 344 1
239 363 1
239 401 1
239 579 1
239 598 1
239 636 1
240 130 1
240 149 1
240 187 1
240 345 1
240 364 1
240 402 1
240 580 1
240 599 1
240 637 1
241 131 1
241 150 1
241 188 1
241 346 1
241 365 1
241 403 1
241 581 1
241 600 1
241 638 1
242 132 1
242 151 1
242 189 1
242 347 1
242 366 1
242 404 1
242 582 1
242 601 1
242 639 1
243 133 1
243 152 1
243 190 1
243 348 1
243 367 1
243 405 1
243 583 1
243 602 1
243 640 1
244 115 1
244 134 1
244 172 1
244 349 1
244 368 1
244 406 1
244 584 1
244 603 1
244 641 1
245 116 1
245 135 1
245 173 1
245 350 1
245 369 1
245 407 1
245 585 1
245 604 1
245 642 1
246 117 1
246 136 1
246 174 1
246 351 1
246 370 1
246 408 1
246 586 1
246 605 1
246 643 1
247 118 1
247 137 1
247 175 1
247 352 1
247 371 1
247 409 1
247 587 1
247 606 1
247 644 1
248 119 1
248 157 1
248 195 1
248 353 1
248 391 1
248 429 1
248 588 1
248 626 1
248 664 1
249 120 1
249 158 1
249 196 1
249 354 1
249 392 1
249 430 1
249 589 1
249 627 1
249 665 1
250 121 1
250 159 1
250 197 1
250 355 1
250 393 1
250 431 1
250 571 1
250 609 1
250 647 1
251 122 1
251 160 1
251 198 1
251 356 1
251 394 1
251 432 1
251 572 1
251 610 1
251 648 1
252 123 1
252 161 1
252 199 1
252 357 1
252 395 1
252 433 1
252 573 1
252 611 1
252 649 1
253 124 1
253 162 1
253 200 1
253 358 1
253 396 1
253 434 1
253 574 1
253 612 1
253 650 1
254 125 1
254 163 1
254 201 1
254 359 1
254 397 1
254 435 1
254 575 1
254 613 1
254 651 1
255 126 1
255 164 1
255 202 1
255 360 1
255 398 1
255 436 1
255 576 1
255 614 1
255 652 1
256 127 1
256 165 1
256 203 1
256 361 1
256 399 1
256 437 1
256 577 1
256 615 1
256 653 1
257 128 1
257 166 1
257 204 1
257 343 1
257 381 1
257 419 1
257 578 1
257 616 1
257 654 1
258 129 1
258 167 1
258 205 1
258 344 1
258 382 1
258 420 1
258 579 1
258 617 1
258 655 1
259 130 1
259 168 1
259 206 1
259 345 1
259 383 1
259 421 1
259 580 1
259 618 1
259 656 1
260 131 1
260 169 1
260 207 1
260 346 1
260 384 1
260 422 1
260 581 1
260 619 1
260 657 1
261 132 1
261 170 1
261 208 1
261 347 1
261 385 1
261 423 1
261 582 1
261 620 1
261 658 1
262 133 1
262 171 1
262 209 1
262 348 1
262 386 1
262 424 1
262 583 1
262 621 1
262 659 1
263 115 1
263 153 1
263 191 1
263 349 1
263 387 1
263 425 1
263 584 1
263 622 1
263 660 1
264 116 1
264 154 1
264 192 1
264 350 1
264 388 1
264 426 1
264 585 1
264 623 1
264 661 1
265 117 1
265 155 1
265 193 1
265 351 1
265 389 1
265 427 1
265 586 1
265 624 1
265 662 1
266 118 1
266 156 1
266 194 1
266 352 1
266 390 1
266 428 1
266 587 1
266 625 1
266 663 1
267 138 1
267 157 1
267 214 1
267 372 1
267 391 1
267 448 1
267 607 1
267 626 1
267 683 1
268 139 1
268 158 1
268 215 1
268 373 1
268 392 1
268 449 1
268 608 1
268 627 1
268 684 1
269 140 1
269 159 1
269 216 1
269 374 1
269 393 1
269 450 1
269 590 1
269 609 1
269 666 1
270 141 1
270 160 1
270 217 1
270 375 1
270 394 1
270 451 1
270 591 1
270 610 1
270 667 1
271 142 1
271 161 1
271 218 1
271 376 1
271 395 1
271 452 1
271 592 1
271 611 1
271 668 1
272 143 1
272 162 1
272 219 1
272 377 1
272 396 1
272 453 1
272 593 1
272 612 1
272 669 1
273 144 1
273 163 1
273 220 1
273 378 1
273 397 1
273 454 1
273 594 1
273 613 1
273 670 1
274 145 1
274 164 1
274 221 1
274 379 1
274 398 1
274 455 1
274 595 1
274 614 1
274 671 1
275 146 1
275 165 1
275 222 1
275 380 1
275 399 1
275 456 1
275 596 1
275 615 1
275 672 1
276 147 1
276 166 1
276 223 1
276 362 1
276 381 1
276 438 1
276 597 1
276 616 1
276 673 1
277 148 1
277 167 1
277 224 1
277 363 1
277 382 1
277 439 1
277 598 1
277 617 1
277 674 1
278 149 1
278 168 1
278 225 1
278 364 1
278 383 1
278 440 1
278 599 1
278 618 1
278 675 1
279 150 1
279 169 1
279 226 1
279 365 1
279 384 1
279 441 1
279 600 1
279 619 1
279 676 1
280 151 1
280 170 1
280 227 1
280 366 1
280 385 1
280 442 1
280 601 1
280 620 1
280 677 1
281 152 1
281 171 1
281 228 1
281 367 1
281 386 1
281 443 1
281 602 1
281 621 1
281 678 1
282 134 1
282 153 1
282 210 1
282 368 1
282 387 1
282 444 1
282 603 1
282 622 1
282 679 1
283 135 1
283 154 1
283 211 1
283 369 1
283 388 1
283 445 1
283 604 1
283 623 1
283 680 1
284 136 1
284 155 1
284 212 1
284 370 1
284 389 1
284 446 1
284 605 1
284 624 1
284 681 1
285 137 1
285 156 1
285 213 1
285 371 1
285 390 1
285 447 1
285 606 1
285 625 1
285 682 1
286 236 1
286 255 1
286 293 1
286 470 1
286 489 1
286 527 1
286 588 1
286 607 1
286 645 1
287 237 1
287 256 1
287 294 1
287 471 1
287 490 1
287 528 1
287 589 1
287 608 1
287 646 1
288 238 1
288 257 1
288 295 1
288 472 1
288 491 1
288 529 1
288 571 1
288 590 1
288 628 1
289 239 1
289 258 1
289 296 1
289 473 1
289 492 1
289 530 1
289 572 1
289 591 1
289 629 1
290 240 1
290 259 1
290 297 1
290 474 1
290 493 1
290 531 1
290 573 1
290 592 1
290 630 1
291 241 1
291 260 1
291 298 1
291 475 1
291 494 1
291 532 1
291 574 1
291 593 1
291 631 1
292 242 1
292 261 1
292 299 1
292 457 1
292 476 1
292 514 1
292 575 1
292 594 1
292 632 1
293 243 1
293 262 1
293 300 1
293 458 1
293 477 1
293 515 1
293 576 1
293 595 1
293 633 1
294 244 1
294 263 1
294 301 1
294 459 1
294 478 1
294 516 1
294 577 1
294 596 1
294 634 1
295 245 1
295 264 1
295 302 1
295 460 1
295 479 1
295 517 1
295 578 1
295 597 1
295 635 1
296 246 1
296 265 1
296 303 1
296 461 1
296 480 1
296 518 1
296 579 1
296 598 1
296 636 1
297 247 1
297 266 1
297 304 1
297 462 1
297 481 1
297 519 1
297 580 1
297 599 1
297 637 1
298 229 1
298 248 1
298 286 1
298 463 1
298 482 1
298 520 1
298 581 1
298 600 1
298 638 1
299 230 1
299 249 1
299 287 1
299 464 1
299 483 1
299 521 1
299 582 1
299 601 1
299 639 1
300 231 1
300 250 1
300 288 1
300 465 1
300 484 1
300 522 1
300 583 1
300 602 1
300 640 1
301 232 1
301 251 1
301 289 1
301 466 1
301 485 1
301 523 1
301 584 1
301 603 1
301 641 1
302 233 1
302 252 1
302 290 1
302 467 1
302 486 1
302 524 1
302 585 1
302 604 1
302 642 1
303 234 1
303 253 1
303 291 1
303 468 1
303 487 1
303 525 1
303 586 1
303 605 1
303 643 1
304 235 1
304 254 1
304 292 1
304 469 1
304 488 1
304 526 1
304 587 1
304 606 1
304 644 1
305 236 1
305 274 1
305 312 1
305 470 1
305 508 1
305 546 1
305 588 1
305 626 1
305 664 1
306 237 1
306 275 1
306 313 1
306 471 1
306 509 1
306 547 1
306 589 1
306 627 1
306 665 1
307 238 1
307 276 1
307 314 1
307 472 1
307 510 1
307 548 1
307 571 1
307 609 1
307 647 1
308 239 1
308 277 1
308 315 1
308 473 1
308 511 1
308 549 1
308 572 1
308 610 1
308 648 1
309 240 1
309 278 1
309 316 1
309 474 1
309 512 1
309 550 1
309 573 1
309 611 1
309 649 1
310 241 1
310 279 1
310 317 1
310 475 1
310 513 1
310 551 1
310 574 1
310 612 1
310 650 1
311 242 1
311 280 1
311 318 1
311 457 1
311 495 1
311 533 1
311 575 1
311 613 1
311 651 1
312 243 1
312 281 1
312 319 1
312 458 1
312 496 1
312 534 1
312 576 1
312 614 1
312 652 1
313 244 1
313 282 1
313 320 1
313 459 1
313 497 1
313 535 1
313 577 1
313 615 1
313 653 1
314 245 1
314 283 1
314 321 1
314 460 1
314 498 1
314 536 1
314 578 1
314 616 1
314 654 1
315 246 1
315 284 1
315 322 1
315 461 1
315 499 1
315 537 1
315 579 1
315 617 1
315 655 1
316 247 1
316 285 1
316 323 1
316 462 1
316 500 1
316 538 1
316 580 1
316 618 1
316 656 1
317 229 1
317 267 1
317 305 1
317 463 1
317 501 1
317 539 1
317 581 1
317 619 1
317 657 1
318 230 1
318 268 1
318 306 1
318 464 1
318 502 1
318 540 1
318 582 1
318 620 1
318 658 1
319 231 1
319 269 1
319 307 1
319 465 1
319 503 1
319 541 1
319 583 1
319 621 1
319 659 1
320 232 1
320 270 1
320 308 1
320 466 1
320 504 1
320 542 1
320 584 1
320 622 1
320 660 1
321 233 1
321 271 1
321 309 1
321 467 1
321 505 1
321 543 1
321 585 1
321 623 1
321 661 1
322 234 1
322 272 1
322 310 1
322 468 1
322 506 1
322 544 1
322 586 1
322 624 1
322 662 1
323 235 1
323 273 1
323 311 1
323 469 1
323 507 1
323 545 1
323 587 1
323 625 1
323 663 1
324 255 1
324 274 1
324 331 1
324 489 1
324 508 1
324 565 1
324 607 1
324 626 1
324 683 1
325 256 1
325 275 1
325 332 1
325 490 1
325 509 1
325 566 1
325 608 1
325 627 1
325 684 1
326 257 1
326 276 1
326 333 1
326 491 1
326 510 1
326 567 1
326 590 1
326 609 1
326 666 1
327 258 1
327 277 1
327 334 1
327 492 1
327 511 1
327 568 1
327 591 1
327 610 1
327 667 1
328 259 1
328 278 1
328 335 1
328 493 1
328 512 1
328 569 1
328 592 1
328 611 1
328 668 1
329 260 1
329 279 1
329 336 1
329 494 1
329 513 1
329 570 1
329 593 1
329 612 1
329 669 1
330 261 1
330 280 1
330 337 1
330 476 1
330 495 1
330 552 1
330 594 1
330 613 1
330 670 1
331 262 1
331 281 1
331 338 1
331 477 1
331 496 1
331 553 1
331 595 1
331 614 1
331 671 1
332 263 1
332 282 1
332 339 1
332 478 1
332 497 1
332 554 1
332 596 1
332 615 1
332 672 1
333 264 1
333 283 1
333 340 1
333 479 1
333 498 1
333 555 1
333 597 1
333 616 1
333 673 1
334 265 1
334 284 1
334 341 1
334 480 1
334 499 1
334 556 1
334 598 1
334 617 1
334 674 1
335 266 1
335 285 1
335 342 1
335 481 1
335 500 1
335 557 1
335 599 1
335 618 1
335 675 1
336 248 1
336 267 1
336 324 1
336 482 1
336 501 1
336 558 1
336 600 1
336 619 1
336 676 1
337 249 1
337 268 1
337 325 1
337 483 1
337 502 1
337 559 1
337 601 1
337 620 1
337 677 1
338 250 1
338 269 1
338 326 1
338 484 1
338 503 1
338 560 1
338 602 1
338 621 1
338 678 1
339 251 1
339 270 1
339 327 1
339 485 1
339 504 1
339 561 1
339 603 1
339 622 1
339 679 1
340 252 1
340 271 1
340 328 1
340 486 1
340 505 1
340 562 1
340 604 1
340 623 1
340 680 1
341 253 1
341 272 1
341 329 1
341 487 1
341 506 1
341 563 1
341 605 1
341 624 1
341 681 1
342 254 1
342 273 1
342 330 1
342 488 1
342 507 1
342 564 1
342 606 1
342 625 1
342 682 1
