%%MatrixMarket matrix coordinate integer general
306 612 2754
1 1 1
1 52 1
1 69 1
1 103 1
1 154 1
1 171 1
1 307 1
1 358 1
1 375 1
2 2 1
2 53 1
2 70 1
2 104 1
2 155 1
2 172 1
2 308 1
2 359 1
2 376 1
3 3 1
3 54 1
3 71 1
3 105 1
3 156 1
3 173 1
3 309 1
3 360 1
3 377 1
4 4 1
4 55 1
4 72 1
4 106 1
4 157 1
4 174 1
4 310 1
4 361 1
4 378 1
5 5 1
5 56 1
5 73 1
5 107 1
5 158 1
5 175 1
5 311 1
5 362 1
5 379 1
6 6 1
6 57 1
6 74 1
6 108 1
6 159 1
6 176 1
6 312 1
6 363 1
6 380 1
7 7 1
7 58 1
7 75 1
7 109 1
7 160 1
7 177 1
7 313 1
7 364 1
7 381 1
8 8 1
8 59 1
8 76 1
8 110 1
8 161 1
8 178 1
8 314 1
8 365 1
8 382 1
9 9 1
9 60 1
9 77 1
9 111 1
9 162 1
9 179 1
9 315 1
9 366 1
9 383 1
10 10 1
10 61 1
10 78 1
10 112 1
10 163 1
10 180 1
10 316 1
10 367 1
10 384 1
11 11 1
11 62 1
11 79 1
11 113 1
11 164 1
11 181 1
11 317 1
11 368 1
11 385 1
12 12 1
12 63 1
12 80 1
12 114 1
12 165 1
12 182 1
12 318 1
12 369 1
12 386 1
13 13 1
13 64 1
13 81 1
13 115 1
13 166 1
13 183 1
13 319 1
13 370 1
13 387 1
14 14 1
14 65 1
14 82 1
14 116 1
14 167 1
14 184 1
14 320 1
14 371 1
14 388 1
15 15 1
15 66 1
15 83 1
15 117 1
15 168 1
15 185 1
15 321 1
15 372 1
15 389 1
16 16 1
16 67 1
16 84 1
16 118 1
16 169 1
16 186 1
16 322 1
16 373 1
16 390 1
17 17 1
17 68 1
17 85 1
17 119 1
17 170 1
17 187 1
17 323 1
17 374 1
17 391 1
18 18 1
18 52 1
18 86 1
18 120 1
18 154 1
18 188 1
18 324 1
18 358 1
18 392 1
19 19 1
19 53 1
19 87 1
19 121 1
19 155 1
19 189 1
19 325 1
19 359 1
19 393 1
20 20 1
20 54 1
20 88 1
20 122 1
20 156 1
20 190 1
20 326 1
20 360 1
20 394 1
21 21 1
21 55 1
21 89 1
21 123 1
21 157 1
21 191 1
21 327 1
21 361 1
21 395 1
22 22 1
22 56 1
22 90 1
22 124 1
22 158 1
22 192 1
22 328 1
22 362 1
22 396 1
23 23 1
23 57 1
23 91 1
23 125 1
23 159 1
23 193 1
23 329 1
23 363 1
23 397 1
24 24 1
24 58 1
24 92 1
24 126 1
24 160 1
24 194 1
24 330 1
24 364 1
24 398 1
25 25 1
25 59 1
25 93 1
25 127 1
25 161 1
25 195 1
25 331 1
25 365 1
25 399 1
26 26 1
26 60 1
26 94 1
26 128 1
26 162 1
26 196 1
26 332 1
26 366 1
26 400 1
27 27 1
27 61 1
27 95 1
27 129 1
27 163 1
27 197 1
27 333 1
27 367 1
27 401 1
28 28 1
28 62 1
28 96 1
28 130 1
28 164 1
28 198 1
28 334 1
28 368 1
28 402 1
29 29 1
29 63 1
29 97 1
29 131 1
29 165 1
29 199 1
29 335 1
29 369 1
29 403 1
30 30 1
30 64 1
30 98 1
30 132 1
30 166 1
30 200 1
30 336 1
30 370 1
30 404 1
31 31 1
31 65 1
31 99 1
31 133 1
31 167 1
31 201 1
31 337 1
31 371 1
31 405 1
32 32 1
32 66 1
32 100 1
32 134 1
32 168 1
32 202 1
32 338 1
32 372 1
32 406 1
33 33 1
33 67 1
33 101 1
33 135 1
33 169 1
33 203 1
33 339 1
33 373 1
33 407 1
34 34 1
34 68 1
34 102 1
34 136 1
34 170 1
34 204 1
34 340 1
34 374 1
34 408 1
35 35 1
35 69 1
35 86 1
35 137 1
35 171 1
35 188 1
35 341 1
35 375 1
35 392 1
36 36 1
36 70 1
36 87 1
36 138 1
36 172 1
36 189 1
36 342 1
36 376 1
36 393 1
37 37 1
37 71 1
37 88 1
37 139 1
37 173 1
37 190 1
37 343 1
37 377 1
37 394 1
38 38 1
38 72 1
38 89 1
38 140 1
38 174 1
38 191 1
38 344 1
38 378 1
38 395 1
39 39 1
39 73 1
39 90 1
39 141 1
39 175 1
39 192 1
39 345 1
39 379 1
39 396 1
40 40 1
40 74 1
40 91 1
40 142 1
40 176 1
40 193 1
40 346 1
40 380 1
40 397 1
41 41 1
41 75 1
41 92 1
41 143 1
41 177 1
41 194 1
41 347 1
41 381 1
41 398 1
42 42 1
42 76 1
42 93 1
42 144 1
42 178 1
42 195 1
42 348 1
42 382 1
42 399 1
43 43 1
43 77 1
43 94 1
43 145 1
43 179 1
43 196 1
43 349 1
43 383 1
43 400 1
44 44 1
44 78 1
44 95 1
44 146 1
44 180 1
44 197 1
44 350 1
44 384 1
44 401 1
45 45 1
45 79 1
45 96 1
45 147 1
45 181 1
45 198 1
45 351 1
45 385 1
45 402 1
46 46 1
46 80 1
46 97 1
46 148 1
46 182 1
46 199 1
46 352 1
46 386 1
46 403 1
47 47 1
47 81 1
47 98 1
47 149 1
47 183 1
47 200 1
47 353 1
47 387 1
47 404 1
48 48 1
48 82 1
48 99 1
48 150 1
48 184 1
48 201 1
48 354 1
48 388 1
48 405 1
49 49 1
49 83 1
49 100 1
49 151 1
49 185 1
49 202 1
49 355 1
49 389 1
49 406 1
50 50 1
50 84 1
50 101 1
50 152 1
50 186 1
50 203 1
50 356 1
50 390 1
50 407 1
51 51 1
51 85 1
51 102 1
51 153 1
51 187 1
51 204 1
51 357 1
51 391 1
51 408 1
52 1 1
52 52 1
52 69 1
52 205 1
52 256 1
52 273 1
52 409 1
52 460 1
52 477 1
53 2 1
53 53 1
53 70 1
53 206 1
53 257 1
53 274 1
53 410 1
53 461 1
53 478 1
54 3 1
54 54 1
54 71 1
54 207 1
54 258 1
54 275 1
54 411 1
54 462 1
54 479 1
55 4 1
55 55 1
55 72 1
55 208 1
55 259 1
55 276 1
55 412 1
55 463 1
55 480 1
56 5 1
56 56 1
56 73 1
56 209 1
56 260 1
56 277 1
56 413 1
56 464 1
56 481 1
57 6 1
57 57 1
57 74 1
57 210 1
57 261 1
57 278 1
57 414 1
57 465 1
57 482 1
58 7 1
58 58 1
58 75 1
58 211 1
58 262 1
58 279 1
58 415 1
58 466 1
58 483 1
59 8 1
59 59 1
59 76 1
59 212 1
59 263 1
59 280 1
59 416 1
59 467 1
59 484 1
60 9 1
60 60 1
60 77 1
60 213 1
60 264 1
60 281 1
60 417 1
60 468 1
60 485 1
61 10 1
61 61 1
61 78 1
61 214 1
61 265 1
61 282 1
61 418 1
61 469 1
61 486 1
62 11 1
62 62 1
62 79 1
62 215 1
62 266 1
62 283 1
62 419 1
62 470 1
62 487 1
63 12 1
63 63 1
63 80 1
63 216 1
63 267 1
63 284 1
63 420 1
63 471 1
63 488 1
64 13 1
64 64 1
64 81 1
64 217 1
64 268 1
64 285 1
64 421 1
64 472 1
64 489 1
65 14 1
65 65 1
65 82 1
65 218 1
65 269 1
65 286 1
65 422 1
65 473 1
65 490 1
66 15 1
66 66 1
66 83 1
66 219 1
66 270 1
66 287 1
66 423 1
66 474 1
66 491 1
67 16 1
67 67 1
67 84 1
67 220 1
67 271 1
67 288 1
67 424 1
67 475 1
67 492 1
68 17 1
68 68 1
68 85 1
68 221 1
68 272 1
68 289 1
68 425 1
68 476 1
68 493 1
69 18 1
69 52 1
69 86 1
69 222 1
69 256 1
69 290 1
69 426 1
69 460 1
69 494 1
70 19 1
70 53 1
70 87 1
70 223 1
70 257 1
70 291 1
70 427 1
70 461 1
70 495 1
71 20 1
71 54 1
71 88 1
71 224 1
71 258 1
71 292 1
71 428 1
71 462 1
71 496 1
72 21 1
72 55 1
72 89 1
72 225 1
72 259 1
72 293 1
72 429 1
72 463 1
72 497 1
73 22 1
73 56 1
73 90 1
73 226 1
73 260 1
73 294 1
73 430 1
73 464 1
73 498 1
74 23 1
74 57 1
74 91 1
74 227 1
74 261 1
74 295 1
74 431 1
74 465 1
74 499 1
75 24 1
75 58 1
75 92 1
75 228 1
75 262 1
75 296 1
75 432 1
75 466 1
75 500 1
76 25 1
76 59 1
76 93 1
76 229 1
76 263 1
76 297 1
76 433 1
76 467 1
76 501 1
77 26 1
77 60 1
77 94 1
77 230 1
77 264 1
77 298 1
77 434 1
77 468 1
77 502 1
78 27 1
78 61 1
78 95 1
78 231 1
78 265 1
78 299 1
78 435 1
78 469 1
78 503 1
79 28 1
79 62 1
79 96 1
79 232 1
79 266 1
79 300 1
79 436 1
79 470 1
79 504 1
80 29 1
80 63 1
80 97 1
80 233 1
80 267 1
80 301 1
80 437 1
80 471 1
80 505 1
81 30 1
81 64 1
81 98 1
81 234 1
81 268 1
81 302 1
81 438 1
81 472 1
81 506 1
82 31 1
82 65 1
82 99 1
82 235 1
82 269 1
82 303 1
82 439 1
82 473 1
82 507 1
83 32 1
83 66 1
83 100 1
83 236 1
83 270 1
83 304 1
83 440 1
83 474 1
83 508 1
84 33 1
84 67 1
84 101 1
84 237 1
84 271 1
84 305 1
84 441 1
84 475 1
84 509 1
85 34 1
85 68 1
85 102 1
85 238 1
85 272 1
85 306 1
85 442 1
85 476 1
85 510 1
86 35 1
86 69 1
86 86 1
86 239 1
86 273 1
86 290 1
86 443 1
86 477 1
86 494 1
87 36 1
87 70 1
87 87 1
87 240 1
87 274 1
87 291 1
87 444 1
87 478 1
87 495 1
88 37 1
88 71 1
88 88 1
88 241 1
88 275 1
88 292 1
88 445 1
88 479 1
88 496 1
89 38 1
89 72 1
89 89 1
89 242 1
89 276 1
89 293 1
89 446 1
89 480 1
89 497 1
90 39 1
90 73 1
90 90 1
90 243 1
90 277 1
90 294 1
90 447 1
90 481 1
90 498 1
91 40 1
91 74 1
91 91 1
91 244 1
91 278 1
91 295 1
91 448 1
91 482 1
91 499 1
92 41 1
92 75 1
92 92 1
92 245 1
92 279 1
92 296 1
92 449 1
92 483 1
92 500 1
93 42 1
93 76 1
93 93 1
93 246 1
93 280 1
93 297 1
93 450 1
93 484 1
93 501 1
94 43 1
94 77 1
94 94 1
94 247 1
94 281 1
94 298 1
94 451 1
94 485 1
94 502 1
95 44 1
95 78 1
95 95 1
95 248 1
95 282 1
95 299 1
95 452 1
95 486 1
95 503 1
96 45 1
96 79 1
96 96 1
96 249 1
96 283 1
96 300 1
96 453 1
96 487 1
96 504 1
97 46 1
97 80 1
97 97 1
97 250 1
97 284 1
97 301 1
97 454 1
97 488 1
97 505 1
98 47 1
98 81 1
98 98 1
98 251 1
98 285 1
98 302 1
98 455 1
98 489 1
98 506 1
99 48 1
99 82 1
99 99 1
99 252 1
99 286 1
99 303 1
99 456 1
99 490 1
99 507 1
100 49 1
100 83 1
100 100 1
100 253 1
100 287 1
100 304 1
100 457 1
100 491 1
100 508 1
101 50 1
101 84 1
101 101 1
101 254 1
101 288 1
101 305 1
101 458 1
101 492 1
101 509 1
102 51 1
102 85 1
102 102 1
102 255 1
102 289 1
102 306 1
102 459 1
102 493 1
102 510 1
103 103 1
103 154 1
103 171 1
103 205 1
103 256 1
103 273 1
103 511 1
103 562 1
103 579 1
104 104 1
104 155 1
104 172 1
104 206 1
104 257 1
104 274 1
104 512 1
104 563 1
104 580 1
105 105 1
105 156 1
105 173 1
105 207 1
105 258 1
105 275 1
105 513 1
105 564 1
105 581 1
106 106 1
106 157 1
106 174 1
106 208 1
106 259 1
106 276 1
106 514 1
106 565 1
106 582 1
107 107 1
107 158 1
107 175 1
107 209 1
107 260 1
107 277 1
107 515 1
107 566 1
107 583 1
108 108 1
108 159 1
108 176 1
108 210 1
108 261 1
108 278 1
108 516 1
108 567 1
108 584 1
109 109 1
109 160 1
109 177 1
109 211 1
109 262 1
109 279 1
109 517 1
109 568 1
109 585 1
110 110 1
110 161 1
110 178 1
110 212 1
110 263 1
110 280 1
110 518 1
110 569 1
110 586 1
111 111 1
111 162 1
111 179 1
111 213 1
111 264 1
111 281 1
111 519 1
111 570 1
111 587 1
112 112 1
112 163 1
112 180 1
112 214 1
112 265 1
112 282 1
112 520 1
112 571 1
112 588 1
113 113 1
113 164 1
113 181 1
113 215 1
113 266 1
113 283 1
113 521 1
113 572 1
113 589 1
114 114 1
114 165 1
114 182 1
114 216 1
114 267 1
114 284 1
114 522 1
114 573 1
114 590 1
115 115 1
115 166 1
115 183 1
115 217 1
115 268 1
115 285 1
115 523 1
115 574 1
115 591 1
116 116 1
116 167 1
116 184 1
116 218 1
116 269 1
116 286 1
116 524 1
116 575 1
116 592 1
117 117 1
117 168 1
117 185 1
117 219 1
117 270 1
117 287 1
117 525 1
117 576 1
117 593 1
118 118 1
118 169 1
118 186 1
118 220 1
118 271 1
118 288 1
118 526 1
118 577 1
118 594 1
119 119 1
119 170 1
119 187 1
119 221 1
119 272 1
119 289 1
119 527 1
119 578 1
119 595 1
120 120 1
120 154 1
120 188 1
120 222 1
120 256 1
120 290 1
120 528 1
120 562 1
120 596 1
121 121 1
121 155 1
121 189 1
121 223 1
121 257 1
121 291 1
121 529 1
121 563 1
121 597 1
122 122 1
122 156 1
122 190 1
122 224 1
122 258 1
122 292 1
122 530 1
122 564 1
122 598 1
123 123 1
123 157 1
123 191 1
123 225 1
123 259 1
123 293 1
123 531 1
123 565 1
123 599 1
124 124 1
124 158 1
124 192 1
124 226 1
124 260 1
124 294 1
124 532 1
124 566 1
124 600 1
125 125 1
125 159 1
125 193 1
125 227 1
125 261 1
125 295 1
125 533 1
125 567 1
125 601 1
126 126 1
126 160 1
126 194 1
126 228 1
126 262 1
126 296 1
126 534 1
126 568 1
126 602 1
127 127 1
127 161 1
127 195 1
127 229 1
127 263 1
127 297 1
127 535 1
127 569 1
127 603 1
128 128 1
128 162 1
128 196 1
128 230 1
128 264 1
128 298 1
128 536 1
128 570 1
128 604 1
129 129 1
129 163 1
129 197 1
129 231 1
129 265 1
129 299 1
129 537 1
129 571 1
129 605 1
130 130 1
130 164 1
130 198 1
130 232 1
130 266 1
130 300 1
130 538 1
130 572 1
130 606 1
131 131 1
131 165 1
131 199 1
131 233 1
131 267 1
131 301 1
131 539 1
131 573 1
131 607 1
132 132 1
132 166 1
132 200 1
132 234 1
132 268 1
132 302 1
132 540 1
132 574 1
132 608 1
133 133 1
133 167 1
133 201 1
133 235 1
133 269 1
133 303 1
133 541 1
133 575 1
133 609 1
134 134 1
134 168 1
134 202 1
134 236 1
134 270 1
134 304 1
134 542 1
134 576 1
134 610 1
135 135 1
135 169 1
135 203 1
135 237 1
135 271 1
135 305 1
135 543 1
135 577 1
135 611 1
136 136 1
136 170 1
136 204 1
136 238 1
136 272 1
136 306 1
136 544 1
136 578 1
136 612 1
137 137 1
137 171 1
137 188 1
137 239 1
137 273 1
137 290 1
137 545 1
137 579 1
137 596 1
138 138 1
138 172 1
138 189 1
138 240 1
138 274 1
138 291 1
138 546 1
138 580 1
138 597 1
139 139 1
139 173 1
139 190 1
139 241 1
139 275 1
139 292 1
139 547 1
139 581 1
139 598 1
140 140 1
140 174 1
140 191 1
140 242 1
140 276 1
140 293 1
140 548 1
140 582 1
140 599 1
141 141 1
141 175 1
141 192 1
141 243 1
141 277 1
141 294 1
141 549 1
141 583 1
141 600 1
142 142 1
142 176 1
142 193 1
142 244 1
142 278 1
142 295 1
142 550 1
142 584 1
142 601 1
143 143 1
143 177 1
143 194 1
143 245 1
143 279 1
143 296 1
143 551 1
143 585 1
143 602 1
144 144 1
144 178 1
144 195 1
144 246 1
144 280 1
144 297 1
144 552 1
144 586 1
144 603 1
145 145 1
145 179 1
145 196 1
145 247 1
145 281 1
145 298 1
145 553 1
145 587 1
145 604 1
146 146 1
146 180 1
146 197 1
146 248 1
146 282 1
146 299 1
146 554 1
146 588 1
146 605 1
147 147 1
147 181 1
147 198 1
147 249 1
147 283 1
147 300 1
147 555 1
147 589 1
147 606 1
148 148 1
148 182 1
148 199 1
148 250 1
148 284 1
148 301 1
148 556 1
148 590 1
148 607 1
149 149 1
149 183 1
149 200 1
149 251 1
149 285 1
149 302 1
149 557 1
149 591 1
149 608 1
150 150 1
150 184 1
150 201 1
150 252 1
150 286 1
150 303 1
150 558 1
150 592 1
150 609 1
151 151 1
151 185 1
151 202 1
151 253 1
151 287 1
151 304 1
151 559 1
151 593 1
151 610 1
152 152 1
152 186 1
152 203 1
152 254 1
152 288 1
152 305 1
152 560 1
152 594 1
152 611 1
153 153 1
153 187 1
153 204 1
153 255 1
153 289 1
153 306 1
153 561 1
153 595 1
153 612 1
154 1 1
154 59 1
154 75 1
154 118 1
154 159 1
154 175 1
154 322 1
154 363 1
154 379 1
155 2 1
155 60 1
155 76 1
155 119 1
155 160 1
155 176 1
155 323 1
155 364 1
155 380 1
156 3 1
156 61 1
156 77 1
156 103 1
156 161 1
156 177 1
156 307 1
156 365 1
156 381 1
157 4 1
157 62 1
157 78 1
157 104 1
157 162 1
157 178 1
157 308 1
157 366 1
157 382 1
158 5 1
158 63 1
158 79 1
158 105 1
158 163 1
158 179 1
158 309 1
158 367 1
158 383 1
159 6 1
159 64 1
159 80 1
159 106 1
159 164 1
159 180 1
159 310 1
159 368 1
159 384 1
160 7 1
160 65 1
160 81 1
160 107 1
160 165 1
160 181 1
160 311 1
160 369 1
160 385 1
161 8 1
161 66 1
161 82 1
161 108 1
161 166 1
161 182 1
161 312 1
161 370 1
161 386 1
162 9 1
162 67 1
162 83 1
162 109 1
162 167 1
162 183 1
162 313 1
162 371 1
162 387 1
163 10 1
163 68 1
163 84 1
163 110 1
163 168 1
163 184 1
163 314 1
163 372 1
163 388 1
164 11 1
164 52 1
164 85 1
164 111 1
164 169 1
164 185 1
164 315 1
164 373 1
164 389 1
165 12 1
165 53 1
165 69 1
165 112 1
165 170 1
165 186 1
165 316 1
165 374 1
165 390 1
166 13 1
166 54 1
166 70 1
166 113 1
166 154 1
166 187 1
166 317 1
166 358 1
166 391 1
167 14 1
167 55 1
167 71 1
167 114 1
167 155 1
167 171 1
167 318 1
167 359 1
167 375 1
168 15 1
168 56 1
168 72 1
168 115 1
168 156 1
168 172 1
168 319 1
168 360 1
168 376 1
169 16 1
169 57 1
169 73 1
169 116 1
169 157 1
169 173 1
169 320 1
169 361 1
169 377 1
170 17 1
170 58 1
170 74 1
170 117 1
170 158 1
170 174 1
170 321 1
170 362 1
170 378 1
171 18 1
171 59 1
171 89 1
171 135 1
171 159 1
171 189 1
171 339 1
171 363 1
171 393 1
172 19 1
172 60 1
172 90 1
172 136 1
172 160 1
172 190 1
172 340 1
172 364 1
172 394 1
173 20 1
173 61 1
173 91 1
173 120 1
173 161 1
173 191 1
173 324 1
173 365 1
173 395 1
174 21 1
174 62 1
174 92 1
174 121 1
174 162 1
174 192 1
174 325 1
174 366 1
174 396 1
175 22 1
175 63 1
175 93 1
175 122 1
175 163 1
175 193 1
175 326 1
175 367 1
175 397 1
176 23 1
176 64 1
176 94 1
176 123 1
176 164 1
176 194 1
176 327 1
176 368 1
176 398 1
177 24 1
177 65 1
177 95 1
177 124 1
177 165 1
177 195 1
177 328 1
177 369 1
177 399 1
178 25 1
178 66 1
178 96 1
178 125 1
178 166 1
178 196 1
178 329 1
178 370 1
178 400 1
179 26 1
179 67 1
179 97 1
179 126 1
179 167 1
179 197 1
179 330 1
179 371 1
179 401 1
180 27 1
180 68 1
180 98 1
180 127 1
180 168 1
180 198 1
180 331 1
180 372 1
180 402 1
181 28 1
181 52 1
181 99 1
181 128 1
181 169 1
181 199 1
181 332 1
181 373 1
181 403 1
182 29 1
182 53 1
182 100 1
182 129 1
182 170 1
182 200 1
182 333 1
182 374 1
182 404 1
183 30 1
183 54 1
183 101 1
183 130 1
183 154 1
183 201 1
183 334 1
183 358 1
183 405 1
184 31 1
184 55 1
184 102 1
184 131 1
184 155 1
184 202 1
184 335 1
184 359 1
184 406 1
185 32 1
185 56 1
185 86 1
185 132 1
185 156 1
185 203 1
185 336 1
185 360 1
185 407 1
186 33 1
186 57 1
186 87 1
186 133 1
186 157 1
186 204 1
186 337 1
186 361 1
186 408 1
187 34 1
187 58 1
187 88 1
187 134 1
187 158 1
187 188 1
187 338 1
187 362 1
187 392 1
188 51 1
188 75 1
188 89 1
188 151 1
188 175 1
188 189 1
188 355 1
188 379 1
188 393 1
189 35 1
189 76 1
189 90 1
189 152 1
189 176 1
189 190 1
189 356 1
189 380 1
189 394 1
190 36 1
190 77 1
190 91 1
190 153 1
190 177 1
190 191 1
190 357 1
190 381 1
190 395 1
191 37 1
191 78 1
191 92 1
191 137 1
191 178 1
191 192 1
191 341 1
191 382 1
191 396 1
192 38 1
192 79 1
192 93 1
192 138 1
192 179 1
192 193 1
192 342 1
192 383 1
192 397 1
193 39 1
193 80 1
193 94 1
193 139 1
193 180 1
193 194 1
193 343 1
193 384 1
193 398 1
194 40 1
194 81 1
194 95 1
194 140 1
194 181 1
194 195 1
194 344 1
194 385 1
194 399 1
195 41 1
195 82 1
195 96 1
195 141 1
195 182 1
195 196 1
195 345 1
195 386 1
195 400 1
196 42 1
196 83 1
196 97 1
196 142 1
196 183 1
196 197 1
196 346 1
196 387 1
196 401 1
197 43 1
197 84 1
197 98 1
197 143 1
197 184 1
197 198 1
197 347 1
197 388 1
197 402 1
198 44 1
198 85 1
198 99 1
198 144 1
198 185 1
198 199 1
198 348 1
198 389 1
198 403 1
199 45 1
199 69 1
199 100 1
199 145 1
199 186 1
199 200 1
199 349 1
199 390 1
199 404 1
200 46 1
200 70 1
200 101 1
200 146 1
200 187 1
200 201 1
200 350 1
200 391 1
200 405 1
201 47 1
201 71 1
201 102 1
201 147 1
201 171 1
201 202 1
201 351 1
201 375 1
201 406 1
202 48 1
202 72 1
202 86 1
202 148 1
202 172 1
202 203 1
202 352 1
202 376 1
202 407 1
203 49 1
203 73 1
203 87 1
203 149 1
203 173 1
203 204 1
203 353 1
203 377 1
203 408 1
204 50 1
204 74 1
204 88 1
204 150 1
204 174 1
204 188 1
204 354 1
204 378 1
204 392 1
205 1 1
205 59 1
205 75 1
205 220 1
205 261 1
205 277 1
205 424 1
205 465 1
205 481 1
206 2 1
206 60 1
206 76 1
206 221 1
206 262 1
206 278 1
206 425 1
206 466 1
206 482 1
207 3 1
207 61 1
207 77 1
207 205 1
207 263 1
207 279 1
207 409 1
207 467 1
207 483 1
208 4 1
208 62 1
208 78 1
208 206 1
208 264 1
208 280 1
208 410 1
208 468 1
208 484 1
209 5 1
209 63 1
209 79 1
209 207 1
209 265 1
209 281 1
209 411 1
209 469 1
209 485 1
210 6 1
210 64 1
210 80 1
210 208 1
210 266 1
210 282 1
210 412 1
210 470 1
210 486 1
211 7 1
211 65 1
211 81 1
211 209 1
211 267 1
211 283 1
211 413 1
211 471 1
211 487 1
212 8 1
212 66 1
212 82 1
212 210 1
212 268 1
212 284 1
212 414 1
212 472 1
212 488 1
213 9 1
213 67 1
213 83 1
213 211 1
213 269 1
213 285 1
213 415 1
213 473 1
213 489 1
214 10 1
214 68 1
214 84 1
214 212 1
214 270 1
214 286 1
214 416 1
214 474 1
214 490 1
215 11 1
215 52 1
215 85 1
215 213 1
215 271 1
215 287 1
215 417 1
215 475 1
215 491 1
216 12 1
216 53 1
216 69 1
216 214 1
216 272 1
216 288 1
216 418 1
216 476 1
216 492 1
217 13 1
217 54 1
217 70 1
217 215 1
217 256 1
217 289 1
217 419 1
217 460 1
217 493 1
218 14 1
218 55 1
218 71 1
218 216 1
218 257 1
218 273 1
218 420 1
218 461 1
218 477 1
219 15 1
219 56 1
219 72 1
219 217 1
219 258 1
219 274 1
219 421 1
219 462 1
219 478 1
220 16 1
220 57 1
220 73 1
220 218 1
220 259 1
220 275 1
220 422 1
220 463 1
220 479 1
221 17 1
221 58 1
221 74 1
221 219 1
221 260 1
221 276 1
221 423 1
221 464 1
221 480 1
222 18 1
222 59 1
222 89 1
222 237 1
222 261 1
222 291 1
222 441 1
222 465 1
222 495 1
223 19 1
223 60 1
223 90 1
223 238 1
223 262 1
223 292 1
223 442 1
223 466 1
223 496 1
224 20 1
224 61 1
224 91 1
224 222 1
224 263 1
224 293 1
224 426 1
224 467 1
224 497 1
225 21 1
225 62 1
225 92 1
225 223 1
225 264 1
225 294 1
225 427 1
225 468 1
225 498 1
226 22 1
226 63 1
226 93 1
226 224 1
226 265 1
226 295 1
226 428 1
226 469 1
226 499 1
227 23 1
227 64 1
227 94 1
227 225 1
227 266 1
227 296 1
227 429 1
227 470 1
227 500 1
228 24 1
228 65 1
228 95 1
228 226 1
228 267 1
228 297 1
228 430 1
228 471 1
228 501 1
229 25 1
229 66 1
229 96 1
229 227 1
229 268 1
229 298 1
229 431 1
229 472 1
229 502 1
230 26 1
230 67 1
230 97 1
230 228 1
230 269 1
230 299 1
230 432 1
230 473 1
230 503 1
231 27 1
231 68 1
231 98 1
231 229 1
231 270 1
231 300 1
231 433 1
231 474 1
231 504 1
232 28 1
232 52 1
232 99 1
232 230 1
232 271 1
232 301 1
232 434 1
232 475 1
232 505 1
233 29 1
233 53 1
233 100 1
233 231 1
233 272 1
233 302 1
233 435 1
233 476 1
233 506 1
234 30 1
234 54 1
234 101 1
234 232 1
234 256 1
234 303 1
234 436 1
234 460 1
234 507 1
235 31 1
235 55 1
235 102 1
235 233 1
235 257 1
235 304 1
235 437 1
235 461 1
235 508 1
236 32 1
236 56 1
236 86 1
236 234 1
236 258 1
236 305 1
236 438 1
236 462 1
236 509 1
237 33 1
237 57 1
237 87 1
237 235 1
237 259 1
237 306 1
237 439 1
237 463 1
237 510 1
238 34 1
238 58 1
238 88 1
238 236 1
238 260 1
238 290 1
238 440 1
238 464 1
238 494 1
239 51 1
239 75 1
239 89 1
239 253 1
239 277 1
239 291 1
239 457 1
239 481 1
239 495 1
240 35 1
240 76 1
240 90 1
240 254 1
240 278 1
240 292 1
240 458 1
240 482 1
240 496 1
241 36 1
241 77 1
241 91 1
241 255 1
241 279 1
241 293 1
241 459 1
241 483 1
241 497 1
242 37 1
242 78 1
242 92 1
242 239 1
242 280 1
242 294 1
242 443 1
242 484 1
242 498 1
243 38 1
243 79 1
243 93 1
243 240 1
243 281 1
243 295 1
243 444 1
243 485 1
243 499 1
244 39 1
244 80 1
244 94 1
244 241 1
244 282 1
244 296 1
244 445 1
244 486 1
244 500 1
245 40 1
245 81 1
245 95 1
245 242 1
245 283 1
245 297 1
245 446 1
245 487 1
245 501 1
246 41 1
246 82 1
246 96 1
246 243 1
246 284 1
246 298 1
246 447 1
246 488 1
246 502 1
247 42 1
247 83 1
247 97 1
247 244 1
247 285 1
247 299 1
247 448 1
247 489 1
247 503 1
248 43 1
248 84 1
248 98 1
248 245 1
248 286 1
248 300 1
248 449 1
248 490 1
248 504 1
249 44 1
249 85 1
249 99 1
249 246 1
249 287 1
249 301 1
249 450 1
249 491 1
249 505 1
250 45 1
250 69 1
250 100 1
250 247 1
250 288 1
250 302 1
250 451 1
250 492 1
250 506 1
251 46 1
251 70 1
251 101 1
251 248 1
251 289 1
251 303 1
251 452 1
251 493 1
251 507 1
252 47 1
252 71 1
252 102 1
252 249 1
252 273 1
252 304 1
252 453 1
252 477 1
252 508 1
253 48 1
253 72 1
253 86 1
253 250 1
253 274 1
253 305 1
253 454 1
253 478 1
253 509 1
254 49 1
254 73 1
254 87 1
254 251 1
254 275 1
254 306 1
254 455 1
254 479 1
254 510 1
255 50 1
255 74 1
255 88 1
255 252 1
255 276 1
255 290 1
255 456 1
255 480 1
255 494 1
256 118 1
256 159 1
256 175 1
256 220 1
256 261 1
256 277 1
256 526 1
256 567 1
256 583 1
257 119 1
257 160 1
257 176 1
257 221 1
257 262 1
257 278 1
257 527 1
257 568 1
257 584 1
258 103 1
258 161 1
258 177 1
258 205 1
258 263 1
258 279 1
258 511 1
258 569 1
258 585 1
259 104 1
259 162 1
259 178 1
259 206 1
259 264 1
259 280 1
259 512 1
259 570 1
259 586 1
260 105 1
260 163 1
260 179 1
260 207 1
260 265 1
260 281 1
260 513 1
260 571 1
260 587 1
261 106 1
261 164 1
261 180 1
261 208 1
261 266 1
261 282 1
261 514 1
261 572 1
261 588 1
262 107 1
262 165 1
262 181 1
262 209 1
262 267 1
262 283 1
262 515 1
262 573 1
262 589 1
263 108 1
263 166 1
263 182 1
263 210 1
263 268 1
263 284 1
263 516 1
263 574 1
263 590 1
264 109 1
264 167 1
264 183 1
264 211 1
264 269 1
264 285 1
264 517 1
264 575 1
264 591 1
265 110 1
265 168 1
265 184 1
265 212 1
265 270 1
265 286 1
265 518 1
265 576 1
265 592 1
266 111 1
266 169 1
266 185 1
266 213 1
266 271 1
266 287 1
266 519 1
266 577 1
266 593 1
267 112 1
267 170 1
267 186 1
267 214 1
267 272 1
267 288 1
267 520 1
267 578 1
267 594 1
268 113 1
268 154 1
268 187 1
268 215 1
268 256 1
268 289 1
268 521 1
268 562 1
268 595 1
269 114 1
269 155 1
269 171 1
269 216 1
269 257 1
269 273 1
269 522 1
269 563 1
269 579 1
270 115 1
270 156 1
270 172 1
270 217 1
270 258 1
270 274 1
270 523 1
270 564 1
270 580 1
271 116 1
271 157 1
271 173 1
271 218 1
271 259 1
271 275 1
271 524 1
271 565 1
271 581 1
272 117 1
272 158 1
272 174 1
272 219 1
272 260 1
272 276 1
272 525 1
272 566 1
272 582 1
273 135 1
273 159 1
273 189 1
273 237 1
273 261 1
273 291 1
273 543 1
273 567 1
273 597 1
274 136 1
274 160 1
274 190 1
274 238 1
274 262 1
274 292 1
274 544 1
274 568 1
274 598 1
275 120 1
275 161 1
275 191 1
275 222 1
275 263 1
275 293 1
275 528 1
275 569 1
275 599 1
276 121 1
276 162 1
276 192 1
276 223 1
276 264 1
276 294 1
276 529 1
276 570 1
276 600 1
277 122 1
277 163 1
277 193 1
277 224 1
277 265 1
277 295 1
277 530 1
277 571 1
277 601 1
278 123 1
278 164 1
278 194 1
278 225 1
278 266 1
278 296 1
278 531 1
278 572 1
278 602 1
279 124 1
279 165 1
279 195 1
279 226 1
279 267 1
279 297 1
279 532 1
279 573 1
279 603 1
280 125 1
280 166 1
280 196 1
280 227 1
280 268 1
280 298 1
280 533 1
280 574 1
280 604 1
281 126 1
281 167 1
281 197 1
281 228 1
281 269 1
281 299 1
281 534 1
281 575 1
281 605 1
282 127 1
282 168 1
282 198 1
282 229 1
282 270 1
282 300 1
282 535 1
282 576 1
282 606 1
283 128 1
283 169 1
283 199 1
283 230 1
283 271 1
283 301 1
283 536 1
283 577 1
283 607 1
284 129 1
284 170 1
284 200 1
284 231 1
284 272 1
284 302 1
284 537 1
284 578 1
284 608 1
285 130 1
285 154 1
285 201 1
285 232 1
285 256 1
285 303 1
285 538 1
285 562 1
285 609 1
286 131 1
286 155 1
286 202 1
286 233 1
286 257 1
286 304 1
286 539 1
286 563 1
286 610 1
287 132 1
287 156 1
287 203 1
287 234 1
287 258 1
287 305 1
287 540 1
287 564 1
287 611 1
288 133 1
288 157 1
288 204 1
288 235 1
288 259 1
288 306 1
288 541 1
288 565 1
288 612 1
289 134 1
289 158 1
289 188 1
289 236 1
289 260 1
289 290 1
289 542 1
289 566 1
289 596 1
290 151 1
290 175 1
290 189 1
290 253 1
290 277 1
290 291 1
290 559 1
290 583 1
290 597 1
291 152 1
291 176 1
291 190 1
291 254 1
291 278 1
291 292 1
291 560 1
291 584 1
291 598 1
292 153 1
292 177 1
292 191 1
292 255 1
292 279 1
292 293 1
292 561 1
292 585 1
292 599 1
293 137 1
293 178 1
293 192 1
293 239 1
293 280 1
293 294 1
293 545 1
293 586 1
293 600 1
294 138 1
294 179 1
294 193 1
294 240 1
294 281 1
294 295 1
294 546 1
294 587 1
294 601 1
295 139 1
295 180 1
295 194 1
295 241 1
295 282 1
295 296 1
295 547 1
295 588 1
295 602 1
296 140 1
296 181 1
296 195 1
296 242 1
296 283 1
296 297 1
296 548 1
296 589 1
296 603 1
297 141 1
297 182 1
297 196 1
297 243 1
297 284 1
297 298 1
297 549 1
297 590 1
297 604 1
298 142 1
298 183 1
298 197 1
298 244 1
298 285 1
298 299 1
298 550 1
298 591 1
298 605 1
299 143 1
299 184 1
299 198 1
299 245 1
299 286 1
299 300 1
299 551 1
299 592 1
299 606 1
300 144 1
300 185 1
300 199 1
300 246 1
300 287 1
300 301 1
300 552 1
300 593 1
300 607 1
301 145 1
301 186 1
301 200 1
301 247 1
301 288 1
301 302 1
301 553 1
301 594 1
301 608 1
302 146 1
302 187 1
302 201 1
302 248 1
302 289 1
302 303 1
302 554 1
302 595 1
302 609 1
303 147 1
303 171 1
303 202 1
303 249 1
303 273 1
303 304 1
303 555 1
303 579 1
303 610 1
304 148 1
304 172 1
304 203 1
304 250 1
304 274 1
304 305 1
304 556 1
304 580 1
304 611 1
305 149 1
305 173 1
305 204 1
305 251 1
305 275 1
305 306 1
305 557 1
305 581 1
305 612 1
306 150 1
306 174 1
306 188 1
306 252 1
306 276 1
306 290 1
306 558 1
306 582 1
306 596 1
