%%MatrixMarket matrix coordinate integer general
96 192 1536
1 1 1
1 15 1
1 17 1
1 20 1
1 97 1
1 111 1
1 113 1
1 116 1
1 121 1
1 135 1
1 137 1
1 140 1
1 145 1
1 159 1
1 161 1
1 164 1
2 2 1
2 13 1
2 18 1
2 21 1
2 98 1
2 109 1
2 114 1
2 117 1
2 122 1
2 133 1
2 138 1
2 141 1
2 146 1
2 157 1
2 162 1
2 165 1
3 3 1
3 14 1
3 16 1
3 19 1
3 99 1
3 110 1
3 112 1
3 115 1
3 123 1
3 134 1
3 136 1
3 139 1
3 147 1
3 158 1
3 160 1
3 163 1
4 4 1
4 15 1
4 17 1
4 23 1
4 100 1
4 111 1
4 113 1
4 119 1
4 124 1
4 135 1
4 137 1
4 143 1
4 148 1
4 159 1
4 161 1
4 167 1
5 5 1
5 13 1
5 18 1
5 24 1
5 101 1
5 109 1
5 114 1
5 120 1
5 125 1
5 133 1
5 138 1
5 144 1
5 149 1
5 157 1
5 162 1
5 168 1
6 6 1
6 14 1
6 16 1
6 22 1
6 102 1
6 110 1
6 112 1
6 118 1
6 126 1
6 134 1
6 136 1
6 142 1
6 150 1
6 158 1
6 160 1
6 166 1
7 7 1
7 15 1
7 20 1
7 23 1
7 103 1
7 111 1
7 116 1
7 119 1
7 127 1
7 135 1
7 140 1
7 143 1
7 151 1
7 159 1
7 164 1
7 167 1
8 8 1
8 13 1
8 21 1
8 24 1
8 104 1
8 109 1
8 117 1
8 120 1
8 128 1
8 133 1
8 141 1
8 144 1
8 152 1
8 157 1
8 165 1
8 168 1
9 9 1
9 14 1
9 19 1
9 22 1
9 105 1
9 110 1
9 115 1
9 118 1
9 129 1
9 134 1
9 139 1
9 142 1
9 153 1
9 158 1
9 163 1
9 166 1
10 12 1
10 17 1
10 20 1
10 23 1
10 108 1
10 113 1
10 116 1
10 119 1
10 132 1
10 137 1
10 140 1
10 143 1
10 156 1
10 161 1
10 164 1
10 167 1
11 10 1
11 18 1
11 21 1
11 24 1
11 106 1
11 114 1
11 117 1
11 120 1
11 130 1
11 138 1
11 141 1
11 144 1
11 154 1
11 162 1
11 165 1
11 168 1
12 11 1
12 16 1
12 19 1
12 22 1
12 107 1
12 112 1
12 115 1
12 118 1
12 131 1
12 136 1
12 139 1
12 142 1
12 155 1
12 160 1
12 163 1
12 166 1
13 25 1
13 39 1
13 41 1
13 44 1
13 97 1
13 111 1
13 113 1
13 116 1
13 121 1
13 135 1
13 137 1
13 140 1
13 169 1
13 183 1
13 185 1
13 188 1
14 26 1
14 37 1
14 42 1
14 45 1
14 98 1
14 109 1
14 114 1
14 117 1
14 122 1
14 133 1
14 138 1
14 141 1
14 170 1
14 181 1
14 186 1
14 189 1
15 27 1
15 38 1
15 40 1
15 43 1
15 99 1
15 110 1
15 112 1
15 115 1
15 123 1
15 134 1
15 136 1
15 139 1
15 171 1
15 182 1
15 184 1
15 187 1
16 28 1
16 39 1
16 41 1
16 47 1
16 100 1
16 111 1
16 113 1
16 119 1
16 124 1
16 135 1
16 137 1
16 143 1
16 172 1
16 183 1
16 185 1
16 191 1
17 29 1
17 37 1
17 42 1
17 48 1
17 101 1
17 109 1
17 114 1
17 120 1
17 125 1
17 133 1
17 138 1
17 144 1
17 173 1
17 181 1
17 186 1
17 192 1
18 30 1
18 38 1
18 40 1
18 46 1
18 102 1
18 110 1
18 112 1
18 118 1
18 126 1
18 134 1
18 136 1
18 142 1
18 174 1
18 182 1
18 184 1
18 190 1
19 31 1
19 39 1
19 44 1
19 47 1
19 103 1
19 111 1
19 116 1
19 119 1
19 127 1
19 135 1
19 140 1
19 143 1
19 175 1
19 183 1
19 188 1
19 191 1
20 32 1
20 37 1
20 45 1
20 48 1
20 104 1
20 109 1
20 117 1
20 120 1
20 128 1
20 133 1
20 141 1
20 144 1
20 176 1
20 181 1
20 189 1
20 192 1
21 33 1
21 38 1
21 43 1
21 46 1
21 105 1
21 110 1
21 115 1
21 118 1
21 129 1
21 134 1
21 139 1
21 142 1
21 177 1
21 182 1
21 187 1
21 190 1
22 36 1
22 41 1
22 44 1
22 47 1
22 108 1
22 113 1
22 116 1
22 119 1
22 132 1
22 137 1
22 140 1
22 143 1
22 180 1
22 185 1
22 188 1
22 191 1
23 34 1
23 42 1
23 45 1
23 48 1
23 106 1
23 114 1
23 117 1
23 120 1
23 130 1
23 138 1
23 141 1
23 144 1
23 178 1
23 186 1
23 189 1
23 192 1
24 35 1
24 40 1
24 43 1
24 46 1
24 107 1
24 112 1
24 115 1
24 118 1
24 131 1
24 136 1
24 139 1
24 142 1
24 179 1
24 184 1
24 187 1
24 190 1
25 49 1
25 63 1
25 65 1
25 68 1
25 97 1
25 111 1
25 113 1
25 116 1
25 145 1
25 159 1
25 161 1
25 164 1
25 169 1
25 183 1
25 185 1
25 188 1
26 50 1
26 61 1
26 66 1
26 69 1
26 98 1
26 109 1
26 114 1
26 117 1
26 146 1
26 157 1
26 162 1
26 165 1
26 170 1
26 181 1
26 186 1
26 189 1
27 51 1
27 62 1
27 64 1
27 67 1
27 99 1
27 110 1
27 112 1
27 115 1
27 147 1
27 158 1
27 160 1
27 163 1
27 171 1
27 182 1
27 184 1
27 187 1
28 52 1
28 63 1
28 65 1
28 71 1
28 100 1
28 111 1
28 113 1
28 119 1
28 148 1
28 159 1
28 161 1
28 167 1
28 172 1
28 183 1
28 185 1
28 191 1
29 53 1
29 61 1
29 66 1
29 72 1
29 101 1
29 109 1
29 114 1
29 120 1
29 149 1
29 157 1
29 162 1
29 168 1
29 173 1
29 181 1
29 186 1
29 192 1
30 54 1
30 62 1
30 64 1
30 70 1
30 102 1
30 110 1
30 112 1
30 118 1
30 150 1
30 158 1
30 160 1
30 166 1
30 174 1
30 182 1
30 184 1
30 190 1
31 55 1
31 63 1
31 68 1
31 71 1
31 103 1
31 111 1
31 116 1
31 119 1
31 151 1
31 159 1
31 164 1
31 167 1
31 175 1
31 183 1
31 188 1
31 191 1
32 56 1
32 61 1
32 69 1
32 72 1
32 104 1
32 109 1
32 117 1
32 120 1
32 152 1
32 157 1
32 165 1
32 168 1
32 176 1
32 181 1
32 189 1
32 192 1
33 57 1
33 62 1
33 67 1
33 70 1
33 105 1
33 110 1
33 115 1
33 118 1
33 153 1
33 158 1
33 163 1
33 166 1
33 177 1
33 182 1
33 187 1
33 190 1
34 60 1
34 65 1
34 68 1
34 71 1
34 108 1
34 113 1
34 116 1
34 119 1
34 156 1
34 161 1
34 164 1
34 167 1
34 180 1
34 185 1
34 188 1
34 191 1
35 58 1
35 66 1
35 69 1
35 72 1
35 106 1
35 114 1
35 117 1
35 120 1
35 154 1
35 162 1
35 165 1
35 168 1
35 178 1
35 186 1
35 189 1
35 192 1
36 59 1
36 64 1
36 67 1
36 70 1
36 107 1
36 112 1
36 115 1
36 118 1
36 155 1
36 160 1
36 163 1
36 166 1
36 179 1
36 184 1
36 187 1
36 190 1
37 73 1
37 87 1
37 89 1
37 92 1
37 121 1
37 135 1
37 137 1
37 140 1
37 145 1
37 159 1
37 161 1
37 164 1
37 169 1
37 183 1
37 185 1
37 188 1
38 74 1
38 85 1
38 90 1
38 93 1
38 122 1
38 133 1
38 138 1
38 141 1
38 146 1
38 157 1
38 162 1
38 165 1
38 170 1
38 181 1
38 186 1
38 189 1
39 75 1
39 86 1
39 88 1
39 91 1
39 123 1
39 134 1
39 136 1
39 139 1
39 147 1
39 158 1
39 160 1
39 163 1
39 171 1
39 182 1
39 184 1
39 187 1
40 76 1
40 87 1
40 89 1
40 95 1
40 124 1
40 135 1
40 137 1
40 143 1
40 148 1
40 159 1
40 161 1
40 167 1
40 172 1
40 183 1
40 185 1
40 191 1
41 77 1
41 85 1
41 90 1
41 96 1
41 125 1
41 133 1
41 138 1
41 144 1
41 149 1
41 157 1
41 162 1
41 168 1
41 173 1
41 181 1
41 186 1
41 192 1
42 78 1
42 86 1
42 88 1
42 94 1
42 126 1
42 134 1
42 136 1
42 142 1
42 150 1
42 158 1
42 160 1
42 166 1
42 174 1
42 182 1
42 184 1
42 190 1
43 79 1
43 87 1
43 92 1
43 95 1
43 127 1
43 135 1
43 140 1
43 143 1
43 151 1
43 159 1
43 164 1
43 167 1
43 175 1
43 183 1
43 188 1
43 191 1
44 80 1
44 85 1
44 93 1
44 96 1
44 128 1
44 133 1
44 141 1
44 144 1
44 152 1
44 157 1
44 165 1
44 168 1
44 176 1
44 181 1
44 189 1
44 192 1
45 81 1
45 86 1
45 91 1
45 94 1
45 129 1
45 134 1
45 139 1
45 142 1
45 153 1
45 158 1
45 163 1
45 166 1
45 177 1
45 182 1
45 187 1
45 190 1
46 84 1
46 89 1
46 92 1
46 95 1
46 132 1
46 137 1
46 140 1
46 143 1
46 156 1
46 161 1
46 164 1
46 167 1
46 180 1
46 185 1
46 188 1
46 191 1
47 82 1
47 90 1
47 93 1
47 96 1
47 130 1
47 138 1
47 141 1
47 144 1
47 154 1
47 162 1
47 165 1
47 168 1
47 178 1
47 186 1
47 189 1
47 192 1
48 83 1
48 88 1
48 91 1
48 94 1
48 131 1
48 136 1
48 139 1
48 142 1
48 155 1
48 160 1
48 163 1
48 166 1
48 179 1
48 184 1
48 187 1
48 190 1
49 1 1
49 13 1
49 16 1
49 19 1
49 98 1
49 110 1
49 113 1
49 116 1
49 122 1
49 134 1
49 137 1
49 140 1
49 170 1
49 182 1
49 185 1
49 188 1
50 2 1
50 14 1
50 17 1
50 20 1
50 99 1
50 111 1
50 114 1
50 117 1
50 123 1
50 135 1
50 138 1
50 141 1
50 171 1
50 183 1
50 186 1
50 189 1
51 3 1
51 15 1
51 18 1
51 21 1
51 97 1
51 109 1
51 112 1
51 115 1
51 121 1
51 133 1
51 136 1
51 139 1
51 169 1
51 181 1
51 184 1
51 187 1
52 4 1
52 13 1
52 16 1
52 22 1
52 101 1
52 110 1
52 113 1
52 119 1
52 125 1
52 134 1
52 137 1
52 143 1
52 173 1
52 182 1
52 185 1
52 191 1
53 5 1
53 14 1
53 17 1
53 23 1
53 102 1
53 111 1
53 114 1
53 120 1
53 126 1
53 135 1
53 138 1
53 144 1
53 174 1
53 183 1
53 186 1
53 192 1
54 6 1
54 15 1
54 18 1
54 24 1
54 100 1
54 109 1
54 112 1
54 118 1
54 124 1
54 133 1
54 136 1
54 142 1
54 172 1
54 181 1
54 184 1
54 190 1
55 7 1
55 13 1
55 19 1
55 22 1
55 104 1
55 110 1
55 116 1
55 119 1
55 128 1
55 134 1
55 140 1
55 143 1
55 176 1
55 182 1
55 188 1
55 191 1
56 8 1
56 14 1
56 20 1
56 23 1
56 105 1
56 111 1
56 117 1
56 120 1
56 129 1
56 135 1
56 141 1
56 144 1
56 177 1
56 183 1
56 189 1
56 192 1
57 9 1
57 15 1
57 21 1
57 24 1
57 103 1
57 109 1
57 115 1
57 118 1
57 127 1
57 133 1
57 139 1
57 142 1
57 175 1
57 181 1
57 187 1
57 190 1
58 10 1
58 16 1
58 19 1
58 22 1
58 107 1
58 113 1
58 116 1
58 119 1
58 131 1
58 137 1
58 140 1
58 143 1
58 179 1
58 185 1
58 188 1
58 191 1
59 11 1
59 17 1
59 20 1
59 23 1
59 108 1
59 114 1
59 117 1
59 120 1
59 132 1
59 138 1
59 141 1
59 144 1
59 180 1
59 186 1
59 189 1
59 192 1
60 12 1
60 18 1
60 21 1
60 24 1
60 106 1
60 112 1
60 115 1
60 118 1
60 130 1
60 136 1
60 139 1
60 142 1
60 178 1
60 184 1
60 187 1
60 190 1
61 25 1
61 37 1
61 40 1
61 43 1
61 98 1
61 110 1
61 113 1
61 116 1
61 146 1
61 158 1
61 161 1
61 164 1
61 170 1
61 182 1
61 185 1
61 188 1
62 26 1
62 38 1
62 41 1
62 44 1
62 99 1
62 111 1
62 114 1
62 117 1
62 147 1
62 159 1
62 162 1
62 165 1
62 171 1
62 183 1
62 186 1
62 189 1
63 27 1
63 39 1
63 42 1
63 45 1
63 97 1
63 109 1
63 112 1
63 115 1
63 145 1
63 157 1
63 160 1
63 163 1
63 169 1
63 181 1
63 184 1
63 187 1
64 28 1
64 37 1
64 40 1
64 46 1
64 101 1
64 110 1
64 113 1
64 119 1
64 149 1
64 158 1
64 161 1
64 167 1
64 173 1
64 182 1
64 185 1
64 191 1
65 29 1
65 38 1
65 41 1
65 47 1
65 102 1
65 111 1
65 114 1
65 120 1
65 150 1
65 159 1
65 162 1
65 168 1
65 174 1
65 183 1
65 186 1
65 192 1
66 30 1
66 39 1
66 42 1
66 48 1
66 100 1
66 109 1
66 112 1
66 118 1
66 148 1
66 157 1
66 160 1
66 166 1
66 172 1
66 181 1
66 184 1
66 190 1
67 31 1
67 37 1
67 43 1
67 46 1
67 104 1
67 110 1
67 116 1
67 119 1
67 152 1
67 158 1
67 164 1
67 167 1
67 176 1
67 182 1
67 188 1
67 191 1
68 32 1
68 38 1
68 44 1
68 47 1
68 105 1
68 111 1
68 117 1
68 120 1
68 153 1
68 159 1
68 165 1
68 168 1
68 177 1
68 183 1
68 189 1
68 192 1
69 33 1
69 39 1
69 45 1
69 48 1
69 103 1
69 109 1
69 115 1
69 118 1
69 151 1
69 157 1
69 163 1
69 166 1
69 175 1
69 181 1
69 187 1
69 190 1
70 34 1
70 40 1
70 43 1
70 46 1
70 107 1
70 113 1
70 116 1
70 119 1
70 155 1
70 161 1
70 164 1
70 167 1
70 179 1
70 185 1
70 188 1
70 191 1
71 35 1
71 41 1
71 44 1
71 47 1
71 108 1
71 114 1
71 117 1
71 120 1
71 156 1
71 162 1
71 165 1
71 168 1
71 180 1
71 186 1
71 189 1
71 192 1
72 36 1
72 42 1
72 45 1
72 48 1
72 106 1
72 112 1
72 115 1
72 118 1
72 154 1
72 160 1
72 163 1
72 166 1
72 178 1
72 184 1
72 187 1
72 190 1
73 49 1
73 61 1
73 64 1
73 67 1
73 122 1
73 134 1
73 137 1
73 140 1
73 146 1
73 158 1
73 161 1
73 164 1
73 170 1
73 182 1
73 185 1
73 188 1
74 50 1
74 62 1
74 65 1
74 68 1
74 123 1
74 135 1
74 138 1
74 141 1
74 147 1
74 159 1
74 162 1
74 165 1
74 171 1
74 183 1
74 186 1
74 189 1
75 51 1
75 63 1
75 66 1
75 69 1
75 121 1
75 133 1
75 136 1
75 139 1
75 145 1
75 157 1
75 160 1
75 163 1
75 169 1
75 181 1
75 184 1
75 187 1
76 52 1
76 61 1
76 64 1
76 70 1
76 125 1
76 134 1
76 137 1
76 143 1
76 149 1
76 158 1
76 161 1
76 167 1
76 173 1
76 182 1
76 185 1
76 191 1
77 53 1
77 62 1
77 65 1
77 71 1
77 126 1
77 135 1
77 138 1
77 144 1
77 150 1
77 159 1
77 162 1
77 168 1
77 174 1
77 183 1
77 186 1
77 192 1
78 54 1
78 63 1
78 66 1
78 72 1
78 124 1
78 133 1
78 136 1
78 142 1
78 148 1
78 157 1
78 160 1
78 166 1
78 172 1
78 181 1
78 184 1
78 190 1
79 55 1
79 61 1
79 67 1
79 70 1
79 128 1
79 134 1
79 140 1
79 143 1
79 152 1
79 158 1
79 164 1
79 167 1
79 176 1
79 182 1
79 188 1
79 191 1
80 56 1
80 62 1
80 68 1
80 71 1
80 129 1
80 135 1
80 141 1
80 144 1
80 153 1
80 159 1
80 165 1
80 168 1
80 177 1
80 183 1
80 189 1
80 192 1
81 57 1
81 63 1
81 69 1
81 72 1
81 127 1
81 133 1
81 139 1
81 142 1
81 151 1
81 157 1
81 163 1
81 166 1
81 175 1
81 181 1
81 187 1
81 190 1
82 58 1
82 64 1
82 67 1
82 70 1
82 131 1
82 137 1
82 140 1
82 143 1
82 155 1
82 161 1
82 164 1
82 167 1
82 179 1
82 185 1
82 188 1
82 191 1
83 59 1
83 65 1
83 68 1
83 71 1
83 132 1
83 138 1
83 141 1
83 144 1
83 156 1
83 162 1
83 165 1
83 168 1
83 180 1
83 186 1
83 189 1
83 192 1
84 60 1
84 66 1
84 69 1
84 72 1
84 130 1
84 136 1
84 139 1
84 142 1
84 154 1
84 160 1
84 163 1
84 166 1
84 178 1
84 184 1
84 187 1
84 190 1
85 73 1
85 85 1
85 88 1
85 91 1
85 98 1
85 110 1
85 113 1
85 116 1
85 122 1
85 134 1
85 137 1
85 140 1
85 146 1
85 158 1
85 161 1
85 164 1
86 74 1
86 86 1
86 89 1
86 92 1
86 99 1
86 111 1
86 114 1
86 117 1
86 123 1
86 135 1
86 138 1
86 141 1
86 147 1
86 159 1
86 162 1
86 165 1
87 75 1
87 87 1
87 90 1
87 93 1
87 97 1
87 109 1
87 112 1
87 115 1
87 121 1
87 133 1
87 136 1
87 139 1
87 145 1
87 157 1
87 160 1
87 163 1
88 76 1
88 85 1
88 88 1
88 94 1
88 101 1
88 110 1
88 113 1
88 119 1
88 125 1
88 134 1
88 137 1
88 143 1
88 149 1
88 158 1
88 161 1
88 167 1
89 77 1
89 86 1
89 89 1
89 95 1
89 102 1
89 111 1
89 114 1
89 120 1
89 126 1
89 135 1
89 138 1
89 144 1
89 150 1
89 159 1
89 162 1
89 168 1
90 78 1
90 87 1
90 90 1
90 96 1
90 100 1
90 109 1
90 112 1
90 118 1
90 124 1
90 133 1
90 136 1
90 142 1
90 148 1
90 157 1
90 160 1
90 166 1
91 79 1
91 85 1
91 91 1
91 94 1
91 104 1
91 110 1
91 116 1
91 119 1
91 128 1
91 134 1
91 140 1
91 143 1
91 152 1
91 158 1
91 164 1
91 167 1
92 80 1
92 86 1
92 92 1
92 95 1
92 105 1
92 111 1
92 117 1
92 120 1
92 129 1
92 135 1
92 141 1
92 144 1
92 153 1
92 159 1
92 165 1
92 168 1
93 81 1
93 87 1
93 93 1
93 96 1
93 103 1
93 109 1
93 115 1
93 118 1
93 127 1
93 133 1
93 139 1
93 142 1
93 151 1
93 157 1
93 163 1
93 166 1
94 82 1
94 88 1
94 91 1
94 94 1
94 107 1
94 113 1
94 116 1
94 119 1
94 131 1
94 137 1
94 140 1
94 143 1
94 155 1
94 161 1
94 164 1
94 167 1
95 83 1
95 89 1
95 92 1
95 95 1
95 108 1
95 114 1
95 117 1
95 120 1
95 132 1
95 138 1
95 141 1
95 144 1
95 156 1
95 162 1
95 165 1
95 168 1
96 84 1
96 90 1
96 93 1
96 96 1
96 106 1
96 112 1
96 115 1
96 118 1
96 130 1
96 136 1
96 139 1
96 142 1
96 154 1
96 160 1
96 163 1
96 166 1
