%%MatrixMarket matrix coordinate integer general
288 576 2592
1 1 1
1 49 1
1 65 1
1 97 1
1 145 1
1 161 1
1 289 1
1 337 1
1 353 1
2 2 1
2 50 1
2 66 1
2 98 1
2 146 1
2 162 1
2 290 1
2 338 1
2 354 1
3 3 1
3 51 1
3 67 1
3 99 1
3 147 1
3 163 1
3 291 1
3 339 1
3 355 1
4 4 1
4 52 1
4 68 1
4 100 1
4 148 1
4 164 1
4 292 1
4 340 1
4 356 1
5 5 1
5 53 1
5 69 1
5 101 1
5 149 1
5 165 1
5 293 1
5 341 1
5 357 1
6 6 1
6 54 1
6 70 1
6 102 1
6 150 1
6 166 1
6 294 1
6 342 1
6 358 1
7 7 1
7 55 1
7 71 1
7 103 1
7 151 1
7 167 1
7 295 1
7 343 1
7 359 1
8 8 1
8 56 1
8 72 1
8 104 1
8 152 1
8 168 1
8 296 1
8 344 1
8 360 1
9 9 1
9 57 1
9 73 1
9 105 1
9 153 1
9 169 1
9 297 1
9 345 1
9 361 1
10 10 1
10 58 1
10 74 1
10 106 1
10 154 1
10 170 1
10 298 1
10 346 1
10 362 1
11 11 1
11 59 1
11 75 1
11 107 1
11 155 1
11 171 1
11 299 1
11 347 1
11 363 1
12 12 1
12 60 1
12 76 1
12 108 1
12 156 1
12 172 1
12 300 1
12 348 1
12 364 1
13 13 1
13 61 1
13 77 1
13 109 1
13 157 1
13 173 1
13 301 1
13 349 1
13 365 1
14 14 1
14 62 1
14 78 1
14 110 1
14 158 1
14 174 1
14 302 1
14 350 1
14 366 1
15 15 1
15 63 1
15 79 1
15 111 1
15 159 1
15 175 1
15 303 1
15 351 1
15 367 1
16 16 1
16 64 1
16 80 1
16 112 1
16 160 1
16 176 1
16 304 1
16 352 1
16 368 1
17 17 1
17 49 1
17 81 1
17 113 1
17 145 1
17 177 1
17 305 1
17 337 1
17 369 1
18 18 1
18 50 1
18 82 1
18 114 1
18 146 1
18 178 1
18 306 1
18 338 1
18 370 1
19 19 1
19 51 1
19 83 1
19 115 1
19 147 1
19 179 1
19 307 1
19 339 1
19 371 1
20 20 1
20 52 1
20 84 1
20 116 1
20 148 1
20 180 1
20 308 1
20 340 1
20 372 1
21 21 1
21 53 1
21 85 1
21 117 1
21 149 1
21 181 1
21 309 1
21 341 1
21 373 1
22 22 1
22 54 1
22 86 1
22 118 1
22 150 1
22 182 1
22 310 1
22 342 1
22 374 1
23 23 1
23 55 1
23 87 1
23 119 1
23 151 1
23 183 1
23 311 1
23 343 1
23 375 1
24 24 1
24 56 1
24 88 1
24 120 1
24 152 1
24 184 1
24 312 1
24 344 1
24 376 1
25 25 1
25 57 1
25 89 1
25 121 1
25 153 1
25 185 1
25 313 1
25 345 1
25 377 1
26 26 1
26 58 1
26 90 1
26 122 1
26 154 1
26 186 1
26 314 1
26 346 1
26 378 1
27 27 1
27 59 1
27 91 1
27 123 1
27 155 1
27 187 1
27 315 1
27 347 1
27 379 1
28 28 1
28 60 1
28 92 1
28 124 1
28 156 1
28 188 1
28 316 1
28 348 1
28 380 1
29 29 1
29 61 1
29 93 1
29 125 1
29 157 1
29 189 1
29 317 1
29 349 1
29 381 1
30 30 1
30 62 1
30 94 1
30 126 1
30 158 1
30 190 1
30 318 1
30 350 1
30 382 1
31 31 1
31 63 1
31 95 1
31 127 1
31 159 1
31 191 1
31 319 1
31 351 1
31 383 1
32 32 1
32 64 1
32 96 1
32 128 1
32 160 1
32 192 1
32 320 1
32 352 1
32 384 1
33 33 1
33 65 1
33 81 1
33 129 1
33 161 1
33 177 1
33 321 1
33 353 1
33 369 1
34 34 1
34 66 1
34 82 1
34 130 1
34 162 1
34 178 1
34 322 1
34 354 1
34 370 1
35 35 1
35 67 1
35 83 1
35 131 1
35 163 1
35 179 1
35 323 1
35 355 1
35 371 1
36 36 1
36 68 1
36 84 1
36 132 1
36 164 1
36 180 1
36 324 1
36 356 1
36 372 1
37 37 1
37 69 1
37 85 1
37 133 1
37 165 1
37 181 1
37 325 1
37 357 1
37 373 1
38 38 1
38 70 1
38 86 1
38 134 1
38 166 1
38 182 1
38 326 1
38 358 1
38 374 1
39 39 1
39 71 1
39 87 1
39 135 1
39 167 1
39 183 1
39 327 1
39 359 1
39 375 1
40 40 1
40 72 1
40 88 1
40 136 1
40 168 1
40 184 1
40 328 1
40 360 1
40 376 1
41 41 1
41 73 1
41 89 1
41 137 1
41 169 1
41 185 1
41 329 1
41 361 1
41 377 1
42 42 1
42 74 1
42 90 1
42 138 1
42 170 1
42 186 1
42 330 1
42 362 1
42 378 1
43 43 1
43 75 1
43 91 1
43 139 1
43 171 1
43 187 1
43 331 1
43 363 1
43 379 1
44 44 1
44 76 1
44 92 1
44 140 1
44 172 1
44 188 1
44 332 1
44 364 1
44 380 1
45 45 1
45 77 1
45 93 1
45 141 1
45 173 1
45 189 1
45 333 1
45 365 1
45 381 1
46 46 1
46 78 1
46 94 1
46 142 1
46 174 1
46 190 1
46 334 1
46 366 1
46 382 1
47 47 1
47 79 1
47 95 1
47 143 1
47 175 1
47 191 1
47 335 1
47 367 1
47 383 1
48 48 1
48 80 1
48 96 1
48 144 1
48 176 1
48 192 1
48 336 1
48 368 1
48 384 1
49 1 1
49 49 1
49 65 1
49 193 1
49 241 1
49 257 1
49 385 1
49 433 1
49 449 1
50 2 1
50 50 1
50 66 1
50 194 1
50 242 1
50 258 1
50 386 1
50 434 1
50 450 1
51 3 1
51 51 1
51 67 1
51 195 1
51 243 1
51 259 1
51 387 1
51 435 1
51 451 1
52 4 1
52 52 1
52 68 1
52 196 1
52 244 1
52 260 1
52 388 1
52 436 1
52 452 1
53 5 1
53 53 1
53 69 1
53 197 1
53 245 1
53 261 1
53 389 1
53 437 1
53 453 1
54 6 1
54 54 1
54 70 1
54 198 1
54 246 1
54 262 1
54 390 1
54 438 1
54 454 1
55 7 1
55 55 1
55 71 1
55 199 1
55 247 1
55 263 1
55 391 1
55 439 1
55 455 1
56 8 1
56 56 1
56 72 1
56 200 1
56 248 1
56 264 1
56 392 1
56 440 1
56 456 1
57 9 1
57 57 1
57 73 1
57 201 1
57 249 1
57 265 1
57 393 1
57 441 1
57 457 1
58 10 1
58 58 1
58 74 1
58 202 1
58 250 1
58 266 1
58 394 1
58 442 1
58 458 1
59 11 1
59 59 1
59 75 1
59 203 1
59 251 1
59 267 1
59 395 1
59 443 1
59 459 1
60 12 1
60 60 1
60 76 1
60 204 1
60 252 1
60 268 1
60 396 1
60 444 1
60 460 1
61 13 1
61 61 1
61 77 1
61 205 1
61 253 1
61 269 1
61 397 1
61 445 1
61 461 1
62 14 1
62 62 1
62 78 1
62 206 1
62 254 1
62 270 1
62 398 1
62 446 1
62 462 1
63 15 1
63 63 1
63 79 1
63 207 1
63 255 1
63 271 1
63 399 1
63 447 1
63 463 1
64 16 1
64 64 1
64 80 1
64 208 1
64 256 1
64 272 1
64 400 1
64 448 1
64 464 1
65 17 1
65 49 1
65 81 1
65 209 1
65 241 1
65 273 1
65 401 1
65 433 1
65 465 1
66 18 1
66 50 1
66 82 1
66 210 1
66 242 1
66 274 1
66 402 1
66 434 1
66 466 1
67 19 1
67 51 1
67 83 1
67 211 1
67 243 1
67 275 1
67 403 1
67 435 1
67 467 1
68 20 1
68 52 1
68 84 1
68 212 1
68 244 1
68 276 1
68 404 1
68 436 1
68 468 1
69 21 1
69 53 1
69 85 1
69 213 1
69 245 1
69 277 1
69 405 1
69 437 1
69 469 1
70 22 1
70 54 1
70 86 1
70 214 1
70 246 1
70 278 1
70 406 1
70 438 1
70 470 1
71 23 1
71 55 1
71 87 1
71 215 1
71 247 1
71 279 1
71 407 1
71 439 1
71 471 1
72 24 1
72 56 1
72 88 1
72 216 1
72 248 1
72 280 1
72 408 1
72 440 1
72 472 1
73 25 1
73 57 1
73 89 1
73 217 1
73 249 1
73 281 1
73 409 1
73 441 1
73 473 1
74 26 1
74 58 1
74 90 1
74 218 1
74 250 1
74 282 1
74 410 1
74 442 1
74 474 1
75 27 1
75 59 1
75 91 1
75 219 1
75 251 1
75 283 1
75 411 1
75 443 1
75 475 1
76 28 1
76 60 1
76 92 1
76 220 1
76 252 1
76 284 1
76 412 1
76 444 1
76 476 1
77 29 1
77 61 1
77 93 1
77 221 1
77 253 1
77 285 1
77 413 1
77 445 1
77 477 1
78 30 1
78 62 1
78 94 1
78 222 1
78 254 1
78 286 1
78 414 1
78 446 1
78 478 1
79 31 1
79 63 1
79 95 1
79 223 1
79 255 1
79 287 1
79 415 1
79 447 1
79 479 1
80 32 1
80 64 1
80 96 1
80 224 1
80 256 1
80 288 1
80 416 1
80 448 1
80 480 1
81 33 1
81 65 1
81 81 1
81 225 1
81 257 1
81 273 1
81 417 1
81 449 1
81 465 1
82 34 1
82 66 1
82 82 1
82 226 1
82 258 1
82 274 1
82 418 1
82 450 1
82 466 1
83 35 1
83 67 1
83 83 1
83 227 1
83 259 1
83 275 1
83 419 1
83 451 1
83 467 1
84 36 1
84 68 1
84 84 1
84 228 1
84 260 1
84 276 1
84 420 1
84 452 1
84 468 1
85 37 1
85 69 1
85 85 1
85 229 1
85 261 1
85 277 1
85 421 1
85 453 1
85 469 1
86 38 1
86 70 1
86 86 1
86 230 1
86 262 1
86 278 1
86 422 1
86 454 1
86 470 1
87 39 1
87 71 1
87 87 1
87 231 1
87 263 1
87 279 1
87 423 1
87 455 1
87 471 1
88 40 1
88 72 1
88 88 1
88 232 1
88 264 1
88 280 1
88 424 1
88 456 1
88 472 1
89 41 1
89 73 1
89 89 1
89 233 1
89 265 1
89 281 1
89 425 1
89 457 1
89 473 1
90 42 1
90 74 1
90 90 1
90 234 1
90 266 1
90 282 1
90 426 1
90 458 1
90 474 1
91 43 1
91 75 1
91 91 1
91 235 1
91 267 1
91 283 1
91 427 1
91 459 1
91 475 1
92 44 1
92 76 1
92 92 1
92 236 1
92 268 1
92 284 1
92 428 1
92 460 1
92 476 1
93 45 1
93 77 1
93 93 1
93 237 1
93 269 1
93 285 1
93 429 1
93 461 1
93 477 1
94 46 1
94 78 1
94 94 1
94 238 1
94 270 1
94 286 1
94 430 1
94 462 1
94 478 1
95 47 1
95 79 1
95 95 1
95 239 1
95 271 1
95 287 1
95 431 1
95 463 1
95 479 1
96 48 1
96 80 1
96 96 1
96 240 1
96 272 1
96 288 1
96 432 1
96 464 1
96 480 1
97 97 1
97 145 1
97 161 1
97 193 1
97 241 1
97 257 1
97 481 1
97 529 1
97 545 1
98 98 1
98 146 1
98 162 1
98 194 1
98 242 1
98 258 1
98 482 1
98 530 1
98 546 1
99 99 1
99 147 1
99 163 1
99 195 1
99 243 1
99 259 1
99 483 1
99 531 1
99 547 1
100 100 1
100 148 1
100 164 1
100 196 1
100 244 1
100 260 1
100 484 1
100 532 1
100 548 1
101 101 1
101 149 1
101 165 1
101 197 1
101 245 1
101 261 1
101 485 1
101 533 1
101 549 1
102 102 1
102 150 1
102 166 1
102 198 1
102 246 1
102 262 1
102 486 1
102 534 1
102 550 1
103 103 1
103 151 1
103 167 1
103 199 1
103 247 1
103 263 1
103 487 1
103 535 1
103 551 1
104 104 1
104 152 1
104 168 1
104 200 1
104 248 1
104 264 1
104 488 1
104 536 1
104 552 1
105 105 1
105 153 1
105 169 1
105 201 1
105 249 1
105 265 1
105 489 1
105 537 1
105 553 1
106 106 1
106 154 1
106 170 1
106 202 1
106 250 1
106 266 1
106 490 1
106 538 1
106 554 1
107 107 1
107 155 1
107 171 1
107 203 1
107 251 1
107 267 1
107 491 1
107 539 1
107 555 1
108 108 1
108 156 1
108 172 1
108 204 1
108 252 1
108 268 1
108 492 1
108 540 1
108 556 1
109 109 1
109 157 1
109 173 1
109 205 1
109 253 1
109 269 1
109 493 1
109 541 1
109 557 1
110 110 1
110 158 1
110 174 1
110 206 1
110 254 1
110 270 1
110 494 1
110 542 1
110 558 1
111 111 1
111 159 1
111 175 1
111 207 1
111 255 1
111 271 1
111 495 1
111 543 1
111 559 1
112 112 1
112 160 1
112 176 1
112 208 1
112 256 1
112 272 1
112 496 1
112 544 1
112 560 1
113 113 1
113 145 1
113 177 1
113 209 1
113 241 1
113 273 1
113 497 1
113 529 1
113 561 1
114 114 1
114 146 1
114 178 1
114 210 1
114 242 1
114 274 1
114 498 1
114 530 1
114 562 1
115 115 1
115 147 1
115 179 1
115 211 1
115 243 1
115 275 1
115 499 1
115 531 1
115 563 1
116 116 1
116 148 1
116 180 1
116 212 1
116 244 1
116 276 1
116 500 1
116 532 1
116 564 1
117 117 1
117 149 1
117 181 1
117 213 1
117 245 1
117 277 1
117 501 1
117 533 1
117 565 1
118 118 1
118 150 1
118 182 1
118 214 1
118 246 1
118 278 1
118 502 1
118 534 1
118 566 1
119 119 1
119 151 1
119 183 1
119 215 1
119 247 1
119 279 1
119 503 1
119 535 1
119 567 1
120 120 1
120 152 1
120 184 1
120 216 1
120 248 1
120 280 1
120 504 1
120 536 1
120 568 1
121 121 1
121 153 1
121 185 1
121 217 1
121 249 1
121 281 1
121 505 1
121 537 1
121 569 1
122 122 1
122 154 1
122 186 1
122 218 1
122 250 1
122 282 1
122 506 1
122 538 1
122 570 1
123 123 1
123 155 1
123 187 1
123 219 1
123 251 1
123 283 1
123 507 1
123 539 1
123 571 1
124 124 1
124 156 1
124 188 1
124 220 1
124 252 1
124 284 1
124 508 1
124 540 1
124 572 1
125 125 1
125 157 1
125 189 1
125 221 1
125 253 1
125 285 1
125 509 1
125 541 1
125 573 1
126 126 1
126 158 1
126 190 1
126 222 1
126 254 1
126 286 1
126 510 1
126 542 1
126 574 1
127 127 1
127 159 1
127 191 1
127 223 1
127 255 1
127 287 1
127 511 1
127 543 1
127 575 1
128 128 1
128 160 1
128 192 1
128 224 1
128 256 1
128 288 1
128 512 1
128 544 1
128 576 1
129 129 1
129 161 1
129 177 1
129 225 1
129 257 1
129 273 1
129 513 1
129 545 1
129 561 1
130 130 1
130 162 1
130 178 1
130 226 1
130 258 1
130 274 1
130 514 1
130 546 1
130 562 1
131 131 1
131 163 1
131 179 1
131 227 1
131 259 1
131 275 1
131 515 1
131 547 1
131 563 1
132 132 1
132 164 1
132 180 1
132 228 1
132 260 1
132 276 1
132 516 1
132 548 1
132 564 1
133 133 1
133 165 1
133 181 1
133 229 1
133 261 1
133 277 1
133 517 1
133 549 1
133 565 1
134 134 1
134 166 1
134 182 1
134 230 1
134 262 1
134 278 1
134 518 1
134 550 1
134 566 1
135 135 1
135 167 1
135 183 1
135 231 1
135 263 1
135 279 1
135 519 1
135 551 1
135 567 1
136 136 1
136 168 1
136 184 1
136 232 1
136 264 1
136 280 1
136 520 1
136 552 1
136 568 1
137 137 1
137 169 1
137 185 1
137 233 1
137 265 1
137 281 1
137 521 1
137 553 1
137 569 1
138 138 1
138 170 1
138 186 1
138 234 1
138 266 1
138 282 1
138 522 1
138 554 1
138 570 1
139 139 1
139 171 1
139 187 1
139 235 1
139 267 1
139 283 1
139 523 1
139 555 1
139 571 1
140 140 1
140 172 1
140 188 1
140 236 1
140 268 1
140 284 1
140 524 1
140 556 1
140 572 1
141 141 1
141 173 1
141 189 1
141 237 1
141 269 1
141 285 1
141 525 1
141 557 1
141 573 1
142 142 1
142 174 1
142 190 1
142 238 1
142 270 1
142 286 1
142 526 1
142 558 1
142 574 1
143 143 1
143 175 1
143 191 1
143 239 1
143 271 1
143 287 1
143 527 1
143 559 1
143 575 1
144 144 1
144 176 1
144 192 1
144 240 1
144 272 1
144 288 1
144 528 1
144 560 1
144 576 1
145 1 1
145 75 1
145 96 1
145 204 1
145 269 1
145 273 1
145 398 1
145 450 1
145 474 1
146 2 1
146 78 1
146 89 1
146 202 1
146 265 1
146 279 1
146 388 1
146 453 1
146 477 1
147 3 1
147 79 1
147 94 1
147 194 1
147 270 1
147 281 1
147 400 1
147 454 1
147 469 1
148 4 1
148 69 1
148 93 1
148 198 1
148 272 1
148 276 1
148 392 1
148 455 1
148 479 1
149 5 1
149 68 1
149 92 1
149 208 1
149 262 1
149 277 1
149 391 1
149 456 1
149 467 1
150 6 1
150 80 1
150 84 1
150 203 1
150 257 1
150 278 1
150 393 1
150 458 1
150 472 1
151 7 1
151 72 1
151 83 1
151 207 1
151 259 1
151 274 1
151 385 1
151 459 1
151 480 1
152 8 1
152 71 1
152 95 1
152 195 1
152 271 1
152 286 1
152 395 1
152 449 1
152 470 1
153 9 1
153 74 1
153 88 1
153 199 1
153 264 1
153 275 1
153 397 1
153 460 1
153 475 1
154 10 1
154 73 1
154 87 1
154 200 1
154 263 1
154 287 1
154 396 1
154 461 1
154 465 1
155 11 1
155 65 1
155 86 1
155 205 1
155 268 1
155 283 1
155 386 1
155 462 1
155 473 1
156 12 1
156 77 1
156 81 1
156 197 1
156 260 1
156 284 1
156 387 1
156 463 1
156 478 1
157 13 1
157 76 1
157 91 1
157 196 1
157 261 1
157 285 1
157 399 1
157 451 1
157 466 1
158 14 1
158 66 1
158 90 1
158 201 1
158 266 1
158 280 1
158 389 1
158 452 1
158 476 1
159 15 1
159 67 1
159 82 1
159 206 1
159 258 1
159 282 1
159 390 1
159 464 1
159 468 1
160 16 1
160 70 1
160 85 1
160 193 1
160 267 1
160 288 1
160 394 1
160 457 1
160 471 1
161 17 1
161 40 1
161 75 1
161 220 1
161 227 1
161 269 1
161 414 1
161 427 1
161 450 1
162 18 1
162 33 1
162 78 1
162 218 1
162 236 1
162 265 1
162 404 1
162 430 1
162 453 1
163 19 1
163 48 1
163 79 1
163 210 1
163 225 1
163 270 1
163 416 1
163 426 1
163 454 1
164 20 1
164 46 1
164 69 1
164 214 1
164 233 1
164 272 1
164 408 1
164 421 1
164 455 1
165 21 1
165 34 1
165 68 1
165 224 1
165 234 1
165 262 1
165 407 1
165 420 1
165 456 1
166 22 1
166 41 1
166 80 1
166 219 1
166 231 1
166 257 1
166 409 1
166 429 1
166 458 1
167 23 1
167 36 1
167 72 1
167 223 1
167 230 1
167 259 1
167 401 1
167 424 1
167 459 1
168 24 1
168 37 1
168 71 1
168 211 1
168 240 1
168 271 1
168 411 1
168 423 1
168 449 1
169 25 1
169 45 1
169 74 1
169 215 1
169 228 1
169 264 1
169 413 1
169 431 1
169 460 1
170 26 1
170 44 1
170 73 1
170 216 1
170 229 1
170 263 1
170 412 1
170 419 1
170 461 1
171 27 1
171 39 1
171 65 1
171 221 1
171 239 1
171 268 1
171 402 1
171 417 1
171 462 1
172 28 1
172 35 1
172 77 1
172 213 1
172 226 1
172 260 1
172 403 1
172 432 1
172 463 1
173 29 1
173 47 1
173 76 1
173 212 1
173 238 1
173 261 1
173 415 1
173 422 1
173 451 1
174 30 1
174 43 1
174 66 1
174 217 1
174 237 1
174 266 1
174 405 1
174 418 1
174 452 1
175 31 1
175 38 1
175 67 1
175 222 1
175 235 1
175 258 1
175 406 1
175 425 1
175 464 1
176 32 1
176 42 1
176 70 1
176 209 1
176 232 1
176 267 1
176 410 1
176 428 1
176 457 1
177 17 1
177 56 1
177 96 1
177 220 1
177 243 1
177 273 1
177 414 1
177 443 1
177 474 1
178 18 1
178 49 1
178 89 1
178 218 1
178 252 1
178 279 1
178 404 1
178 446 1
178 477 1
179 19 1
179 64 1
179 94 1
179 210 1
179 241 1
179 281 1
179 416 1
179 442 1
179 469 1
180 20 1
180 62 1
180 93 1
180 214 1
180 249 1
180 276 1
180 408 1
180 437 1
180 479 1
181 21 1
181 50 1
181 92 1
181 224 1
181 250 1
181 277 1
181 407 1
181 436 1
181 467 1
182 22 1
182 57 1
182 84 1
182 219 1
182 247 1
182 278 1
182 409 1
182 445 1
182 472 1
183 23 1
183 52 1
183 83 1
183 223 1
183 246 1
183 274 1
183 401 1
183 440 1
183 480 1
184 24 1
184 53 1
184 95 1
184 211 1
184 256 1
184 286 1
184 411 1
184 439 1
184 470 1
185 25 1
185 61 1
185 88 1
185 215 1
185 244 1
185 275 1
185 413 1
185 447 1
185 475 1
186 26 1
186 60 1
186 87 1
186 216 1
186 245 1
186 287 1
186 412 1
186 435 1
186 465 1
187 27 1
187 55 1
187 86 1
187 221 1
187 255 1
187 283 1
187 402 1
187 433 1
187 473 1
188 28 1
188 51 1
188 81 1
188 213 1
188 242 1
188 284 1
188 403 1
188 448 1
188 478 1
189 29 1
189 63 1
189 91 1
189 212 1
189 254 1
189 285 1
189 415 1
189 438 1
189 466 1
190 30 1
190 59 1
190 90 1
190 217 1
190 253 1
190 280 1
190 405 1
190 434 1
190 476 1
191 31 1
191 54 1
191 82 1
191 222 1
191 251 1
191 282 1
191 406 1
191 441 1
191 468 1
192 32 1
192 58 1
192 85 1
192 209 1
192 248 1
192 288 1
192 410 1
192 444 1
192 471 1
193 1 1
193 75 1
193 96 1
193 300 1
193 365 1
193 369 1
193 494 1
193 546 1
193 570 1
194 2 1
194 78 1
194 89 1
194 298 1
194 361 1
194 375 1
194 484 1
194 549 1
194 573 1
195 3 1
195 79 1
195 94 1
195 290 1
195 366 1
195 377 1
195 496 1
195 550 1
195 565 1
196 4 1
196 69 1
196 93 1
196 294 1
196 368 1
196 372 1
196 488 1
196 551 1
196 575 1
197 5 1
197 68 1
197 92 1
197 304 1
197 358 1
197 373 1
197 487 1
197 552 1
197 563 1
198 6 1
198 80 1
198 84 1
198 299 1
198 353 1
198 374 1
198 489 1
198 554 1
198 568 1
199 7 1
199 72 1
199 83 1
199 303 1
199 355 1
199 370 1
199 481 1
199 555 1
199 576 1
200 8 1
200 71 1
200 95 1
200 291 1
200 367 1
200 382 1
200 491 1
200 545 1
200 566 1
201 9 1
201 74 1
201 88 1
201 295 1
201 360 1
201 371 1
201 493 1
201 556 1
201 571 1
202 10 1
202 73 1
202 87 1
202 296 1
202 359 1
202 383 1
202 492 1
202 557 1
202 561 1
203 11 1
203 65 1
203 86 1
203 301 1
203 364 1
203 379 1
203 482 1
203 558 1
203 569 1
204 12 1
204 77 1
204 81 1
204 293 1
204 356 1
204 380 1
204 483 1
204 559 1
204 574 1
205 13 1
205 76 1
205 91 1
205 292 1
205 357 1
205 381 1
205 495 1
205 547 1
205 562 1
206 14 1
206 66 1
206 90 1
206 297 1
206 362 1
206 376 1
206 485 1
206 548 1
206 572 1
207 15 1
207 67 1
207 82 1
207 302 1
207 354 1
207 378 1
207 486 1
207 560 1
207 564 1
208 16 1
208 70 1
208 85 1
208 289 1
208 363 1
208 384 1
208 490 1
208 553 1
208 567 1
209 17 1
209 40 1
209 75 1
209 316 1
209 323 1
209 365 1
209 510 1
209 523 1
209 546 1
210 18 1
210 33 1
210 78 1
210 314 1
210 332 1
210 361 1
210 500 1
210 526 1
210 549 1
211 19 1
211 48 1
211 79 1
211 306 1
211 321 1
211 366 1
211 512 1
211 522 1
211 550 1
212 20 1
212 46 1
212 69 1
212 310 1
212 329 1
212 368 1
212 504 1
212 517 1
212 551 1
213 21 1
213 34 1
213 68 1
213 320 1
213 330 1
213 358 1
213 503 1
213 516 1
213 552 1
214 22 1
214 41 1
214 80 1
214 315 1
214 327 1
214 353 1
214 505 1
214 525 1
214 554 1
215 23 1
215 36 1
215 72 1
215 319 1
215 326 1
215 355 1
215 497 1
215 520 1
215 555 1
216 24 1
216 37 1
216 71 1
216 307 1
216 336 1
216 367 1
216 507 1
216 519 1
216 545 1
217 25 1
217 45 1
217 74 1
217 311 1
217 324 1
217 360 1
217 509 1
217 527 1
217 556 1
218 26 1
218 44 1
218 73 1
218 312 1
218 325 1
218 359 1
218 508 1
218 515 1
218 557 1
219 27 1
219 39 1
219 65 1
219 317 1
219 335 1
219 364 1
219 498 1
219 513 1
219 558 1
220 28 1
220 35 1
220 77 1
220 309 1
220 322 1
220 356 1
220 499 1
220 528 1
220 559 1
221 29 1
221 47 1
221 76 1
221 308 1
221 334 1
221 357 1
221 511 1
221 518 1
221 547 1
222 30 1
222 43 1
222 66 1
222 313 1
222 333 1
222 362 1
222 501 1
222 514 1
222 548 1
223 31 1
223 38 1
223 67 1
223 318 1
223 331 1
223 354 1
223 502 1
223 521 1
223 560 1
224 32 1
224 42 1
224 70 1
224 305 1
224 328 1
224 363 1
224 506 1
224 524 1
224 553 1
225 17 1
225 56 1
225 96 1
225 316 1
225 339 1
225 369 1
225 510 1
225 539 1
225 570 1
226 18 1
226 49 1
226 89 1
226 314 1
226 348 1
226 375 1
226 500 1
226 542 1
226 573 1
227 19 1
227 64 1
227 94 1
227 306 1
227 337 1
227 377 1
227 512 1
227 538 1
227 565 1
228 20 1
228 62 1
228 93 1
228 310 1
228 345 1
228 372 1
228 504 1
228 533 1
228 575 1
229 21 1
229 50 1
229 92 1
229 320 1
229 346 1
229 373 1
229 503 1
229 532 1
229 563 1
230 22 1
230 57 1
230 84 1
230 315 1
230 343 1
230 374 1
230 505 1
230 541 1
230 568 1
231 23 1
231 52 1
231 83 1
231 319 1
231 342 1
231 370 1
231 497 1
231 536 1
231 576 1
232 24 1
232 53 1
232 95 1
232 307 1
232 352 1
232 382 1
232 507 1
232 535 1
232 566 1
233 25 1
233 61 1
233 88 1
233 311 1
233 340 1
233 371 1
233 509 1
233 543 1
233 571 1
234 26 1
234 60 1
234 87 1
234 312 1
234 341 1
234 383 1
234 508 1
234 531 1
234 561 1
235 27 1
235 55 1
235 86 1
235 317 1
235 351 1
235 379 1
235 498 1
235 529 1
235 569 1
236 28 1
236 51 1
236 81 1
236 309 1
236 338 1
236 380 1
236 499 1
236 544 1
236 574 1
237 29 1
237 63 1
237 91 1
237 308 1
237 350 1
237 381 1
237 511 1
237 534 1
237 562 1
238 30 1
238 59 1
238 90 1
238 313 1
238 349 1
238 376 1
238 501 1
238 530 1
238 572 1
239 31 1
239 54 1
239 82 1
239 318 1
239 347 1
239 378 1
239 502 1
239 537 1
239 564 1
240 32 1
240 58 1
240 85 1
240 305 1
240 344 1
240 384 1
240 506 1
240 540 1
240 567 1
241 104 1
241 167 1
241 191 1
241 204 1
241 269 1
241 273 1
241 494 1
241 546 1
241 570 1
242 97 1
242 171 1
242 192 1
242 202 1
242 265 1
242 279 1
242 484 1
242 549 1
242 573 1
243 109 1
243 172 1
243 187 1
243 194 1
243 270 1
243 281 1
243 496 1
243 550 1
243 565 1
244 110 1
244 162 1
244 186 1
244 198 1
244 272 1
244 276 1
244 488 1
244 551 1
244 575 1
245 98 1
245 174 1
245 185 1
245 208 1
245 262 1
245 277 1
245 487 1
245 552 1
245 563 1
246 99 1
246 175 1
246 190 1
246 203 1
246 257 1
246 278 1
246 489 1
246 554 1
246 568 1
247 100 1
247 165 1
247 189 1
247 207 1
247 259 1
247 274 1
247 481 1
247 555 1
247 576 1
248 101 1
248 164 1
248 188 1
248 195 1
248 271 1
248 286 1
248 491 1
248 545 1
248 566 1
249 112 1
249 166 1
249 181 1
249 199 1
249 264 1
249 275 1
249 493 1
249 556 1
249 571 1
250 102 1
250 176 1
250 180 1
250 200 1
250 263 1
250 287 1
250 492 1
250 557 1
250 561 1
251 103 1
251 168 1
251 179 1
251 205 1
251 268 1
251 283 1
251 482 1
251 558 1
251 569 1
252 105 1
252 170 1
252 184 1
252 197 1
252 260 1
252 284 1
252 483 1
252 559 1
252 574 1
253 106 1
253 169 1
253 183 1
253 196 1
253 261 1
253 285 1
253 495 1
253 547 1
253 562 1
254 107 1
254 161 1
254 182 1
254 201 1
254 266 1
254 280 1
254 485 1
254 548 1
254 572 1
255 108 1
255 173 1
255 177 1
255 206 1
255 258 1
255 282 1
255 486 1
255 560 1
255 564 1
256 111 1
256 163 1
256 178 1
256 193 1
256 267 1
256 288 1
256 490 1
256 553 1
256 567 1
257 120 1
257 133 1
257 167 1
257 220 1
257 227 1
257 269 1
257 510 1
257 523 1
257 546 1
258 113 1
258 136 1
258 171 1
258 218 1
258 236 1
258 265 1
258 500 1
258 526 1
258 549 1
259 125 1
259 143 1
259 172 1
259 210 1
259 225 1
259 270 1
259 512 1
259 522 1
259 550 1
260 126 1
260 139 1
260 162 1
260 214 1
260 233 1
260 272 1
260 504 1
260 517 1
260 551 1
261 114 1
261 129 1
261 174 1
261 224 1
261 234 1
261 262 1
261 503 1
261 516 1
261 552 1
262 115 1
262 144 1
262 175 1
262 219 1
262 231 1
262 257 1
262 505 1
262 525 1
262 554 1
263 116 1
263 142 1
263 165 1
263 223 1
263 230 1
263 259 1
263 497 1
263 520 1
263 555 1
264 117 1
264 130 1
264 164 1
264 211 1
264 240 1
264 271 1
264 507 1
264 519 1
264 545 1
265 128 1
265 138 1
265 166 1
265 215 1
265 228 1
265 264 1
265 509 1
265 527 1
265 556 1
266 118 1
266 137 1
266 176 1
266 216 1
266 229 1
266 263 1
266 508 1
266 515 1
266 557 1
267 119 1
267 132 1
267 168 1
267 221 1
267 239 1
267 268 1
267 498 1
267 513 1
267 558 1
268 121 1
268 141 1
268 170 1
268 213 1
268 226 1
268 260 1
268 499 1
268 528 1
268 559 1
269 122 1
269 140 1
269 169 1
269 212 1
269 238 1
269 261 1
269 511 1
269 518 1
269 547 1
270 123 1
270 135 1
270 161 1
270 217 1
270 237 1
270 266 1
270 501 1
270 514 1
270 548 1
271 124 1
271 131 1
271 173 1
271 222 1
271 235 1
271 258 1
271 502 1
271 521 1
271 560 1
272 127 1
272 134 1
272 163 1
272 209 1
272 232 1
272 267 1
272 506 1
272 524 1
272 553 1
273 120 1
273 149 1
273 191 1
273 220 1
273 243 1
273 273 1
273 510 1
273 539 1
273 570 1
274 113 1
274 152 1
274 192 1
274 218 1
274 252 1
274 279 1
274 500 1
274 542 1
274 573 1
275 125 1
275 159 1
275 187 1
275 210 1
275 241 1
275 281 1
275 512 1
275 538 1
275 565 1
276 126 1
276 155 1
276 186 1
276 214 1
276 249 1
276 276 1
276 504 1
276 533 1
276 575 1
277 114 1
277 145 1
277 185 1
277 224 1
277 250 1
277 277 1
277 503 1
277 532 1
277 563 1
278 115 1
278 160 1
278 190 1
278 219 1
278 247 1
278 278 1
278 505 1
278 541 1
278 568 1
279 116 1
279 158 1
279 189 1
279 223 1
279 246 1
279 274 1
279 497 1
279 536 1
279 576 1
280 117 1
280 146 1
280 188 1
280 211 1
280 256 1
280 286 1
280 507 1
280 535 1
280 566 1
281 128 1
281 154 1
281 181 1
281 215 1
281 244 1
281 275 1
281 509 1
281 543 1
281 571 1
282 118 1
282 153 1
282 180 1
282 216 1
282 245 1
282 287 1
282 508 1
282 531 1
282 561 1
283 119 1
283 148 1
283 179 1
283 221 1
283 255 1
283 283 1
283 498 1
283 529 1
283 569 1
284 121 1
284 157 1
284 184 1
284 213 1
284 242 1
284 284 1
284 499 1
284 544 1
284 574 1
285 122 1
285 156 1
285 183 1
285 212 1
285 254 1
285 285 1
285 511 1
285 534 1
285 562 1
286 123 1
286 151 1
286 182 1
286 217 1
286 253 1
286 280 1
286 501 1
286 530 1
286 572 1
287 124 1
287 147 1
287 177 1
287 222 1
287 251 1
287 282 1
287 502 1
287 537 1
287 564 1
288 127 1
288 150 1
288 178 1
288 209 1
288 248 1
288 288 1
288 506 1
288 540 1
288 567 1
