%%MatrixMarket matrix coordinate integer general
288 576 2592
1 1 1
1 43 1
1 83 1
1 289 1
1 331 1
1 371 1
1 385 1
1 427 1
1 467 1
2 2 1
2 46 1
2 86 1
2 290 1
2 334 1
2 374 1
2 386 1
2 430 1
2 470 1
3 3 1
3 47 1
3 84 1
3 291 1
3 335 1
3 372 1
3 387 1
3 431 1
3 468 1
4 4 1
4 33 1
4 89 1
4 292 1
4 321 1
4 377 1
4 388 1
4 417 1
4 473 1
5 5 1
5 36 1
5 90 1
5 293 1
5 324 1
5 378 1
5 389 1
5 420 1
5 474 1
6 6 1
6 48 1
6 87 1
6 294 1
6 336 1
6 375 1
6 390 1
6 432 1
6 471 1
7 7 1
7 34 1
7 92 1
7 295 1
7 322 1
7 380 1
7 391 1
7 418 1
7 476 1
8 8 1
8 39 1
8 93 1
8 296 1
8 327 1
8 381 1
8 392 1
8 423 1
8 477 1
9 9 1
9 35 1
9 85 1
9 297 1
9 323 1
9 373 1
9 393 1
9 419 1
9 469 1
10 10 1
10 41 1
10 91 1
10 298 1
10 329 1
10 379 1
10 394 1
10 425 1
10 475 1
11 11 1
11 37 1
11 95 1
11 299 1
11 325 1
11 383 1
11 395 1
11 421 1
11 479 1
12 12 1
12 38 1
12 88 1
12 300 1
12 326 1
12 376 1
12 396 1
12 422 1
12 472 1
13 13 1
13 44 1
13 94 1
13 301 1
13 332 1
13 382 1
13 397 1
13 428 1
13 478 1
14 14 1
14 40 1
14 96 1
14 302 1
14 328 1
14 384 1
14 398 1
14 424 1
14 480 1
15 15 1
15 42 1
15 81 1
15 303 1
15 330 1
15 369 1
15 399 1
15 426 1
15 465 1
16 16 1
16 45 1
16 82 1
16 304 1
16 333 1
16 370 1
16 400 1
16 429 1
16 466 1
17 1 1
17 60 1
17 68 1
17 289 1
17 348 1
17 356 1
17 385 1
17 444 1
17 452 1
18 2 1
18 53 1
18 71 1
18 290 1
18 341 1
18 359 1
18 386 1
18 437 1
18 455 1
19 3 1
19 56 1
19 73 1
19 291 1
19 344 1
19 361 1
19 387 1
19 440 1
19 457 1
20 4 1
20 61 1
20 69 1
20 292 1
20 349 1
20 357 1
20 388 1
20 445 1
20 453 1
21 5 1
21 64 1
21 75 1
21 293 1
21 352 1
21 363 1
21 389 1
21 448 1
21 459 1
22 6 1
22 58 1
22 76 1
22 294 1
22 346 1
22 364 1
22 390 1
22 442 1
22 460 1
23 7 1
23 59 1
23 72 1
23 295 1
23 347 1
23 360 1
23 391 1
23 443 1
23 456 1
24 8 1
24 49 1
24 78 1
24 296 1
24 337 1
24 366 1
24 392 1
24 433 1
24 462 1
25 9 1
25 62 1
25 74 1
25 297 1
25 350 1
25 362 1
25 393 1
25 446 1
25 458 1
26 10 1
26 50 1
26 79 1
26 298 1
26 338 1
26 367 1
26 394 1
26 434 1
26 463 1
27 11 1
27 54 1
27 65 1
27 299 1
27 342 1
27 353 1
27 395 1
27 438 1
27 449 1
28 12 1
28 63 1
28 77 1
28 300 1
28 351 1
28 365 1
28 396 1
28 447 1
28 461 1
29 13 1
29 51 1
29 80 1
29 301 1
29 339 1
29 368 1
29 397 1
29 435 1
29 464 1
30 14 1
30 52 1
30 66 1
30 302 1
30 340 1
30 354 1
30 398 1
30 436 1
30 450 1
31 15 1
31 55 1
31 67 1
31 303 1
31 343 1
31 355 1
31 399 1
31 439 1
31 451 1
32 16 1
32 57 1
32 70 1
32 304 1
32 345 1
32 358 1
32 400 1
32 441 1
32 454 1
33 32 1
33 43 1
33 68 1
33 320 1
33 331 1
33 356 1
33 416 1
33 427 1
33 452 1
34 17 1
34 46 1
34 71 1
34 305 1
34 334 1
34 359 1
34 401 1
34 430 1
34 455 1
35 18 1
35 47 1
35 73 1
35 306 1
35 335 1
35 361 1
35 402 1
35 431 1
35 457 1
36 22 1
36 33 1
36 69 1
36 310 1
36 321 1
36 357 1
36 406 1
36 417 1
36 453 1
37 28 1
37 36 1
37 75 1
37 316 1
37 324 1
37 363 1
37 412 1
37 420 1
37 459 1
38 19 1
38 48 1
38 76 1
38 307 1
38 336 1
38 364 1
38 403 1
38 432 1
38 460 1
39 20 1
39 34 1
39 72 1
39 308 1
39 322 1
39 360 1
39 404 1
39 418 1
39 456 1
40 21 1
40 39 1
40 78 1
40 309 1
40 327 1
40 366 1
40 405 1
40 423 1
40 462 1
41 23 1
41 35 1
41 74 1
41 311 1
41 323 1
41 362 1
41 407 1
41 419 1
41 458 1
42 24 1
42 41 1
42 79 1
42 312 1
42 329 1
42 367 1
42 408 1
42 425 1
42 463 1
43 29 1
43 37 1
43 65 1
43 317 1
43 325 1
43 353 1
43 413 1
43 421 1
43 449 1
44 25 1
44 38 1
44 77 1
44 313 1
44 326 1
44 365 1
44 409 1
44 422 1
44 461 1
45 26 1
45 44 1
45 80 1
45 314 1
45 332 1
45 368 1
45 410 1
45 428 1
45 464 1
46 27 1
46 40 1
46 66 1
46 315 1
46 328 1
46 354 1
46 411 1
46 424 1
46 450 1
47 30 1
47 42 1
47 67 1
47 318 1
47 330 1
47 355 1
47 414 1
47 426 1
47 451 1
48 31 1
48 45 1
48 70 1
48 319 1
48 333 1
48 358 1
48 415 1
48 429 1
48 454 1
49 97 1
49 139 1
49 179 1
49 289 1
49 331 1
49 371 1
49 481 1
49 523 1
49 563 1
50 98 1
50 142 1
50 182 1
50 290 1
50 334 1
50 374 1
50 482 1
50 526 1
50 566 1
51 99 1
51 143 1
51 180 1
51 291 1
51 335 1
51 372 1
51 483 1
51 527 1
51 564 1
52 100 1
52 129 1
52 185 1
52 292 1
52 321 1
52 377 1
52 484 1
52 513 1
52 569 1
53 101 1
53 132 1
53 186 1
53 293 1
53 324 1
53 378 1
53 485 1
53 516 1
53 570 1
54 102 1
54 144 1
54 183 1
54 294 1
54 336 1
54 375 1
54 486 1
54 528 1
54 567 1
55 103 1
55 130 1
55 188 1
55 295 1
55 322 1
55 380 1
55 487 1
55 514 1
55 572 1
56 104 1
56 135 1
56 189 1
56 296 1
56 327 1
56 381 1
56 488 1
56 519 1
56 573 1
57 105 1
57 131 1
57 181 1
57 297 1
57 323 1
57 373 1
57 489 1
57 515 1
57 565 1
58 106 1
58 137 1
58 187 1
58 298 1
58 329 1
58 379 1
58 490 1
58 521 1
58 571 1
59 107 1
59 133 1
59 191 1
59 299 1
59 325 1
59 383 1
59 491 1
59 517 1
59 575 1
60 108 1
60 134 1
60 184 1
60 300 1
60 326 1
60 376 1
60 492 1
60 518 1
60 568 1
61 109 1
61 140 1
61 190 1
61 301 1
61 332 1
61 382 1
61 493 1
61 524 1
61 574 1
62 110 1
62 136 1
62 192 1
62 302 1
62 328 1
62 384 1
62 494 1
62 520 1
62 576 1
63 111 1
63 138 1
63 177 1
63 303 1
63 330 1
63 369 1
63 495 1
63 522 1
63 561 1
64 112 1
64 141 1
64 178 1
64 304 1
64 333 1
64 370 1
64 496 1
64 525 1
64 562 1
65 97 1
65 156 1
65 164 1
65 289 1
65 348 1
65 356 1
65 481 1
65 540 1
65 548 1
66 98 1
66 149 1
66 167 1
66 290 1
66 341 1
66 359 1
66 482 1
66 533 1
66 551 1
67 99 1
67 152 1
67 169 1
67 291 1
67 344 1
67 361 1
67 483 1
67 536 1
67 553 1
68 100 1
68 157 1
68 165 1
68 292 1
68 349 1
68 357 1
68 484 1
68 541 1
68 549 1
69 101 1
69 160 1
69 171 1
69 293 1
69 352 1
69 363 1
69 485 1
69 544 1
69 555 1
70 102 1
70 154 1
70 172 1
70 294 1
70 346 1
70 364 1
70 486 1
70 538 1
70 556 1
71 103 1
71 155 1
71 168 1
71 295 1
71 347 1
71 360 1
71 487 1
71 539 1
71 552 1
72 104 1
72 145 1
72 174 1
72 296 1
72 337 1
72 366 1
72 488 1
72 529 1
72 558 1
73 105 1
73 158 1
73 170 1
73 297 1
73 350 1
73 362 1
73 489 1
73 542 1
73 554 1
74 106 1
74 146 1
74 175 1
74 298 1
74 338 1
74 367 1
74 490 1
74 530 1
74 559 1
75 107 1
75 150 1
75 161 1
75 299 1
75 342 1
75 353 1
75 491 1
75 534 1
75 545 1
76 108 1
76 159 1
76 173 1
76 300 1
76 351 1
76 365 1
76 492 1
76 543 1
76 557 1
77 109 1
77 147 1
77 176 1
77 301 1
77 339 1
77 368 1
77 493 1
77 531 1
77 560 1
78 110 1
78 148 1
78 162 1
78 302 1
78 340 1
78 354 1
78 494 1
78 532 1
78 546 1
79 111 1
79 151 1
79 163 1
79 303 1
79 343 1
79 355 1
79 495 1
79 535 1
79 547 1
80 112 1
80 153 1
80 166 1
80 304 1
80 345 1
80 358 1
80 496 1
80 537 1
80 550 1
81 128 1
81 139 1
81 164 1
81 320 1
81 331 1
81 356 1
81 512 1
81 523 1
81 548 1
82 113 1
82 142 1
82 167 1
82 305 1
82 334 1
82 359 1
82 497 1
82 526 1
82 551 1
83 114 1
83 143 1
83 169 1
83 306 1
83 335 1
83 361 1
83 498 1
83 527 1
83 553 1
84 118 1
84 129 1
84 165 1
84 310 1
84 321 1
84 357 1
84 502 1
84 513 1
84 549 1
85 124 1
85 132 1
85 171 1
85 316 1
85 324 1
85 363 1
85 508 1
85 516 1
85 555 1
86 115 1
86 144 1
86 172 1
86 307 1
86 336 1
86 364 1
86 499 1
86 528 1
86 556 1
87 116 1
87 130 1
87 168 1
87 308 1
87 322 1
87 360 1
87 500 1
87 514 1
87 552 1
88 117 1
88 135 1
88 174 1
88 309 1
88 327 1
88 366 1
88 501 1
88 519 1
88 558 1
89 119 1
89 131 1
89 170 1
89 311 1
89 323 1
89 362 1
89 503 1
89 515 1
89 554 1
90 120 1
90 137 1
90 175 1
90 312 1
90 329 1
90 367 1
90 504 1
90 521 1
90 559 1
91 125 1
91 133 1
91 161 1
91 317 1
91 325 1
91 353 1
91 509 1
91 517 1
91 545 1
92 121 1
92 134 1
92 173 1
92 313 1
92 326 1
92 365 1
92 505 1
92 518 1
92 557 1
93 122 1
93 140 1
93 176 1
93 314 1
93 332 1
93 368 1
93 506 1
93 524 1
93 560 1
94 123 1
94 136 1
94 162 1
94 315 1
94 328 1
94 354 1
94 507 1
94 520 1
94 546 1
95 126 1
95 138 1
95 163 1
95 318 1
95 330 1
95 355 1
95 510 1
95 522 1
95 547 1
96 127 1
96 141 1
96 166 1
96 319 1
96 333 1
96 358 1
96 511 1
96 525 1
96 550 1
97 193 1
97 235 1
97 275 1
97 385 1
97 427 1
97 467 1
97 481 1
97 523 1
97 563 1
98 194 1
98 238 1
98 278 1
98 386 1
98 430 1
98 470 1
98 482 1
98 526 1
98 566 1
99 195 1
99 239 1
99 276 1
99 387 1
99 431 1
99 468 1
99 483 1
99 527 1
99 564 1
100 196 1
100 225 1
100 281 1
100 388 1
100 417 1
100 473 1
100 484 1
100 513 1
100 569 1
101 197 1
101 228 1
101 282 1
101 389 1
101 420 1
101 474 1
101 485 1
101 516 1
101 570 1
102 198 1
102 240 1
102 279 1
102 390 1
102 432 1
102 471 1
102 486 1
102 528 1
102 567 1
103 199 1
103 226 1
103 284 1
103 391 1
103 418 1
103 476 1
103 487 1
103 514 1
103 572 1
104 200 1
104 231 1
104 285 1
104 392 1
104 423 1
104 477 1
104 488 1
104 519 1
104 573 1
105 201 1
105 227 1
105 277 1
105 393 1
105 419 1
105 469 1
105 489 1
105 515 1
105 565 1
106 202 1
106 233 1
106 283 1
106 394 1
106 425 1
106 475 1
106 490 1
106 521 1
106 571 1
107 203 1
107 229 1
107 287 1
107 395 1
107 421 1
107 479 1
107 491 1
107 517 1
107 575 1
108 204 1
108 230 1
108 280 1
108 396 1
108 422 1
108 472 1
108 492 1
108 518 1
108 568 1
109 205 1
109 236 1
109 286 1
109 397 1
109 428 1
109 478 1
109 493 1
109 524 1
109 574 1
110 206 1
110 232 1
110 288 1
110 398 1
110 424 1
110 480 1
110 494 1
110 520 1
110 576 1
111 207 1
111 234 1
111 273 1
111 399 1
111 426 1
111 465 1
111 495 1
111 522 1
111 561 1
112 208 1
112 237 1
112 274 1
112 400 1
112 429 1
112 466 1
112 496 1
112 525 1
112 562 1
113 193 1
113 252 1
113 260 1
113 385 1
113 444 1
113 452 1
113 481 1
113 540 1
113 548 1
114 194 1
114 245 1
114 263 1
114 386 1
114 437 1
114 455 1
114 482 1
114 533 1
114 551 1
115 195 1
115 248 1
115 265 1
115 387 1
115 440 1
115 457 1
115 483 1
115 536 1
115 553 1
116 196 1
116 253 1
116 261 1
116 388 1
116 445 1
116 453 1
116 484 1
116 541 1
116 549 1
117 197 1
117 256 1
117 267 1
117 389 1
117 448 1
117 459 1
117 485 1
117 544 1
117 555 1
118 198 1
118 250 1
118 268 1
118 390 1
118 442 1
118 460 1
118 486 1
118 538 1
118 556 1
119 199 1
119 251 1
119 264 1
119 391 1
119 443 1
119 456 1
119 487 1
119 539 1
119 552 1
120 200 1
120 241 1
120 270 1
120 392 1
120 433 1
120 462 1
120 488 1
120 529 1
120 558 1
121 201 1
121 254 1
121 266 1
121 393 1
121 446 1
121 458 1
121 489 1
121 542 1
121 554 1
122 202 1
122 242 1
122 271 1
122 394 1
122 434 1
122 463 1
122 490 1
122 530 1
122 559 1
123 203 1
123 246 1
123 257 1
123 395 1
123 438 1
123 449 1
123 491 1
123 534 1
123 545 1
124 204 1
124 255 1
124 269 1
124 396 1
124 447 1
124 461 1
124 492 1
124 543 1
124 557 1
125 205 1
125 243 1
125 272 1
125 397 1
125 435 1
125 464 1
125 493 1
125 531 1
125 560 1
126 206 1
126 244 1
126 258 1
126 398 1
126 436 1
126 450 1
126 494 1
126 532 1
126 546 1
127 207 1
127 247 1
127 259 1
127 399 1
127 439 1
127 451 1
127 495 1
127 535 1
127 547 1
128 208 1
128 249 1
128 262 1
128 400 1
128 441 1
128 454 1
128 496 1
128 537 1
128 550 1
129 224 1
129 235 1
129 260 1
129 416 1
129 427 1
129 452 1
129 512 1
129 523 1
129 548 1
130 209 1
130 238 1
130 263 1
130 401 1
130 430 1
130 455 1
130 497 1
130 526 1
130 551 1
131 210 1
131 239 1
131 265 1
131 402 1
131 431 1
131 457 1
131 498 1
131 527 1
131 553 1
132 214 1
132 225 1
132 261 1
132 406 1
132 417 1
132 453 1
132 502 1
132 513 1
132 549 1
133 220 1
133 228 1
133 267 1
133 412 1
133 420 1
133 459 1
133 508 1
133 516 1
133 555 1
134 211 1
134 240 1
134 268 1
134 403 1
134 432 1
134 460 1
134 499 1
134 528 1
134 556 1
135 212 1
135 226 1
135 264 1
135 404 1
135 418 1
135 456 1
135 500 1
135 514 1
135 552 1
136 213 1
136 231 1
136 270 1
136 405 1
136 423 1
136 462 1
136 501 1
136 519 1
136 558 1
137 215 1
137 227 1
137 266 1
137 407 1
137 419 1
137 458 1
137 503 1
137 515 1
137 554 1
138 216 1
138 233 1
138 271 1
138 408 1
138 425 1
138 463 1
138 504 1
138 521 1
138 559 1
139 221 1
139 229 1
139 257 1
139 413 1
139 421 1
139 449 1
139 509 1
139 517 1
139 545 1
140 217 1
140 230 1
140 269 1
140 409 1
140 422 1
140 461 1
140 505 1
140 518 1
140 557 1
141 218 1
141 236 1
141 272 1
141 410 1
141 428 1
141 464 1
141 506 1
141 524 1
141 560 1
142 219 1
142 232 1
142 258 1
142 411 1
142 424 1
142 450 1
142 507 1
142 520 1
142 546 1
143 222 1
143 234 1
143 259 1
143 414 1
143 426 1
143 451 1
143 510 1
143 522 1
143 547 1
144 223 1
144 237 1
144 262 1
144 415 1
144 429 1
144 454 1
144 511 1
144 525 1
144 550 1
145 1 1
145 17 1
145 49 1
145 298 1
145 314 1
145 346 1
145 493 1
145 509 1
145 541 1
146 2 1
146 18 1
146 50 1
146 301 1
146 317 1
146 349 1
146 491 1
146 507 1
146 539 1
147 3 1
147 19 1
147 51 1
147 299 1
147 315 1
147 347 1
147 494 1
147 510 1
147 542 1
148 4 1
148 20 1
148 52 1
148 303 1
148 319 1
148 351 1
148 496 1
148 512 1
148 544 1
149 5 1
149 21 1
149 53 1
149 291 1
149 307 1
149 339 1
149 486 1
149 502 1
149 534 1
150 6 1
150 22 1
150 54 1
150 302 1
150 318 1
150 350 1
150 495 1
150 511 1
150 543 1
151 7 1
151 23 1
151 55 1
151 304 1
151 320 1
151 352 1
151 481 1
151 497 1
151 529 1
152 8 1
152 24 1
152 56 1
152 294 1
152 310 1
152 342 1
152 484 1
152 500 1
152 532 1
153 9 1
153 25 1
153 57 1
153 289 1
153 305 1
153 337 1
153 482 1
153 498 1
153 530 1
154 10 1
154 26 1
154 58 1
154 292 1
154 308 1
154 340 1
154 487 1
154 503 1
154 535 1
155 11 1
155 27 1
155 59 1
155 297 1
155 313 1
155 345 1
155 492 1
155 508 1
155 540 1
156 12 1
156 28 1
156 60 1
156 290 1
156 306 1
156 338 1
156 483 1
156 499 1
156 531 1
157 13 1
157 29 1
157 61 1
157 295 1
157 311 1
157 343 1
157 489 1
157 505 1
157 537 1
158 14 1
158 30 1
158 62 1
158 300 1
158 316 1
158 348 1
158 485 1
158 501 1
158 533 1
159 15 1
159 31 1
159 63 1
159 293 1
159 309 1
159 341 1
159 488 1
159 504 1
159 536 1
160 16 1
160 32 1
160 64 1
160 296 1
160 312 1
160 344 1
160 490 1
160 506 1
160 538 1
161 1 1
161 33 1
161 65 1
161 298 1
161 330 1
161 362 1
161 493 1
161 525 1
161 557 1
162 2 1
162 34 1
162 66 1
162 301 1
162 333 1
162 365 1
162 491 1
162 523 1
162 555 1
163 3 1
163 35 1
163 67 1
163 299 1
163 331 1
163 363 1
163 494 1
163 526 1
163 558 1
164 4 1
164 36 1
164 68 1
164 303 1
164 335 1
164 367 1
164 496 1
164 528 1
164 560 1
165 5 1
165 37 1
165 69 1
165 291 1
165 323 1
165 355 1
165 486 1
165 518 1
165 550 1
166 6 1
166 38 1
166 70 1
166 302 1
166 334 1
166 366 1
166 495 1
166 527 1
166 559 1
167 7 1
167 39 1
167 71 1
167 304 1
167 336 1
167 368 1
167 481 1
167 513 1
167 545 1
168 8 1
168 40 1
168 72 1
168 294 1
168 326 1
168 358 1
168 484 1
168 516 1
168 548 1
169 9 1
169 41 1
169 73 1
169 289 1
169 321 1
169 353 1
169 482 1
169 514 1
169 546 1
170 10 1
170 42 1
170 74 1
170 292 1
170 324 1
170 356 1
170 487 1
170 519 1
170 551 1
171 11 1
171 43 1
171 75 1
171 297 1
171 329 1
171 361 1
171 492 1
171 524 1
171 556 1
172 12 1
172 44 1
172 76 1
172 290 1
172 322 1
172 354 1
172 483 1
172 515 1
172 547 1
173 13 1
173 45 1
173 77 1
173 295 1
173 327 1
173 359 1
173 489 1
173 521 1
173 553 1
174 14 1
174 46 1
174 78 1
174 300 1
174 332 1
174 364 1
174 485 1
174 517 1
174 549 1
175 15 1
175 47 1
175 79 1
175 293 1
175 325 1
175 357 1
175 488 1
175 520 1
175 552 1
176 16 1
176 48 1
176 80 1
176 296 1
176 328 1
176 360 1
176 490 1
176 522 1
176 554 1
177 17 1
177 33 1
177 81 1
177 314 1
177 330 1
177 378 1
177 509 1
177 525 1
177 573 1
178 18 1
178 34 1
178 82 1
178 317 1
178 333 1
178 381 1
178 507 1
178 523 1
178 571 1
179 19 1
179 35 1
179 83 1
179 315 1
179 331 1
179 379 1
179 510 1
179 526 1
179 574 1
180 20 1
180 36 1
180 84 1
180 319 1
180 335 1
180 383 1
180 512 1
180 528 1
180 576 1
181 21 1
181 37 1
181 85 1
181 307 1
181 323 1
181 371 1
181 502 1
181 518 1
181 566 1
182 22 1
182 38 1
182 86 1
182 318 1
182 334 1
182 382 1
182 511 1
182 527 1
182 575 1
183 23 1
183 39 1
183 87 1
183 320 1
183 336 1
183 384 1
183 497 1
183 513 1
183 561 1
184 24 1
184 40 1
184 88 1
184 310 1
184 326 1
184 374 1
184 500 1
184 516 1
184 564 1
185 25 1
185 41 1
185 89 1
185 305 1
185 321 1
185 369 1
185 498 1
185 514 1
185 562 1
186 26 1
186 42 1
186 90 1
186 308 1
186 324 1
186 372 1
186 503 1
186 519 1
186 567 1
187 27 1
187 43 1
187 91 1
187 313 1
187 329 1
187 377 1
187 508 1
187 524 1
187 572 1
188 28 1
188 44 1
188 92 1
188 306 1
188 322 1
188 370 1
188 499 1
188 515 1
188 563 1
189 29 1
189 45 1
189 93 1
189 311 1
189 327 1
189 375 1
189 505 1
189 521 1
189 569 1
190 30 1
190 46 1
190 94 1
190 316 1
190 332 1
190 380 1
190 501 1
190 517 1
190 565 1
191 31 1
191 47 1
191 95 1
191 309 1
191 325 1
191 373 1
191 504 1
191 520 1
191 568 1
192 32 1
192 48 1
192 96 1
192 312 1
192 328 1
192 376 1
192 506 1
192 522 1
192 570 1
193 98 1
193 114 1
193 146 1
193 195 1
193 211 1
193 243 1
193 493 1
193 509 1
193 541 1
194 99 1
194 115 1
194 147 1
194 198 1
194 214 1
194 246 1
194 491 1
194 507 1
194 539 1
195 102 1
195 118 1
195 150 1
195 196 1
195 212 1
195 244 1
195 494 1
195 510 1
195 542 1
196 103 1
196 119 1
196 151 1
196 201 1
196 217 1
196 249 1
196 496 1
196 512 1
196 544 1
197 104 1
197 120 1
197 152 1
197 202 1
197 218 1
197 250 1
197 486 1
197 502 1
197 534 1
198 100 1
198 116 1
198 148 1
198 199 1
198 215 1
198 247 1
198 495 1
198 511 1
198 543 1
199 105 1
199 121 1
199 153 1
199 204 1
199 220 1
199 252 1
199 481 1
199 497 1
199 529 1
200 106 1
200 122 1
200 154 1
200 205 1
200 221 1
200 253 1
200 484 1
200 500 1
200 532 1
201 108 1
201 124 1
201 156 1
201 197 1
201 213 1
201 245 1
201 482 1
201 498 1
201 530 1
202 109 1
202 125 1
202 157 1
202 203 1
202 219 1
202 251 1
202 487 1
202 503 1
202 535 1
203 110 1
203 126 1
203 158 1
203 207 1
203 223 1
203 255 1
203 492 1
203 508 1
203 540 1
204 101 1
204 117 1
204 149 1
204 200 1
204 216 1
204 248 1
204 483 1
204 499 1
204 531 1
205 107 1
205 123 1
205 155 1
205 206 1
205 222 1
205 254 1
205 489 1
205 505 1
205 537 1
206 111 1
206 127 1
206 159 1
206 208 1
206 224 1
206 256 1
206 485 1
206 501 1
206 533 1
207 112 1
207 128 1
207 160 1
207 193 1
207 209 1
207 241 1
207 488 1
207 504 1
207 536 1
208 97 1
208 113 1
208 145 1
208 194 1
208 210 1
208 242 1
208 490 1
208 506 1
208 538 1
209 98 1
209 130 1
209 162 1
209 195 1
209 227 1
209 259 1
209 493 1
209 525 1
209 557 1
210 99 1
210 131 1
210 163 1
210 198 1
210 230 1
210 262 1
210 491 1
210 523 1
210 555 1
211 102 1
211 134 1
211 166 1
211 196 1
211 228 1
211 260 1
211 494 1
211 526 1
211 558 1
212 103 1
212 135 1
212 167 1
212 201 1
212 233 1
212 265 1
212 496 1
212 528 1
212 560 1
213 104 1
213 136 1
213 168 1
213 202 1
213 234 1
213 266 1
213 486 1
213 518 1
213 550 1
214 100 1
214 132 1
214 164 1
214 199 1
214 231 1
214 263 1
214 495 1
214 527 1
214 559 1
215 105 1
215 137 1
215 169 1
215 204 1
215 236 1
215 268 1
215 481 1
215 513 1
215 545 1
216 106 1
216 138 1
216 170 1
216 205 1
216 237 1
216 269 1
216 484 1
216 516 1
216 548 1
217 108 1
217 140 1
217 172 1
217 197 1
217 229 1
217 261 1
217 482 1
217 514 1
217 546 1
218 109 1
218 141 1
218 173 1
218 203 1
218 235 1
218 267 1
218 487 1
218 519 1
218 551 1
219 110 1
219 142 1
219 174 1
219 207 1
219 239 1
219 271 1
219 492 1
219 524 1
219 556 1
220 101 1
220 133 1
220 165 1
220 200 1
220 232 1
220 264 1
220 483 1
220 515 1
220 547 1
221 107 1
221 139 1
221 171 1
221 206 1
221 238 1
221 270 1
221 489 1
221 521 1
221 553 1
222 111 1
222 143 1
222 175 1
222 208 1
222 240 1
222 272 1
222 485 1
222 517 1
222 549 1
223 112 1
223 144 1
223 176 1
223 193 1
223 225 1
223 257 1
223 488 1
223 520 1
223 552 1
224 97 1
224 129 1
224 161 1
224 194 1
224 226 1
224 258 1
224 490 1
224 522 1
224 554 1
225 114 1
225 130 1
225 178 1
225 211 1
225 227 1
225 275 1
225 509 1
225 525 1
225 573 1
226 115 1
226 131 1
226 179 1
226 214 1
226 230 1
226 278 1
226 507 1
226 523 1
226 571 1
227 118 1
227 134 1
227 182 1
227 212 1
227 228 1
227 276 1
227 510 1
227 526 1
227 574 1
228 119 1
228 135 1
228 183 1
228 217 1
228 233 1
228 281 1
228 512 1
228 528 1
228 576 1
229 120 1
229 136 1
229 184 1
229 218 1
229 234 1
229 282 1
229 502 1
229 518 1
229 566 1
230 116 1
230 132 1
230 180 1
230 215 1
230 231 1
230 279 1
230 511 1
230 527 1
230 575 1
231 121 1
231 137 1
231 185 1
231 220 1
231 236 1
231 284 1
231 497 1
231 513 1
231 561 1
232 122 1
232 138 1
232 186 1
232 221 1
232 237 1
232 285 1
232 500 1
232 516 1
232 564 1
233 124 1
233 140 1
233 188 1
233 213 1
233 229 1
233 277 1
233 498 1
233 514 1
233 562 1
234 125 1
234 141 1
234 189 1
234 219 1
234 235 1
234 283 1
234 503 1
234 519 1
234 567 1
235 126 1
235 142 1
235 190 1
235 223 1
235 239 1
235 287 1
235 508 1
235 524 1
235 572 1
236 117 1
236 133 1
236 181 1
236 216 1
236 232 1
236 280 1
236 499 1
236 515 1
236 563 1
237 123 1
237 139 1
237 187 1
237 222 1
237 238 1
237 286 1
237 505 1
237 521 1
237 569 1
238 127 1
238 143 1
238 191 1
238 224 1
238 240 1
238 288 1
238 501 1
238 517 1
238 565 1
239 128 1
239 144 1
239 192 1
239 209 1
239 225 1
239 273 1
239 504 1
239 520 1
239 568 1
240 113 1
240 129 1
240 177 1
240 210 1
240 226 1
240 274 1
240 506 1
240 522 1
240 570 1
241 98 1
241 114 1
241 146 1
241 298 1
241 314 1
241 346 1
241 395 1
241 411 1
241 443 1
242 99 1
242 115 1
242 147 1
242 301 1
242 317 1
242 349 1
242 398 1
242 414 1
242 446 1
243 102 1
243 118 1
243 150 1
243 299 1
243 315 1
243 347 1
243 399 1
243 415 1
243 447 1
244 103 1
244 119 1
244 151 1
244 303 1
244 319 1
244 351 1
244 385 1
244 401 1
244 433 1
245 104 1
245 120 1
245 152 1
245 291 1
245 307 1
245 339 1
245 388 1
245 404 1
245 436 1
246 100 1
246 116 1
246 148 1
246 302 1
246 318 1
246 350 1
246 400 1
246 416 1
246 448 1
247 105 1
247 121 1
247 153 1
247 304 1
247 320 1
247 352 1
247 386 1
247 402 1
247 434 1
248 106 1
248 122 1
248 154 1
248 294 1
248 310 1
248 342 1
248 391 1
248 407 1
248 439 1
249 108 1
249 124 1
249 156 1
249 289 1
249 305 1
249 337 1
249 387 1
249 403 1
249 435 1
250 109 1
250 125 1
250 157 1
250 292 1
250 308 1
250 340 1
250 393 1
250 409 1
250 441 1
251 110 1
251 126 1
251 158 1
251 297 1
251 313 1
251 345 1
251 389 1
251 405 1
251 437 1
252 101 1
252 117 1
252 149 1
252 290 1
252 306 1
252 338 1
252 390 1
252 406 1
252 438 1
253 107 1
253 123 1
253 155 1
253 295 1
253 311 1
253 343 1
253 396 1
253 412 1
253 444 1
254 111 1
254 127 1
254 159 1
254 300 1
254 316 1
254 348 1
254 392 1
254 408 1
254 440 1
255 112 1
255 128 1
255 160 1
255 293 1
255 309 1
255 341 1
255 394 1
255 410 1
255 442 1
256 97 1
256 113 1
256 145 1
256 296 1
256 312 1
256 344 1
256 397 1
256 413 1
256 445 1
257 98 1
257 130 1
257 162 1
257 298 1
257 330 1
257 362 1
257 395 1
257 427 1
257 459 1
258 99 1
258 131 1
258 163 1
258 301 1
258 333 1
258 365 1
258 398 1
258 430 1
258 462 1
259 102 1
259 134 1
259 166 1
259 299 1
259 331 1
259 363 1
259 399 1
259 431 1
259 463 1
260 103 1
260 135 1
260 167 1
260 303 1
260 335 1
260 367 1
260 385 1
260 417 1
260 449 1
261 104 1
261 136 1
261 168 1
261 291 1
261 323 1
261 355 1
261 388 1
261 420 1
261 452 1
262 100 1
262 132 1
262 164 1
262 302 1
262 334 1
262 366 1
262 400 1
262 432 1
262 464 1
263 105 1
263 137 1
263 169 1
263 304 1
263 336 1
263 368 1
263 386 1
263 418 1
263 450 1
264 106 1
264 138 1
264 170 1
264 294 1
264 326 1
264 358 1
264 391 1
264 423 1
264 455 1
265 108 1
265 140 1
265 172 1
265 289 1
265 321 1
265 353 1
265 387 1
265 419 1
265 451 1
266 109 1
266 141 1
266 173 1
266 292 1
266 324 1
266 356 1
266 393 1
266 425 1
266 457 1
267 110 1
267 142 1
267 174 1
267 297 1
267 329 1
267 361 1
267 389 1
267 421 1
267 453 1
268 101 1
268 133 1
268 165 1
268 290 1
268 322 1
268 354 1
268 390 1
268 422 1
268 454 1
269 107 1
269 139 1
269 171 1
269 295 1
269 327 1
269 359 1
269 396 1
269 428 1
269 460 1
270 111 1
270 143 1
270 175 1
270 300 1
270 332 1
270 364 1
270 392 1
270 424 1
270 456 1
271 112 1
271 144 1
271 176 1
271 293 1
271 325 1
271 357 1
271 394 1
271 426 1
271 458 1
272 97 1
272 129 1
272 161 1
272 296 1
272 328 1
272 360 1
272 397 1
272 429 1
272 461 1
273 114 1
273 130 1
273 178 1
273 314 1
273 330 1
273 378 1
273 411 1
273 427 1
273 475 1
274 115 1
274 131 1
274 179 1
274 317 1
274 333 1
274 381 1
274 414 1
274 430 1
274 478 1
275 118 1
275 134 1
275 182 1
275 315 1
275 331 1
275 379 1
275 415 1
275 431 1
275 479 1
276 119 1
276 135 1
276 183 1
276 319 1
276 335 1
276 383 1
276 401 1
276 417 1
276 465 1
277 120 1
277 136 1
277 184 1
277 307 1
277 323 1
277 371 1
277 404 1
277 420 1
277 468 1
278 116 1
278 132 1
278 180 1
278 318 1
278 334 1
278 382 1
278 416 1
278 432 1
278 480 1
279 121 1
279 137 1
279 185 1
279 320 1
279 336 1
279 384 1
279 402 1
279 418 1
279 466 1
280 122 1
280 138 1
280 186 1
280 310 1
280 326 1
280 374 1
280 407 1
280 423 1
280 471 1
281 124 1
281 140 1
281 188 1
281 305 1
281 321 1
281 369 1
281 403 1
281 419 1
281 467 1
282 125 1
282 141 1
282 189 1
282 308 1
282 324 1
282 372 1
282 409 1
282 425 1
282 473 1
283 126 1
283 142 1
283 190 1
283 313 1
283 329 1
283 377 1
283 405 1
283 421 1
283 469 1
284 117 1
284 133 1
284 181 1
284 306 1
284 322 1
284 370 1
284 406 1
284 422 1
284 470 1
285 123 1
285 139 1
285 187 1
285 311 1
285 327 1
285 375 1
285 412 1
285 428 1
285 476 1
286 127 1
286 143 1
286 191 1
286 316 1
286 332 1
286 380 1
286 408 1
286 424 1
286 472 1
287 128 1
287 144 1
287 192 1
287 309 1
287 325 1
287 373 1
287 410 1
287 426 1
287 474 1
288 113 1
288 129 1
288 177 1
288 312 1
288 328 1
288 376 1
288 413 1
288 429 1
288 477 1
