%%MatrixMarket matrix coordinate integer general
324 648 2916
1 1 1
1 55 1
1 73 1
1 109 1
1 163 1
1 181 1
1 325 1
1 379 1
1 397 1
2 2 1
2 56 1
2 74 1
2 110 1
2 164 1
2 182 1
2 326 1
2 380 1
2 398 1
3 3 1
3 57 1
3 75 1
3 111 1
3 165 1
3 183 1
3 327 1
3 381 1
3 399 1
4 4 1
4 58 1
4 76 1
4 112 1
4 166 1
4 184 1
4 328 1
4 382 1
4 400 1
5 5 1
5 59 1
5 77 1
5 113 1
5 167 1
5 185 1
5 329 1
5 383 1
5 401 1
6 6 1
6 60 1
6 78 1
6 114 1
6 168 1
6 186 1
6 330 1
6 384 1
6 402 1
7 7 1
7 61 1
7 79 1
7 115 1
7 169 1
7 187 1
7 331 1
7 385 1
7 403 1
8 8 1
8 62 1
8 80 1
8 116 1
8 170 1
8 188 1
8 332 1
8 386 1
8 404 1
9 9 1
9 63 1
9 81 1
9 117 1
9 171 1
9 189 1
9 333 1
9 387 1
9 405 1
10 10 1
10 64 1
10 82 1
10 118 1
10 172 1
10 190 1
10 334 1
10 388 1
10 406 1
11 11 1
11 65 1
11 83 1
11 119 1
11 173 1
11 191 1
11 335 1
11 389 1
11 407 1
12 12 1
12 66 1
12 84 1
12 120 1
12 174 1
12 192 1
12 336 1
12 390 1
12 408 1
13 13 1
13 67 1
13 85 1
13 121 1
13 175 1
13 193 1
13 337 1
13 391 1
13 409 1
14 14 1
14 68 1
14 86 1
14 122 1
14 176 1
14 194 1
14 338 1
14 392 1
14 410 1
15 15 1
15 69 1
15 87 1
15 123 1
15 177 1
15 195 1
15 339 1
15 393 1
15 411 1
16 16 1
16 70 1
16 88 1
16 124 1
16 178 1
16 196 1
16 340 1
16 394 1
16 412 1
17 17 1
17 71 1
17 89 1
17 125 1
17 179 1
17 197 1
17 341 1
17 395 1
17 413 1
18 18 1
18 72 1
18 90 1
18 126 1
18 180 1
18 198 1
18 342 1
18 396 1
18 414 1
19 19 1
19 55 1
19 91 1
19 127 1
19 163 1
19 199 1
19 343 1
19 379 1
19 415 1
20 20 1
20 56 1
20 92 1
20 128 1
20 164 1
20 200 1
20 344 1
20 380 1
20 416 1
21 21 1
21 57 1
21 93 1
21 129 1
21 165 1
21 201 1
21 345 1
21 381 1
21 417 1
22 22 1
22 58 1
22 94 1
22 130 1
22 166 1
22 202 1
22 346 1
22 382 1
22 418 1
23 23 1
23 59 1
23 95 1
23 131 1
23 167 1
23 203 1
23 347 1
23 383 1
23 419 1
24 24 1
24 60 1
24 96 1
24 132 1
24 168 1
24 204 1
24 348 1
24 384 1
24 420 1
25 25 1
25 61 1
25 97 1
25 133 1
25 169 1
25 205 1
25 349 1
25 385 1
25 421 1
26 26 1
26 62 1
26 98 1
26 134 1
26 170 1
26 206 1
26 350 1
26 386 1
26 422 1
27 27 1
27 63 1
27 99 1
27 135 1
27 171 1
27 207 1
27 351 1
27 387 1
27 423 1
28 28 1
28 64 1
28 100 1
28 136 1
28 172 1
28 208 1
28 352 1
28 388 1
28 424 1
29 29 1
29 65 1
29 101 1
29 137 1
29 173 1
29 209 1
29 353 1
29 389 1
29 425 1
30 30 1
30 66 1
30 102 1
30 138 1
30 174 1
30 210 1
30 354 1
30 390 1
30 426 1
31 31 1
31 67 1
31 103 1
31 139 1
31 175 1
31 211 1
31 355 1
31 391 1
31 427 1
32 32 1
32 68 1
32 104 1
32 140 1
32 176 1
32 212 1
32 356 1
32 392 1
32 428 1
33 33 1
33 69 1
33 105 1
33 141 1
33 177 1
33 213 1
33 357 1
33 393 1
33 429 1
34 34 1
34 70 1
34 106 1
34 142 1
34 178 1
34 214 1
34 358 1
34 394 1
34 430 1
35 35 1
35 71 1
35 107 1
35 143 1
35 179 1
35 215 1
35 359 1
35 395 1
35 431 1
36 36 1
36 72 1
36 108 1
36 144 1
36 180 1
36 216 1
36 360 1
36 396 1
36 432 1
37 37 1
37 73 1
37 91 1
37 145 1
37 181 1
37 199 1
37 361 1
37 397 1
37 415 1
38 38 1
38 74 1
38 92 1
38 146 1
38 182 1
38 200 1
38 362 1
38 398 1
38 416 1
39 39 1
39 75 1
39 93 1
39 147 1
39 183 1
39 201 1
39 363 1
39 399 1
39 417 1
40 40 1
40 76 1
40 94 1
40 148 1
40 184 1
40 202 1
40 364 1
40 400 1
40 418 1
41 41 1
41 77 1
41 95 1
41 149 1
41 185 1
41 203 1
41 365 1
41 401 1
41 419 1
42 42 1
42 78 1
42 96 1
42 150 1
42 186 1
42 204 1
42 366 1
42 402 1
42 420 1
43 43 1
43 79 1
43 97 1
43 151 1
43 187 1
43 205 1
43 367 1
43 403 1
43 421 1
44 44 1
44 80 1
44 98 1
44 152 1
44 188 1
44 206 1
44 368 1
44 404 1
44 422 1
45 45 1
45 81 1
45 99 1
45 153 1
45 189 1
45 207 1
45 369 1
45 405 1
45 423 1
46 46 1
46 82 1
46 100 1
46 154 1
46 190 1
46 208 1
46 370 1
46 406 1
46 424 1
47 47 1
47 83 1
47 101 1
47 155 1
47 191 1
47 209 1
47 371 1
47 407 1
47 425 1
48 48 1
48 84 1
48 102 1
48 156 1
48 192 1
48 210 1
48 372 1
48 408 1
48 426 1
49 49 1
49 85 1
49 103 1
49 157 1
49 193 1
49 211 1
49 373 1
49 409 1
49 427 1
50 50 1
50 86 1
50 104 1
50 158 1
50 194 1
50 212 1
50 374 1
50 410 1
50 428 1
51 51 1
51 87 1
51 105 1
51 159 1
51 195 1
51 213 1
51 375 1
51 411 1
51 429 1
52 52 1
52 88 1
52 106 1
52 160 1
52 196 1
52 214 1
52 376 1
52 412 1
52 430 1
53 53 1
53 89 1
53 107 1
53 161 1
53 197 1
53 215 1
53 377 1
53 413 1
53 431 1
54 54 1
54 90 1
54 108 1
54 162 1
54 198 1
54 216 1
54 378 1
54 414 1
54 432 1
55 1 1
55 55 1
55 73 1
55 217 1
55 271 1
55 289 1
55 433 1
55 487 1
55 505 1
56 2 1
56 56 1
56 74 1
56 218 1
56 272 1
56 290 1
56 434 1
56 488 1
56 506 1
57 3 1
57 57 1
57 75 1
57 219 1
57 273 1
57 291 1
57 435 1
57 489 1
57 507 1
58 4 1
58 58 1
58 76 1
58 220 1
58 274 1
58 292 1
58 436 1
58 490 1
58 508 1
59 5 1
59 59 1
59 77 1
59 221 1
59 275 1
59 293 1
59 437 1
59 491 1
59 509 1
60 6 1
60 60 1
60 78 1
60 222 1
60 276 1
60 294 1
60 438 1
60 492 1
60 510 1
61 7 1
61 61 1
61 79 1
61 223 1
61 277 1
61 295 1
61 439 1
61 493 1
61 511 1
62 8 1
62 62 1
62 80 1
62 224 1
62 278 1
62 296 1
62 440 1
62 494 1
62 512 1
63 9 1
63 63 1
63 81 1
63 225 1
63 279 1
63 297 1
63 441 1
63 495 1
63 513 1
64 10 1
64 64 1
64 82 1
64 226 1
64 280 1
64 298 1
64 442 1
64 496 1
64 514 1
65 11 1
65 65 1
65 83 1
65 227 1
65 281 1
65 299 1
65 443 1
65 497 1
65 515 1
66 12 1
66 66 1
66 84 1
66 228 1
66 282 1
66 300 1
66 444 1
66 498 1
66 516 1
67 13 1
67 67 1
67 85 1
67 229 1
67 283 1
67 301 1
67 445 1
67 499 1
67 517 1
68 14 1
68 68 1
68 86 1
68 230 1
68 284 1
68 302 1
68 446 1
68 500 1
68 518 1
69 15 1
69 69 1
69 87 1
69 231 1
69 285 1
69 303 1
69 447 1
69 501 1
69 519 1
70 16 1
70 70 1
70 88 1
70 232 1
70 286 1
70 304 1
70 448 1
70 502 1
70 520 1
71 17 1
71 71 1
71 89 1
71 233 1
71 287 1
71 305 1
71 449 1
71 503 1
71 521 1
72 18 1
72 72 1
72 90 1
72 234 1
72 288 1
72 306 1
72 450 1
72 504 1
72 522 1
73 19 1
73 55 1
73 91 1
73 235 1
73 271 1
73 307 1
73 451 1
73 487 1
73 523 1
74 20 1
74 56 1
74 92 1
74 236 1
74 272 1
74 308 1
74 452 1
74 488 1
74 524 1
75 21 1
75 57 1
75 93 1
75 237 1
75 273 1
75 309 1
75 453 1
75 489 1
75 525 1
76 22 1
76 58 1
76 94 1
76 238 1
76 274 1
76 310 1
76 454 1
76 490 1
76 526 1
77 23 1
77 59 1
77 95 1
77 239 1
77 275 1
77 311 1
77 455 1
77 491 1
77 527 1
78 24 1
78 60 1
78 96 1
78 240 1
78 276 1
78 312 1
78 456 1
78 492 1
78 528 1
79 25 1
79 61 1
79 97 1
79 241 1
79 277 1
79 313 1
79 457 1
79 493 1
79 529 1
80 26 1
80 62 1
80 98 1
80 242 1
80 278 1
80 314 1
80 458 1
80 494 1
80 530 1
81 27 1
81 63 1
81 99 1
81 243 1
81 279 1
81 315 1
81 459 1
81 495 1
81 531 1
82 28 1
82 64 1
82 100 1
82 244 1
82 280 1
82 316 1
82 460 1
82 496 1
82 532 1
83 29 1
83 65 1
83 101 1
83 245 1
83 281 1
83 317 1
83 461 1
83 497 1
83 533 1
84 30 1
84 66 1
84 102 1
84 246 1
84 282 1
84 318 1
84 462 1
84 498 1
84 534 1
85 31 1
85 67 1
85 103 1
85 247 1
85 283 1
85 319 1
85 463 1
85 499 1
85 535 1
86 32 1
86 68 1
86 104 1
86 248 1
86 284 1
86 320 1
86 464 1
86 500 1
86 536 1
87 33 1
87 69 1
87 105 1
87 249 1
87 285 1
87 321 1
87 465 1
87 501 1
87 537 1
88 34 1
88 70 1
88 106 1
88 250 1
88 286 1
88 322 1
88 466 1
88 502 1
88 538 1
89 35 1
89 71 1
89 107 1
89 251 1
89 287 1
89 323 1
89 467 1
89 503 1
89 539 1
90 36 1
90 72 1
90 108 1
90 252 1
90 288 1
90 324 1
90 468 1
90 504 1
90 540 1
91 37 1
91 73 1
91 91 1
91 253 1
91 289 1
91 307 1
91 469 1
91 505 1
91 523 1
92 38 1
92 74 1
92 92 1
92 254 1
92 290 1
92 308 1
92 470 1
92 506 1
92 524 1
93 39 1
93 75 1
93 93 1
93 255 1
93 291 1
93 309 1
93 471 1
93 507 1
93 525 1
94 40 1
94 76 1
94 94 1
94 256 1
94 292 1
94 310 1
94 472 1
94 508 1
94 526 1
95 41 1
95 77 1
95 95 1
95 257 1
95 293 1
95 311 1
95 473 1
95 509 1
95 527 1
96 42 1
96 78 1
96 96 1
96 258 1
96 294 1
96 312 1
96 474 1
96 510 1
96 528 1
97 43 1
97 79 1
97 97 1
97 259 1
97 295 1
97 313 1
97 475 1
97 511 1
97 529 1
98 44 1
98 80 1
98 98 1
98 260 1
98 296 1
98 314 1
98 476 1
98 512 1
98 530 1
99 45 1
99 81 1
99 99 1
99 261 1
99 297 1
99 315 1
99 477 1
99 513 1
99 531 1
100 46 1
100 82 1
100 100 1
100 262 1
100 298 1
100 316 1
100 478 1
100 514 1
100 532 1
101 47 1
101 83 1
101 101 1
101 263 1
101 299 1
101 317 1
101 479 1
101 515 1
101 533 1
102 48 1
102 84 1
102 102 1
102 264 1
102 300 1
102 318 1
102 480 1
102 516 1
102 534 1
103 49 1
103 85 1
103 103 1
103 265 1
103 301 1
103 319 1
103 481 1
103 517 1
103 535 1
104 50 1
104 86 1
104 104 1
104 266 1
104 302 1
104 320 1
104 482 1
104 518 1
104 536 1
105 51 1
105 87 1
105 105 1
105 267 1
105 303 1
105 321 1
105 483 1
105 519 1
105 537 1
106 52 1
106 88 1
106 106 1
106 268 1
106 304 1
106 322 1
106 484 1
106 520 1
106 538 1
107 53 1
107 89 1
107 107 1
107 269 1
107 305 1
107 323 1
107 485 1
107 521 1
107 539 1
108 54 1
108 90 1
108 108 1
108 270 1
108 306 1
108 324 1
108 486 1
108 522 1
108 540 1
109 109 1
109 163 1
109 181 1
109 217 1
109 271 1
109 289 1
109 541 1
109 595 1
109 613 1
110 110 1
110 164 1
110 182 1
110 218 1
110 272 1
110 290 1
110 542 1
110 596 1
110 614 1
111 111 1
111 165 1
111 183 1
111 219 1
111 273 1
111 291 1
111 543 1
111 597 1
111 615 1
112 112 1
112 166 1
112 184 1
112 220 1
112 274 1
112 292 1
112 544 1
112 598 1
112 616 1
113 113 1
113 167 1
113 185 1
113 221 1
113 275 1
113 293 1
113 545 1
113 599 1
113 617 1
114 114 1
114 168 1
114 186 1
114 222 1
114 276 1
114 294 1
114 546 1
114 600 1
114 618 1
115 115 1
115 169 1
115 187 1
115 223 1
115 277 1
115 295 1
115 547 1
115 601 1
115 619 1
116 116 1
116 170 1
116 188 1
116 224 1
116 278 1
116 296 1
116 548 1
116 602 1
116 620 1
117 117 1
117 171 1
117 189 1
117 225 1
117 279 1
117 297 1
117 549 1
117 603 1
117 621 1
118 118 1
118 172 1
118 190 1
118 226 1
118 280 1
118 298 1
118 550 1
118 604 1
118 622 1
119 119 1
119 173 1
119 191 1
119 227 1
119 281 1
119 299 1
119 551 1
119 605 1
119 623 1
120 120 1
120 174 1
120 192 1
120 228 1
120 282 1
120 300 1
120 552 1
120 606 1
120 624 1
121 121 1
121 175 1
121 193 1
121 229 1
121 283 1
121 301 1
121 553 1
121 607 1
121 625 1
122 122 1
122 176 1
122 194 1
122 230 1
122 284 1
122 302 1
122 554 1
122 608 1
122 626 1
123 123 1
123 177 1
123 195 1
123 231 1
123 285 1
123 303 1
123 555 1
123 609 1
123 627 1
124 124 1
124 178 1
124 196 1
124 232 1
124 286 1
124 304 1
124 556 1
124 610 1
124 628 1
125 125 1
125 179 1
125 197 1
125 233 1
125 287 1
125 305 1
125 557 1
125 611 1
125 629 1
126 126 1
126 180 1
126 198 1
126 234 1
126 288 1
126 306 1
126 558 1
126 612 1
126 630 1
127 127 1
127 163 1
127 199 1
127 235 1
127 271 1
127 307 1
127 559 1
127 595 1
127 631 1
128 128 1
128 164 1
128 200 1
128 236 1
128 272 1
128 308 1
128 560 1
128 596 1
128 632 1
129 129 1
129 165 1
129 201 1
129 237 1
129 273 1
129 309 1
129 561 1
129 597 1
129 633 1
130 130 1
130 166 1
130 202 1
130 238 1
130 274 1
130 310 1
130 562 1
130 598 1
130 634 1
131 131 1
131 167 1
131 203 1
131 239 1
131 275 1
131 311 1
131 563 1
131 599 1
131 635 1
132 132 1
132 168 1
132 204 1
132 240 1
132 276 1
132 312 1
132 564 1
132 600 1
132 636 1
133 133 1
133 169 1
133 205 1
133 241 1
133 277 1
133 313 1
133 565 1
133 601 1
133 637 1
134 134 1
134 170 1
134 206 1
134 242 1
134 278 1
134 314 1
134 566 1
134 602 1
134 638 1
135 135 1
135 171 1
135 207 1
135 243 1
135 279 1
135 315 1
135 567 1
135 603 1
135 639 1
136 136 1
136 172 1
136 208 1
136 244 1
136 280 1
136 316 1
136 568 1
136 604 1
136 640 1
137 137 1
137 173 1
137 209 1
137 245 1
137 281 1
137 317 1
137 569 1
137 605 1
137 641 1
138 138 1
138 174 1
138 210 1
138 246 1
138 282 1
138 318 1
138 570 1
138 606 1
138 642 1
139 139 1
139 175 1
139 211 1
139 247 1
139 283 1
139 319 1
139 571 1
139 607 1
139 643 1
140 140 1
140 176 1
140 212 1
140 248 1
140 284 1
140 320 1
140 572 1
140 608 1
140 644 1
141 141 1
141 177 1
141 213 1
141 249 1
141 285 1
141 321 1
141 573 1
141 609 1
141 645 1
142 142 1
142 178 1
142 214 1
142 250 1
142 286 1
142 322 1
142 574 1
142 610 1
142 646 1
143 143 1
143 179 1
143 215 1
143 251 1
143 287 1
143 323 1
143 575 1
143 611 1
143 647 1
144 144 1
144 180 1
144 216 1
144 252 1
144 288 1
144 324 1
144 576 1
144 612 1
144 648 1
145 145 1
145 181 1
145 199 1
145 253 1
145 289 1
145 307 1
145 577 1
145 613 1
145 631 1
146 146 1
146 182 1
146 200 1
146 254 1
146 290 1
146 308 1
146 578 1
146 614 1
146 632 1
147 147 1
147 183 1
147 201 1
147 255 1
147 291 1
147 309 1
147 579 1
147 615 1
147 633 1
148 148 1
148 184 1
148 202 1
148 256 1
148 292 1
148 310 1
148 580 1
148 616 1
148 634 1
149 149 1
149 185 1
149 203 1
149 257 1
149 293 1
149 311 1
149 581 1
149 617 1
149 635 1
150 150 1
150 186 1
150 204 1
150 258 1
150 294 1
150 312 1
150 582 1
150 618 1
150 636 1
151 151 1
151 187 1
151 205 1
151 259 1
151 295 1
151 313 1
151 583 1
151 619 1
151 637 1
152 152 1
152 188 1
152 206 1
152 260 1
152 296 1
152 314 1
152 584 1
152 620 1
152 638 1
153 153 1
153 189 1
153 207 1
153 261 1
153 297 1
153 315 1
153 585 1
153 621 1
153 639 1
154 154 1
154 190 1
154 208 1
154 262 1
154 298 1
154 316 1
154 586 1
154 622 1
154 640 1
155 155 1
155 191 1
155 209 1
155 263 1
155 299 1
155 317 1
155 587 1
155 623 1
155 641 1
156 156 1
156 192 1
156 210 1
156 264 1
156 300 1
156 318 1
156 588 1
156 624 1
156 642 1
157 157 1
157 193 1
157 211 1
157 265 1
157 301 1
157 319 1
157 589 1
157 625 1
157 643 1
158 158 1
158 194 1
158 212 1
158 266 1
158 302 1
158 320 1
158 590 1
158 626 1
158 644 1
159 159 1
159 195 1
159 213 1
159 267 1
159 303 1
159 321 1
159 591 1
159 627 1
159 645 1
160 160 1
160 196 1
160 214 1
160 268 1
160 304 1
160 322 1
160 592 1
160 628 1
160 646 1
161 161 1
161 197 1
161 215 1
161 269 1
161 305 1
161 323 1
161 593 1
161 629 1
161 647 1
162 162 1
162 198 1
162 216 1
162 270 1
162 306 1
162 324 1
162 594 1
162 630 1
162 648 1
163 1 1
163 88 1
163 108 1
163 111 1
163 192 1
163 214 1
163 558 1
163 629 1
163 631 1
164 2 1
164 86 1
164 107 1
164 126 1
164 197 1
164 199 1
164 543 1
164 624 1
164 646 1
165 3 1
165 84 1
165 106 1
165 115 1
165 195 1
165 210 1
165 542 1
165 626 1
165 647 1
166 4 1
166 83 1
166 105 1
166 116 1
166 186 1
166 209 1
166 550 1
166 625 1
166 639 1
167 5 1
167 81 1
167 104 1
167 110 1
167 194 1
167 215 1
167 547 1
167 627 1
167 642 1
168 6 1
168 80 1
168 103 1
168 118 1
168 193 1
168 207 1
168 548 1
168 618 1
168 641 1
169 7 1
169 87 1
169 102 1
169 112 1
169 191 1
169 213 1
169 545 1
169 621 1
169 644 1
170 8 1
170 78 1
170 101 1
170 121 1
170 190 1
170 204 1
170 546 1
170 620 1
170 643 1
171 9 1
171 77 1
171 100 1
171 122 1
171 182 1
171 203 1
171 555 1
171 619 1
171 634 1
172 10 1
172 85 1
172 99 1
172 113 1
172 189 1
172 212 1
172 544 1
172 623 1
172 645 1
173 11 1
173 76 1
173 98 1
173 114 1
173 188 1
173 211 1
173 553 1
173 622 1
173 636 1
174 12 1
174 75 1
174 97 1
174 123 1
174 187 1
174 202 1
174 554 1
174 614 1
174 635 1
175 13 1
175 82 1
175 96 1
175 117 1
175 185 1
175 208 1
175 551 1
175 616 1
175 638 1
176 14 1
176 74 1
176 95 1
176 125 1
176 198 1
176 200 1
176 552 1
176 615 1
176 637 1
177 15 1
177 79 1
177 94 1
177 119 1
177 184 1
177 206 1
177 549 1
177 617 1
177 640 1
178 16 1
178 73 1
178 93 1
178 120 1
178 183 1
178 205 1
178 557 1
178 630 1
178 632 1
179 17 1
179 90 1
179 92 1
179 109 1
179 196 1
179 216 1
179 556 1
179 613 1
179 633 1
180 18 1
180 89 1
180 91 1
180 124 1
180 181 1
180 201 1
180 541 1
180 628 1
180 648 1
181 29 1
181 48 1
181 108 1
181 132 1
181 159 1
181 214 1
181 571 1
181 590 1
181 631 1
182 26 1
182 45 1
182 107 1
182 139 1
182 158 1
182 199 1
182 564 1
182 591 1
182 646 1
183 24 1
183 51 1
183 106 1
183 136 1
183 155 1
183 210 1
183 566 1
183 585 1
183 647 1
184 23 1
184 42 1
184 105 1
184 128 1
184 154 1
184 209 1
184 565 1
184 584 1
184 639 1
185 22 1
185 49 1
185 104 1
185 134 1
185 153 1
185 215 1
185 568 1
185 587 1
185 642 1
186 21 1
186 40 1
186 103 1
186 133 1
186 152 1
186 207 1
186 560 1
186 586 1
186 641 1
187 28 1
187 47 1
187 102 1
187 131 1
187 150 1
187 213 1
187 562 1
187 589 1
187 644 1
188 20 1
188 46 1
188 101 1
188 144 1
188 149 1
188 204 1
188 561 1
188 580 1
188 643 1
189 34 1
189 38 1
189 100 1
189 138 1
189 162 1
189 203 1
189 575 1
189 579 1
189 634 1
190 25 1
190 44 1
190 99 1
190 130 1
190 157 1
190 212 1
190 563 1
190 582 1
190 645 1
191 19 1
191 43 1
191 98 1
191 129 1
191 148 1
191 211 1
191 576 1
191 581 1
191 636 1
192 32 1
192 37 1
192 97 1
192 143 1
192 147 1
192 202 1
192 570 1
192 594 1
192 635 1
193 36 1
193 41 1
193 96 1
193 142 1
193 146 1
193 208 1
193 559 1
193 583 1
193 638 1
194 30 1
194 54 1
194 95 1
194 141 1
194 160 1
194 200 1
194 572 1
194 577 1
194 637 1
195 35 1
195 39 1
195 94 1
195 127 1
195 151 1
195 206 1
195 574 1
195 578 1
195 640 1
196 27 1
196 53 1
196 93 1
196 140 1
196 145 1
196 205 1
196 573 1
196 592 1
196 632 1
197 33 1
197 52 1
197 92 1
197 137 1
197 156 1
197 216 1
197 567 1
197 593 1
197 633 1
198 31 1
198 50 1
198 91 1
198 135 1
198 161 1
198 201 1
198 569 1
198 588 1
198 648 1
199 48 1
199 62 1
199 88 1
199 159 1
199 175 1
199 192 1
199 590 1
199 600 1
199 629 1
200 45 1
200 65 1
200 86 1
200 158 1
200 168 1
200 197 1
200 591 1
200 607 1
200 624 1
201 51 1
201 67 1
201 84 1
201 155 1
201 171 1
201 195 1
201 585 1
201 605 1
201 626 1
202 42 1
202 68 1
202 83 1
202 154 1
202 179 1
202 186 1
202 584 1
202 606 1
202 625 1
203 49 1
203 69 1
203 81 1
203 153 1
203 173 1
203 194 1
203 587 1
203 603 1
203 627 1
204 40 1
204 70 1
204 80 1
204 152 1
204 174 1
204 193 1
204 586 1
204 611 1
204 618 1
205 47 1
205 63 1
205 87 1
205 150 1
205 176 1
205 191 1
205 589 1
205 609 1
205 621 1
206 46 1
206 71 1
206 78 1
206 149 1
206 163 1
206 190 1
206 580 1
206 610 1
206 620 1
207 38 1
207 57 1
207 77 1
207 162 1
207 169 1
207 182 1
207 579 1
207 596 1
207 619 1
208 44 1
208 66 1
208 85 1
208 157 1
208 177 1
208 189 1
208 582 1
208 608 1
208 623 1
209 43 1
209 72 1
209 76 1
209 148 1
209 178 1
209 188 1
209 581 1
209 595 1
209 622 1
210 37 1
210 59 1
210 75 1
210 147 1
210 164 1
210 187 1
210 594 1
210 601 1
210 614 1
211 41 1
211 55 1
211 82 1
211 146 1
211 165 1
211 185 1
211 583 1
211 612 1
211 616 1
212 54 1
212 61 1
212 74 1
212 160 1
212 166 1
212 198 1
212 577 1
212 599 1
212 615 1
213 39 1
213 56 1
213 79 1
213 151 1
213 180 1
213 184 1
213 578 1
213 597 1
213 617 1
214 53 1
214 64 1
214 73 1
214 145 1
214 167 1
214 183 1
214 592 1
214 598 1
214 630 1
215 52 1
215 58 1
215 90 1
215 156 1
215 170 1
215 196 1
215 593 1
215 604 1
215 613 1
216 50 1
216 60 1
216 89 1
216 161 1
216 172 1
216 181 1
216 588 1
216 602 1
216 628 1
217 1 1
217 88 1
217 108 1
217 335 1
217 400 1
217 422 1
217 446 1
217 506 1
217 527 1
218 2 1
218 86 1
218 107 1
218 337 1
218 406 1
218 420 1
218 442 1
218 517 1
218 531 1
219 3 1
219 84 1
219 106 1
219 339 1
219 403 1
219 418 1
219 449 1
219 522 1
219 524 1
220 4 1
220 83 1
220 105 1
220 340 1
220 397 1
220 417 1
220 435 1
220 516 1
220 538 1
221 5 1
221 81 1
221 104 1
221 333 1
221 401 1
221 424 1
221 438 1
221 512 1
221 535 1
222 6 1
222 80 1
222 103 1
222 341 1
222 414 1
222 416 1
222 447 1
222 511 1
222 526 1
223 7 1
223 87 1
223 102 1
223 336 1
223 399 1
223 421 1
223 433 1
223 520 1
223 540 1
224 8 1
224 78 1
224 101 1
224 342 1
224 413 1
224 415 1
224 439 1
224 519 1
224 534 1
225 9 1
225 77 1
225 100 1
225 329 1
225 405 1
225 428 1
225 440 1
225 510 1
225 533 1
226 10 1
226 85 1
226 99 1
226 338 1
226 398 1
226 419 1
226 443 1
226 508 1
226 530 1
227 11 1
227 76 1
227 98 1
227 325 1
227 412 1
227 432 1
227 444 1
227 507 1
227 529 1
228 12 1
228 75 1
228 97 1
228 331 1
228 411 1
228 426 1
228 450 1
228 521 1
228 523 1
229 13 1
229 82 1
229 96 1
229 326 1
229 410 1
229 431 1
229 436 1
229 515 1
229 537 1
230 14 1
230 74 1
230 95 1
230 334 1
230 409 1
230 423 1
230 445 1
230 514 1
230 528 1
231 15 1
231 79 1
231 94 1
231 327 1
231 408 1
231 430 1
231 448 1
231 505 1
231 525 1
232 16 1
232 73 1
232 93 1
232 328 1
232 407 1
232 429 1
232 434 1
232 518 1
232 539 1
233 17 1
233 90 1
233 92 1
233 330 1
233 404 1
233 427 1
233 441 1
233 509 1
233 532 1
234 18 1
234 89 1
234 91 1
234 332 1
234 402 1
234 425 1
234 437 1
234 513 1
234 536 1
235 29 1
235 48 1
235 108 1
235 343 1
235 367 1
235 422 1
235 462 1
235 486 1
235 527 1
236 26 1
236 45 1
236 107 1
236 360 1
236 365 1
236 420 1
236 457 1
236 476 1
236 531 1
237 24 1
237 51 1
237 106 1
237 359 1
237 363 1
237 418 1
237 465 1
237 484 1
237 524 1
238 23 1
238 42 1
238 105 1
238 351 1
238 377 1
238 417 1
238 456 1
238 483 1
238 538 1
239 22 1
239 49 1
239 104 1
239 358 1
239 362 1
239 424 1
239 453 1
239 472 1
239 535 1
240 21 1
240 40 1
240 103 1
240 357 1
240 376 1
240 416 1
240 467 1
240 471 1
240 526 1
241 28 1
241 47 1
241 102 1
241 356 1
241 361 1
241 421 1
241 461 1
241 480 1
241 540 1
242 20 1
242 46 1
242 101 1
242 355 1
242 374 1
242 415 1
242 460 1
242 479 1
242 534 1
243 34 1
243 38 1
243 100 1
243 346 1
243 373 1
243 428 1
243 452 1
243 478 1
243 533 1
244 25 1
244 44 1
244 99 1
244 354 1
244 378 1
244 419 1
244 451 1
244 475 1
244 530 1
245 19 1
245 43 1
245 98 1
245 353 1
245 372 1
245 432 1
245 464 1
245 469 1
245 529 1
246 32 1
246 37 1
246 97 1
246 352 1
246 371 1
246 426 1
246 463 1
246 482 1
246 523 1
247 36 1
247 41 1
247 96 1
247 350 1
247 369 1
247 431 1
247 455 1
247 474 1
247 537 1
248 30 1
248 54 1
248 95 1
248 349 1
248 368 1
248 423 1
248 468 1
248 473 1
248 528 1
249 35 1
249 39 1
249 94 1
249 348 1
249 375 1
249 430 1
249 459 1
249 485 1
249 525 1
250 27 1
250 53 1
250 93 1
250 347 1
250 366 1
250 429 1
250 458 1
250 477 1
250 539 1
251 33 1
251 52 1
251 92 1
251 345 1
251 364 1
251 427 1
251 466 1
251 470 1
251 532 1
252 31 1
252 50 1
252 91 1
252 344 1
252 370 1
252 425 1
252 454 1
252 481 1
252 536 1
253 48 1
253 62 1
253 88 1
253 367 1
253 396 1
253 400 1
253 486 1
253 493 1
253 506 1
254 45 1
254 65 1
254 86 1
254 365 1
254 379 1
254 406 1
254 476 1
254 498 1
254 517 1
255 51 1
255 67 1
255 84 1
255 363 1
255 380 1
255 403 1
255 484 1
255 490 1
255 522 1
256 42 1
256 68 1
256 83 1
256 377 1
256 388 1
256 397 1
256 483 1
256 499 1
256 516 1
257 49 1
257 69 1
257 81 1
257 362 1
257 381 1
257 401 1
257 472 1
257 502 1
257 512 1
258 40 1
258 70 1
258 80 1
258 376 1
258 382 1
258 414 1
258 471 1
258 488 1
258 511 1
259 47 1
259 63 1
259 87 1
259 361 1
259 383 1
259 399 1
259 480 1
259 494 1
259 520 1
260 46 1
260 71 1
260 78 1
260 374 1
260 384 1
260 413 1
260 479 1
260 495 1
260 519 1
261 38 1
261 57 1
261 77 1
261 373 1
261 393 1
261 405 1
261 478 1
261 503 1
261 510 1
262 44 1
262 66 1
262 85 1
262 378 1
262 385 1
262 398 1
262 475 1
262 504 1
262 508 1
263 43 1
263 72 1
263 76 1
263 372 1
263 386 1
263 412 1
263 469 1
263 491 1
263 507 1
264 37 1
264 59 1
264 75 1
264 371 1
264 387 1
264 411 1
264 482 1
264 492 1
264 521 1
265 41 1
265 55 1
265 82 1
265 369 1
265 389 1
265 410 1
265 474 1
265 500 1
265 515 1
266 54 1
266 61 1
266 74 1
266 368 1
266 390 1
266 409 1
266 473 1
266 487 1
266 514 1
267 39 1
267 56 1
267 79 1
267 375 1
267 391 1
267 408 1
267 485 1
267 496 1
267 505 1
268 53 1
268 64 1
268 73 1
268 366 1
268 392 1
268 407 1
268 477 1
268 497 1
268 518 1
269 52 1
269 58 1
269 90 1
269 364 1
269 394 1
269 404 1
269 470 1
269 489 1
269 509 1
270 50 1
270 60 1
270 89 1
270 370 1
270 395 1
270 402 1
270 481 1
270 501 1
270 513 1
271 111 1
271 192 1
271 214 1
271 220 1
271 299 1
271 321 1
271 335 1
271 400 1
271 422 1
272 126 1
272 197 1
272 199 1
272 228 1
272 291 1
272 313 1
272 337 1
272 406 1
272 420 1
273 115 1
273 195 1
273 210 1
273 224 1
273 294 1
273 317 1
273 339 1
273 403 1
273 418 1
274 116 1
274 186 1
274 209 1
274 225 1
274 293 1
274 316 1
274 340 1
274 397 1
274 417 1
275 110 1
275 194 1
275 215 1
275 232 1
275 289 1
275 309 1
275 333 1
275 401 1
275 424 1
276 118 1
276 193 1
276 207 1
276 218 1
276 302 1
276 323 1
276 341 1
276 414 1
276 416 1
277 112 1
277 191 1
277 213 1
277 229 1
277 298 1
277 312 1
277 336 1
277 399 1
277 421 1
278 121 1
278 190 1
278 204 1
278 230 1
278 290 1
278 311 1
278 342 1
278 413 1
278 415 1
279 122 1
279 182 1
279 203 1
279 217 1
279 304 1
279 324 1
279 329 1
279 405 1
279 428 1
280 113 1
280 189 1
280 212 1
280 234 1
280 305 1
280 307 1
280 338 1
280 398 1
280 419 1
281 114 1
281 188 1
281 211 1
281 221 1
281 297 1
281 320 1
281 325 1
281 412 1
281 432 1
282 123 1
282 187 1
282 202 1
282 222 1
282 296 1
282 319 1
282 331 1
282 411 1
282 426 1
283 117 1
283 185 1
283 208 1
283 233 1
283 306 1
283 308 1
283 326 1
283 410 1
283 431 1
284 125 1
284 198 1
284 200 1
284 219 1
284 300 1
284 322 1
284 334 1
284 409 1
284 423 1
285 119 1
285 184 1
285 206 1
285 226 1
285 301 1
285 315 1
285 327 1
285 408 1
285 430 1
286 120 1
286 183 1
286 205 1
286 227 1
286 292 1
286 314 1
286 328 1
286 407 1
286 429 1
287 109 1
287 196 1
287 216 1
287 223 1
287 303 1
287 318 1
287 330 1
287 404 1
287 427 1
288 124 1
288 181 1
288 201 1
288 231 1
288 295 1
288 310 1
288 332 1
288 402 1
288 425 1
289 132 1
289 159 1
289 214 1
289 239 1
289 258 1
289 321 1
289 343 1
289 367 1
289 422 1
290 139 1
290 158 1
290 199 1
290 248 1
290 253 1
290 313 1
290 360 1
290 365 1
290 420 1
291 136 1
291 155 1
291 210 1
291 236 1
291 262 1
291 317 1
291 359 1
291 363 1
291 418 1
292 128 1
292 154 1
292 209 1
292 250 1
292 254 1
292 316 1
292 351 1
292 377 1
292 417 1
293 134 1
293 153 1
293 215 1
293 243 1
293 269 1
293 309 1
293 358 1
293 362 1
293 424 1
294 133 1
294 152 1
294 207 1
294 242 1
294 261 1
294 323 1
294 357 1
294 376 1
294 416 1
295 131 1
295 150 1
295 213 1
295 252 1
295 257 1
295 312 1
295 356 1
295 361 1
295 421 1
296 144 1
296 149 1
296 204 1
296 246 1
296 270 1
296 311 1
296 355 1
296 374 1
296 415 1
297 138 1
297 162 1
297 203 1
297 245 1
297 264 1
297 324 1
297 346 1
297 373 1
297 428 1
298 130 1
298 157 1
298 212 1
298 247 1
298 266 1
298 307 1
298 354 1
298 378 1
298 419 1
299 129 1
299 148 1
299 211 1
299 238 1
299 265 1
299 320 1
299 353 1
299 372 1
299 432 1
300 143 1
300 147 1
300 202 1
300 237 1
300 256 1
300 319 1
300 352 1
300 371 1
300 426 1
301 142 1
301 146 1
301 208 1
301 249 1
301 268 1
301 308 1
301 350 1
301 369 1
301 431 1
302 141 1
302 160 1
302 200 1
302 240 1
302 267 1
302 322 1
302 349 1
302 368 1
302 423 1
303 127 1
303 151 1
303 206 1
303 241 1
303 260 1
303 315 1
303 348 1
303 375 1
303 430 1
304 140 1
304 145 1
304 205 1
304 235 1
304 259 1
304 314 1
304 347 1
304 366 1
304 429 1
305 137 1
305 156 1
305 216 1
305 244 1
305 263 1
305 318 1
305 345 1
305 364 1
305 427 1
306 135 1
306 161 1
306 201 1
306 251 1
306 255 1
306 310 1
306 344 1
306 370 1
306 425 1
307 159 1
307 175 1
307 192 1
307 258 1
307 284 1
307 299 1
307 367 1
307 396 1
307 400 1
308 158 1
308 168 1
308 197 1
308 253 1
308 275 1
308 291 1
308 365 1
308 379 1
308 406 1
309 155 1
309 171 1
309 195 1
309 262 1
309 287 1
309 294 1
309 363 1
309 380 1
309 403 1
310 154 1
310 179 1
310 186 1
310 254 1
310 273 1
310 293 1
310 377 1
310 388 1
310 397 1
311 153 1
311 173 1
311 194 1
311 269 1
311 280 1
311 289 1
311 362 1
311 381 1
311 401 1
312 152 1
312 174 1
312 193 1
312 261 1
312 281 1
312 302 1
312 376 1
312 382 1
312 414 1
313 150 1
313 176 1
313 191 1
313 257 1
313 271 1
313 298 1
313 361 1
313 383 1
313 399 1
314 149 1
314 163 1
314 190 1
314 270 1
314 277 1
314 290 1
314 374 1
314 384 1
314 413 1
315 162 1
315 169 1
315 182 1
315 264 1
315 278 1
315 304 1
315 373 1
315 393 1
315 405 1
316 157 1
316 177 1
316 189 1
316 266 1
316 276 1
316 305 1
316 378 1
316 385 1
316 398 1
317 148 1
317 178 1
317 188 1
317 265 1
317 285 1
317 297 1
317 372 1
317 386 1
317 412 1
318 147 1
318 164 1
318 187 1
318 256 1
318 286 1
318 296 1
318 371 1
318 387 1
318 411 1
319 146 1
319 165 1
319 185 1
319 268 1
319 274 1
319 306 1
319 369 1
319 389 1
319 410 1
320 160 1
320 166 1
320 198 1
320 267 1
320 283 1
320 300 1
320 368 1
320 390 1
320 409 1
321 151 1
321 180 1
321 184 1
321 260 1
321 282 1
321 301 1
321 375 1
321 391 1
321 408 1
322 145 1
322 167 1
322 183 1
322 259 1
322 288 1
322 292 1
322 366 1
322 392 1
322 407 1
323 156 1
323 170 1
323 196 1
323 263 1
323 279 1
323 303 1
323 364 1
323 394 1
323 404 1
324 161 1
324 172 1
324 181 1
324 255 1
324 272 1
324 295 1
324 370 1
324 395 1
324 402 1
