%%MatrixMarket matrix coordinate integer general
324 648 2916
1 1 1
1 55 1
1 73 1
1 109 1
1 163 1
1 181 1
1 325 1
1 379 1
1 397 1
2 2 1
2 56 1
2 74 1
2 110 1
2 164 1
2 182 1
2 326 1
2 380 1
2 398 1
3 3 1
3 57 1
3 75 1
3 111 1
3 165 1
3 183 1
3 327 1
3 381 1
3 399 1
4 4 1
4 58 1
4 76 1
4 112 1
4 166 1
4 184 1
4 328 1
4 382 1
4 400 1
5 5 1
5 59 1
5 77 1
5 113 1
5 167 1
5 185 1
5 329 1
5 383 1
5 401 1
6 6 1
6 60 1
6 78 1
6 114 1
6 168 1
6 186 1
6 330 1
6 384 1
6 402 1
7 7 1
7 61 1
7 79 1
7 115 1
7 169 1
7 187 1
7 331 1
7 385 1
7 403 1
8 8 1
8 62 1
8 80 1
8 116 1
8 170 1
8 188 1
8 332 1
8 386 1
8 404 1
9 9 1
9 63 1
9 81 1
9 117 1
9 171 1
9 189 1
9 333 1
9 387 1
9 405 1
10 10 1
10 64 1
10 82 1
10 118 1
10 172 1
10 190 1
10 334 1
10 388 1
10 406 1
11 11 1
11 65 1
11 83 1
11 119 1
11 173 1
11 191 1
11 335 1
11 389 1
11 407 1
12 12 1
12 66 1
12 84 1
12 120 1
12 174 1
12 192 1
12 336 1
12 390 1
12 408 1
13 13 1
13 67 1
13 85 1
13 121 1
13 175 1
13 193 1
13 337 1
13 391 1
13 409 1
14 14 1
14 68 1
14 86 1
14 122 1
14 176 1
14 194 1
14 338 1
14 392 1
14 410 1
15 15 1
15 69 1
15 87 1
15 123 1
15 177 1
15 195 1
15 339 1
15 393 1
15 411 1
16 16 1
16 70 1
16 88 1
16 124 1
16 178 1
16 196 1
16 340 1
16 394 1
16 412 1
17 17 1
17 71 1
17 89 1
17 125 1
17 179 1
17 197 1
17 341 1
17 395 1
17 413 1
18 18 1
18 72 1
18 90 1
18 126 1
18 180 1
18 198 1
18 342 1
18 396 1
18 414 1
19 19 1
19 55 1
19 91 1
19 127 1
19 163 1
19 199 1
19 343 1
19 379 1
19 415 1
20 20 1
20 56 1
20 92 1
20 128 1
20 164 1
20 200 1
20 344 1
20 380 1
20 416 1
21 21 1
21 57 1
21 93 1
21 129 1
21 165 1
21 201 1
21 345 1
21 381 1
21 417 1
22 22 1
22 58 1
22 94 1
22 130 1
22 166 1
22 202 1
22 346 1
22 382 1
22 418 1
23 23 1
23 59 1
23 95 1
23 131 1
23 167 1
23 203 1
23 347 1
23 383 1
23 419 1
24 24 1
24 60 1
24 96 1
24 132 1
24 168 1
24 204 1
24 348 1
24 384 1
24 420 1
25 25 1
25 61 1
25 97 1
25 133 1
25 169 1
25 205 1
25 349 1
25 385 1
25 421 1
26 26 1
26 62 1
26 98 1
26 134 1
26 170 1
26 206 1
26 350 1
26 386 1
26 422 1
27 27 1
27 63 1
27 99 1
27 135 1
27 171 1
27 207 1
27 351 1
27 387 1
27 423 1
28 28 1
28 64 1
28 100 1
28 136 1
28 172 1
28 208 1
28 352 1
28 388 1
28 424 1
29 29 1
29 65 1
29 101 1
29 137 1
29 173 1
29 209 1
29 353 1
29 389 1
29 425 1
30 30 1
30 66 1
30 102 1
30 138 1
30 174 1
30 210 1
30 354 1
30 390 1
30 426 1
31 31 1
31 67 1
31 103 1
31 139 1
31 175 1
31 211 1
31 355 1
31 391 1
31 427 1
32 32 1
32 68 1
32 104 1
32 140 1
32 176 1
32 212 1
32 356 1
32 392 1
32 428 1
33 33 1
33 69 1
33 105 1
33 141 1
33 177 1
33 213 1
33 357 1
33 393 1
33 429 1
34 34 1
34 70 1
34 106 1
34 142 1
34 178 1
34 214 1
34 358 1
34 394 1
34 430 1
35 35 1
35 71 1
35 107 1
35 143 1
35 179 1
35 215 1
35 359 1
35 395 1
35 431 1
36 36 1
36 72 1
36 108 1
36 144 1
36 180 1
36 216 1
36 360 1
36 396 1
36 432 1
37 37 1
37 73 1
37 91 1
37 145 1
37 181 1
37 199 1
37 361 1
37 397 1
37 415 1
38 38 1
38 74 1
38 92 1
38 146 1
38 182 1
38 200 1
38 362 1
38 398 1
38 416 1
39 39 1
39 75 1
39 93 1
39 147 1
39 183 1
39 201 1
39 363 1
39 399 1
39 417 1
40 40 1
40 76 1
40 94 1
40 148 1
40 184 1
40 202 1
40 364 1
40 400 1
40 418 1
41 41 1
41 77 1
41 95 1
41 149 1
41 185 1
41 203 1
41 365 1
41 401 1
41 419 1
42 42 1
42 78 1
42 96 1
42 150 1
42 186 1
42 204 1
42 366 1
42 402 1
42 420 1
43 43 1
43 79 1
43 97 1
43 151 1
43 187 1
43 205 1
43 367 1
43 403 1
43 421 1
44 44 1
44 80 1
44 98 1
44 152 1
44 188 1
44 206 1
44 368 1
44 404 1
44 422 1
45 45 1
45 81 1
45 99 1
45 153 1
45 189 1
45 207 1
45 369 1
45 405 1
45 423 1
46 46 1
46 82 1
46 100 1
46 154 1
46 190 1
46 208 1
46 370 1
46 406 1
46 424 1
47 47 1
47 83 1
47 101 1
47 155 1
47 191 1
47 209 1
47 371 1
47 407 1
47 425 1
48 48 1
48 84 1
48 102 1
48 156 1
48 192 1
48 210 1
48 372 1
48 408 1
48 426 1
49 49 1
49 85 1
49 103 1
49 157 1
49 193 1
49 211 1
49 373 1
49 409 1
49 427 1
50 50 1
50 86 1
50 104 1
50 158 1
50 194 1
50 212 1
50 374 1
50 410 1
50 428 1
51 51 1
51 87 1
51 105 1
51 159 1
51 195 1
51 213 1
51 375 1
51 411 1
51 429 1
52 52 1
52 88 1
52 106 1
52 160 1
52 196 1
52 214 1
52 376 1
52 412 1
52 430 1
53 53 1
53 89 1
53 107 1
53 161 1
53 197 1
53 215 1
53 377 1
53 413 1
53 431 1
54 54 1
54 90 1
54 108 1
54 162 1
54 198 1
54 216 1
54 378 1
54 414 1
54 432 1
55 1 1
55 55 1
55 73 1
55 217 1
55 271 1
55 289 1
55 433 1
55 487 1
55 505 1
56 2 1
56 56 1
56 74 1
56 218 1
56 272 1
56 290 1
56 434 1
56 488 1
56 506 1
57 3 1
57 57 1
57 75 1
57 219 1
57 273 1
57 291 1
57 435 1
57 489 1
57 507 1
58 4 1
58 58 1
58 76 1
58 220 1
58 274 1
58 292 1
58 436 1
58 490 1
58 508 1
59 5 1
59 59 1
59 77 1
59 221 1
59 275 1
59 293 1
59 437 1
59 491 1
59 509 1
60 6 1
60 60 1
60 78 1
60 222 1
60 276 1
60 294 1
60 438 1
60 492 1
60 510 1
61 7 1
61 61 1
61 79 1
61 223 1
61 277 1
61 295 1
61 439 1
61 493 1
61 511 1
62 8 1
62 62 1
62 80 1
62 224 1
62 278 1
62 296 1
62 440 1
62 494 1
62 512 1
63 9 1
63 63 1
63 81 1
63 225 1
63 279 1
63 297 1
63 441 1
63 495 1
63 513 1
64 10 1
64 64 1
64 82 1
64 226 1
64 280 1
64 298 1
64 442 1
64 496 1
64 514 1
65 11 1
65 65 1
65 83 1
65 227 1
65 281 1
65 299 1
65 443 1
65 497 1
65 515 1
66 12 1
66 66 1
66 84 1
66 228 1
66 282 1
66 300 1
66 444 1
66 498 1
66 516 1
67 13 1
67 67 1
67 85 1
67 229 1
67 283 1
67 301 1
67 445 1
67 499 1
67 517 1
68 14 1
68 68 1
68 86 1
68 230 1
68 284 1
68 302 1
68 446 1
68 500 1
68 518 1
69 15 1
69 69 1
69 87 1
69 231 1
69 285 1
69 303 1
69 447 1
69 501 1
69 519 1
70 16 1
70 70 1
70 88 1
70 232 1
70 286 1
70 304 1
70 448 1
70 502 1
70 520 1
71 17 1
71 71 1
71 89 1
71 233 1
71 287 1
71 305 1
71 449 1
71 503 1
71 521 1
72 18 1
72 72 1
72 90 1
72 234 1
72 288 1
72 306 1
72 450 1
72 504 1
72 522 1
73 19 1
73 55 1
73 91 1
73 235 1
73 271 1
73 307 1
73 451 1
73 487 1
73 523 1
74 20 1
74 56 1
74 92 1
74 236 1
74 272 1
74 308 1
74 452 1
74 488 1
74 524 1
75 21 1
75 57 1
75 93 1
75 237 1
75 273 1
75 309 1
75 453 1
75 489 1
75 525 1
76 22 1
76 58 1
76 94 1
76 238 1
76 274 1
76 310 1
76 454 1
76 490 1
76 526 1
77 23 1
77 59 1
77 95 1
77 239 1
77 275 1
77 311 1
77 455 1
77 491 1
77 527 1
78 24 1
78 60 1
78 96 1
78 240 1
78 276 1
78 312 1
78 456 1
78 492 1
78 528 1
79 25 1
79 61 1
79 97 1
79 241 1
79 277 1
79 313 1
79 457 1
79 493 1
79 529 1
80 26 1
80 62 1
80 98 1
80 242 1
80 278 1
80 314 1
80 458 1
80 494 1
80 530 1
81 27 1
81 63 1
81 99 1
81 243 1
81 279 1
81 315 1
81 459 1
81 495 1
81 531 1
82 28 1
82 64 1
82 100 1
82 244 1
82 280 1
82 316 1
82 460 1
82 496 1
82 532 1
83 29 1
83 65 1
83 101 1
83 245 1
83 281 1
83 317 1
83 461 1
83 497 1
83 533 1
84 30 1
84 66 1
84 102 1
84 246 1
84 282 1
84 318 1
84 462 1
84 498 1
84 534 1
85 31 1
85 67 1
85 103 1
85 247 1
85 283 1
85 319 1
85 463 1
85 499 1
85 535 1
86 32 1
86 68 1
86 104 1
86 248 1
86 284 1
86 320 1
86 464 1
86 500 1
86 536 1
87 33 1
87 69 1
87 105 1
87 249 1
87 285 1
87 321 1
87 465 1
87 501 1
87 537 1
88 34 1
88 70 1
88 106 1
88 250 1
88 286 1
88 322 1
88 466 1
88 502 1
88 538 1
89 35 1
89 71 1
89 107 1
89 251 1
89 287 1
89 323 1
89 467 1
89 503 1
89 539 1
90 36 1
90 72 1
90 108 1
90 252 1
90 288 1
90 324 1
90 468 1
90 504 1
90 540 1
91 37 1
91 73 1
91 91 1
91 253 1
91 289 1
91 307 1
91 469 1
91 505 1
91 523 1
92 38 1
92 74 1
92 92 1
92 254 1
92 290 1
92 308 1
92 470 1
92 506 1
92 524 1
93 39 1
93 75 1
93 93 1
93 255 1
93 291 1
93 309 1
93 471 1
93 507 1
93 525 1
94 40 1
94 76 1
94 94 1
94 256 1
94 292 1
94 310 1
94 472 1
94 508 1
94 526 1
95 41 1
95 77 1
95 95 1
95 257 1
95 293 1
95 311 1
95 473 1
95 509 1
95 527 1
96 42 1
96 78 1
96 96 1
96 258 1
96 294 1
96 312 1
96 474 1
96 510 1
96 528 1
97 43 1
97 79 1
97 97 1
97 259 1
97 295 1
97 313 1
97 475 1
97 511 1
97 529 1
98 44 1
98 80 1
98 98 1
98 260 1
98 296 1
98 314 1
98 476 1
98 512 1
98 530 1
99 45 1
99 81 1
99 99 1
99 261 1
99 297 1
99 315 1
99 477 1
99 513 1
99 531 1
100 46 1
100 82 1
100 100 1
100 262 1
100 298 1
100 316 1
100 478 1
100 514 1
100 532 1
101 47 1
101 83 1
101 101 1
101 263 1
101 299 1
101 317 1
101 479 1
101 515 1
101 533 1
102 48 1
102 84 1
102 102 1
102 264 1
102 300 1
102 318 1
102 480 1
102 516 1
102 534 1
103 49 1
103 85 1
103 103 1
103 265 1
103 301 1
103 319 1
103 481 1
103 517 1
103 535 1
104 50 1
104 86 1
104 104 1
104 266 1
104 302 1
104 320 1
104 482 1
104 518 1
104 536 1
105 51 1
105 87 1
105 105 1
105 267 1
105 303 1
105 321 1
105 483 1
105 519 1
105 537 1
106 52 1
106 88 1
106 106 1
106 268 1
106 304 1
106 322 1
106 484 1
106 520 1
106 538 1
107 53 1
107 89 1
107 107 1
107 269 1
107 305 1
107 323 1
107 485 1
107 521 1
107 539 1
108 54 1
108 90 1
108 108 1
108 270 1
108 306 1
108 324 1
108 486 1
108 522 1
108 540 1
109 109 1
109 163 1
109 181 1
109 217 1
109 271 1
109 289 1
109 541 1
109 595 1
109 613 1
110 110 1
110 164 1
110 182 1
110 218 1
110 272 1
110 290 1
110 542 1
110 596 1
110 614 1
111 111 1
111 165 1
111 183 1
111 219 1
111 273 1
111 291 1
111 543 1
111 597 1
111 615 1
112 112 1
112 166 1
112 184 1
112 220 1
112 274 1
112 292 1
112 544 1
112 598 1
112 616 1
113 113 1
113 167 1
113 185 1
113 221 1
113 275 1
113 293 1
113 545 1
113 599 1
113 617 1
114 114 1
114 168 1
114 186 1
114 222 1
114 276 1
114 294 1
114 546 1
114 600 1
114 618 1
115 115 1
115 169 1
115 187 1
115 223 1
115 277 1
115 295 1
115 547 1
115 601 1
115 619 1
116 116 1
116 170 1
116 188 1
116 224 1
116 278 1
116 296 1
116 548 1
116 602 1
116 620 1
117 117 1
117 171 1
117 189 1
117 225 1
117 279 1
117 297 1
117 549 1
117 603 1
117 621 1
118 118 1
118 172 1
118 190 1
118 226 1
118 280 1
118 298 1
118 550 1
118 604 1
118 622 1
119 119 1
119 173 1
119 191 1
119 227 1
119 281 1
119 299 1
119 551 1
119 605 1
119 623 1
120 120 1
120 174 1
120 192 1
120 228 1
120 282 1
120 300 1
120 552 1
120 606 1
120 624 1
121 121 1
121 175 1
121 193 1
121 229 1
121 283 1
121 301 1
121 553 1
121 607 1
121 625 1
122 122 1
122 176 1
122 194 1
122 230 1
122 284 1
122 302 1
122 554 1
122 608 1
122 626 1
123 123 1
123 177 1
123 195 1
123 231 1
123 285 1
123 303 1
123 555 1
123 609 1
123 627 1
124 124 1
124 178 1
124 196 1
124 232 1
124 286 1
124 304 1
124 556 1
124 610 1
124 628 1
125 125 1
125 179 1
125 197 1
125 233 1
125 287 1
125 305 1
125 557 1
125 611 1
125 629 1
126 126 1
126 180 1
126 198 1
126 234 1
126 288 1
126 306 1
126 558 1
126 612 1
126 630 1
127 127 1
127 163 1
127 199 1
127 235 1
127 271 1
127 307 1
127 559 1
127 595 1
127 631 1
128 128 1
128 164 1
128 200 1
128 236 1
128 272 1
128 308 1
128 560 1
128 596 1
128 632 1
129 129 1
129 165 1
129 201 1
129 237 1
129 273 1
129 309 1
129 561 1
129 597 1
129 633 1
130 130 1
130 166 1
130 202 1
130 238 1
130 274 1
130 310 1
130 562 1
130 598 1
130 634 1
131 131 1
131 167 1
131 203 1
131 239 1
131 275 1
131 311 1
131 563 1
131 599 1
131 635 1
132 132 1
132 168 1
132 204 1
132 240 1
132 276 1
132 312 1
132 564 1
132 600 1
132 636 1
133 133 1
133 169 1
133 205 1
133 241 1
133 277 1
133 313 1
133 565 1
133 601 1
133 637 1
134 134 1
134 170 1
134 206 1
134 242 1
134 278 1
134 314 1
134 566 1
134 602 1
134 638 1
135 135 1
135 171 1
135 207 1
135 243 1
135 279 1
135 315 1
135 567 1
135 603 1
135 639 1
136 136 1
136 172 1
136 208 1
136 244 1
136 280 1
136 316 1
136 568 1
136 604 1
136 640 1
137 137 1
137 173 1
137 209 1
137 245 1
137 281 1
137 317 1
137 569 1
137 605 1
137 641 1
138 138 1
138 174 1
138 210 1
138 246 1
138 282 1
138 318 1
138 570 1
138 606 1
138 642 1
139 139 1
139 175 1
139 211 1
139 247 1
139 283 1
139 319 1
139 571 1
139 607 1
139 643 1
140 140 1
140 176 1
140 212 1
140 248 1
140 284 1
140 320 1
140 572 1
140 608 1
140 644 1
141 141 1
141 177 1
141 213 1
141 249 1
141 285 1
141 321 1
141 573 1
141 609 1
141 645 1
142 142 1
142 178 1
142 214 1
142 250 1
142 286 1
142 322 1
142 574 1
142 610 1
142 646 1
143 143 1
143 179 1
143 215 1
143 251 1
143 287 1
143 323 1
143 575 1
143 611 1
143 647 1
144 144 1
144 180 1
144 216 1
144 252 1
144 288 1
144 324 1
144 576 1
144 612 1
144 648 1
145 145 1
145 181 1
145 199 1
145 253 1
145 289 1
145 307 1
145 577 1
145 613 1
145 631 1
146 146 1
146 182 1
146 200 1
146 254 1
146 290 1
146 308 1
146 578 1
146 614 1
146 632 1
147 147 1
147 183 1
147 201 1
147 255 1
147 291 1
147 309 1
147 579 1
147 615 1
147 633 1
148 148 1
148 184 1
148 202 1
148 256 1
148 292 1
148 310 1
148 580 1
148 616 1
148 634 1
149 149 1
149 185 1
149 203 1
149 257 1
149 293 1
149 311 1
149 581 1
149 617 1
149 635 1
150 150 1
150 186 1
150 204 1
150 258 1
150 294 1
150 312 1
150 582 1
150 618 1
150 636 1
151 151 1
151 187 1
151 205 1
151 259 1
151 295 1
151 313 1
151 583 1
151 619 1
151 637 1
152 152 1
152 188 1
152 206 1
152 260 1
152 296 1
152 314 1
152 584 1
152 620 1
152 638 1
153 153 1
153 189 1
153 207 1
153 261 1
153 297 1
153 315 1
153 585 1
153 621 1
153 639 1
154 154 1
154 190 1
154 208 1
154 262 1
154 298 1
154 316 1
154 586 1
154 622 1
154 640 1
155 155 1
155 191 1
155 209 1
155 263 1
155 299 1
155 317 1
155 587 1
155 623 1
155 641 1
156 156 1
156 192 1
156 210 1
156 264 1
156 300 1
156 318 1
156 588 1
156 624 1
156 642 1
157 157 1
157 193 1
157 211 1
157 265 1
157 301 1
157 319 1
157 589 1
157 625 1
157 643 1
158 158 1
158 194 1
158 212 1
158 266 1
158 302 1
158 320 1
158 590 1
158 626 1
158 644 1
159 159 1
159 195 1
159 213 1
159 267 1
159 303 1
159 321 1
159 591 1
159 627 1
159 645 1
160 160 1
160 196 1
160 214 1
160 268 1
160 304 1
160 322 1
160 592 1
160 628 1
160 646 1
161 161 1
161 197 1
161 215 1
161 269 1
161 305 1
161 323 1
161 593 1
161 629 1
161 647 1
162 162 1
162 198 1
162 216 1
162 270 1
162 306 1
162 324 1
162 594 1
162 630 1
162 648 1
163 1 1
163 84 1
163 105 1
163 110 1
163 189 1
163 211 1
163 553 1
163 617 1
163 632 1
164 2 1
164 81 1
164 103 1
164 109 1
164 192 1
164 213 1
164 551 1
164 619 1
164 633 1
165 3 1
165 87 1
165 101 1
165 113 1
165 193 1
165 206 1
165 549 1
165 614 1
165 648 1
166 4 1
166 78 1
166 100 1
166 114 1
166 184 1
166 205 1
166 557 1
166 628 1
166 642 1
167 5 1
167 85 1
167 98 1
167 111 1
167 195 1
167 209 1
167 555 1
167 615 1
167 631 1
168 6 1
168 76 1
168 97 1
168 112 1
168 186 1
168 208 1
168 556 1
168 629 1
168 644 1
169 7 1
169 83 1
169 96 1
169 118 1
169 188 1
169 202 1
169 554 1
169 630 1
169 646 1
170 8 1
170 82 1
170 95 1
170 119 1
170 187 1
170 201 1
170 541 1
170 624 1
170 645 1
171 9 1
171 74 1
171 108 1
171 120 1
171 181 1
171 215 1
171 547 1
171 623 1
171 636 1
172 10 1
172 80 1
172 94 1
172 115 1
172 191 1
172 204 1
172 552 1
172 613 1
172 647 1
173 11 1
173 79 1
173 93 1
173 116 1
173 190 1
173 203 1
173 558 1
173 626 1
173 639 1
174 12 1
174 73 1
174 107 1
174 117 1
174 182 1
174 216 1
174 545 1
174 625 1
174 638 1
175 13 1
175 77 1
175 92 1
175 123 1
175 183 1
175 199 1
175 543 1
175 627 1
175 641 1
176 14 1
176 90 1
176 106 1
176 124 1
176 197 1
176 212 1
176 544 1
176 618 1
176 640 1
177 15 1
177 75 1
177 91 1
177 121 1
177 185 1
177 200 1
177 542 1
177 621 1
177 643 1
178 16 1
178 89 1
178 104 1
178 122 1
178 198 1
178 214 1
178 550 1
178 620 1
178 634 1
179 17 1
179 88 1
179 102 1
179 126 1
179 194 1
179 207 1
179 548 1
179 622 1
179 635 1
180 18 1
180 86 1
180 99 1
180 125 1
180 196 1
180 210 1
180 546 1
180 616 1
180 637 1
181 20 1
181 41 1
181 105 1
181 127 1
181 147 1
181 211 1
181 569 1
181 591 1
181 632 1
182 19 1
182 39 1
182 103 1
182 128 1
182 149 1
182 213 1
182 571 1
182 585 1
182 633 1
183 36 1
183 38 1
183 101 1
183 143 1
183 145 1
183 206 1
183 564 1
183 587 1
183 648 1
184 30 1
184 52 1
184 100 1
184 135 1
184 158 1
184 205 1
184 563 1
184 586 1
184 642 1
185 35 1
185 37 1
185 98 1
185 144 1
185 146 1
185 209 1
185 566 1
185 589 1
185 631 1
186 27 1
186 50 1
186 97 1
186 138 1
186 160 1
186 208 1
186 565 1
186 580 1
186 644 1
187 34 1
187 54 1
187 96 1
187 140 1
187 161 1
187 202 1
187 568 1
187 582 1
187 646 1
188 33 1
188 48 1
188 95 1
188 139 1
188 153 1
188 201 1
188 560 1
188 581 1
188 645 1
189 24 1
189 47 1
189 108 1
189 130 1
189 152 1
189 215 1
189 574 1
189 594 1
189 636 1
190 32 1
190 53 1
190 94 1
190 142 1
190 162 1
190 204 1
190 562 1
190 584 1
190 647 1
191 31 1
191 45 1
191 93 1
191 141 1
191 156 1
191 203 1
191 561 1
191 583 1
191 639 1
192 22 1
192 44 1
192 107 1
192 132 1
192 155 1
192 216 1
192 575 1
192 577 1
192 638 1
193 29 1
193 51 1
193 92 1
193 134 1
193 157 1
193 199 1
193 576 1
193 578 1
193 641 1
194 28 1
194 42 1
194 106 1
194 133 1
194 148 1
194 212 1
194 570 1
194 592 1
194 640 1
195 26 1
195 49 1
195 91 1
195 137 1
195 159 1
195 200 1
195 559 1
195 579 1
195 643 1
196 25 1
196 40 1
196 104 1
196 136 1
196 150 1
196 214 1
196 572 1
196 593 1
196 634 1
197 23 1
197 46 1
197 102 1
197 129 1
197 151 1
197 207 1
197 573 1
197 588 1
197 635 1
198 21 1
198 43 1
198 99 1
198 131 1
198 154 1
198 210 1
198 567 1
198 590 1
198 637 1
199 41 1
199 67 1
199 84 1
199 147 1
199 177 1
199 189 1
199 591 1
199 597 1
199 617 1
200 39 1
200 69 1
200 81 1
200 149 1
200 175 1
200 192 1
200 585 1
200 596 1
200 619 1
201 38 1
201 63 1
201 87 1
201 145 1
201 174 1
201 193 1
201 587 1
201 601 1
201 614 1
202 52 1
202 71 1
202 78 1
202 158 1
202 180 1
202 184 1
202 586 1
202 602 1
202 628 1
203 37 1
203 66 1
203 85 1
203 146 1
203 171 1
203 195 1
203 589 1
203 599 1
203 615 1
204 50 1
204 72 1
204 76 1
204 160 1
204 179 1
204 186 1
204 580 1
204 600 1
204 629 1
205 54 1
205 68 1
205 83 1
205 161 1
205 178 1
205 188 1
205 582 1
205 598 1
205 630 1
206 48 1
206 55 1
206 82 1
206 153 1
206 164 1
206 187 1
206 581 1
206 607 1
206 624 1
207 47 1
207 61 1
207 74 1
207 152 1
207 172 1
207 181 1
207 594 1
207 608 1
207 623 1
208 53 1
208 70 1
208 80 1
208 162 1
208 176 1
208 191 1
208 584 1
208 604 1
208 613 1
209 45 1
209 56 1
209 79 1
209 156 1
209 163 1
209 190 1
209 583 1
209 605 1
209 626 1
210 44 1
210 64 1
210 73 1
210 155 1
210 169 1
210 182 1
210 577 1
210 606 1
210 625 1
211 51 1
211 57 1
211 77 1
211 157 1
211 167 1
211 183 1
211 578 1
211 603 1
211 627 1
212 42 1
212 58 1
212 90 1
212 148 1
212 168 1
212 197 1
212 592 1
212 611 1
212 618 1
213 49 1
213 59 1
213 75 1
213 159 1
213 165 1
213 185 1
213 579 1
213 609 1
213 621 1
214 40 1
214 60 1
214 89 1
214 150 1
214 166 1
214 198 1
214 593 1
214 610 1
214 620 1
215 46 1
215 62 1
215 88 1
215 151 1
215 173 1
215 194 1
215 588 1
215 595 1
215 622 1
216 43 1
216 65 1
216 86 1
216 154 1
216 170 1
216 196 1
216 590 1
216 612 1
216 616 1
217 1 1
217 84 1
217 105 1
217 335 1
217 403 1
217 417 1
217 444 1
217 505 1
217 539 1
218 2 1
218 81 1
218 103 1
218 337 1
218 401 1
218 416 1
218 436 1
218 510 1
218 532 1
219 3 1
219 87 1
219 101 1
219 339 1
219 399 1
219 415 1
219 448 1
219 521 1
219 536 1
220 4 1
220 78 1
220 100 1
220 340 1
220 413 1
220 428 1
220 434 1
220 513 1
220 535 1
221 5 1
221 85 1
221 98 1
221 333 1
221 398 1
221 432 1
221 440 1
221 514 1
221 527 1
222 6 1
222 76 1
222 97 1
222 341 1
222 412 1
222 426 1
222 441 1
222 506 1
222 540 1
223 7 1
223 83 1
223 96 1
223 336 1
223 397 1
223 431 1
223 450 1
223 518 1
223 531 1
224 8 1
224 82 1
224 95 1
224 342 1
224 410 1
224 423 1
224 437 1
224 517 1
224 530 1
225 9 1
225 74 1
225 108 1
225 329 1
225 409 1
225 422 1
225 438 1
225 508 1
225 529 1
226 10 1
226 80 1
226 94 1
226 338 1
226 414 1
226 430 1
226 445 1
226 509 1
226 524 1
227 11 1
227 79 1
227 93 1
227 325 1
227 408 1
227 429 1
227 446 1
227 522 1
227 538 1
228 12 1
228 73 1
228 107 1
228 331 1
228 407 1
228 420 1
228 433 1
228 516 1
228 537 1
229 13 1
229 77 1
229 92 1
229 326 1
229 405 1
229 427 1
229 442 1
229 512 1
229 526 1
230 14 1
230 90 1
230 106 1
230 334 1
230 404 1
230 418 1
230 443 1
230 511 1
230 525 1
231 15 1
231 75 1
231 91 1
231 327 1
231 411 1
231 425 1
231 449 1
231 520 1
231 534 1
232 16 1
232 89 1
232 104 1
232 328 1
232 402 1
232 424 1
232 435 1
232 519 1
232 533 1
233 17 1
233 88 1
233 102 1
233 330 1
233 400 1
233 421 1
233 447 1
233 507 1
233 523 1
234 18 1
234 86 1
234 99 1
234 332 1
234 406 1
234 419 1
234 439 1
234 515 1
234 528 1
235 20 1
235 41 1
235 105 1
235 355 1
235 369 1
235 417 1
235 454 1
235 476 1
235 539 1
236 19 1
236 39 1
236 103 1
236 353 1
236 375 1
236 416 1
236 462 1
236 484 1
236 532 1
237 36 1
237 38 1
237 101 1
237 350 1
237 373 1
237 415 1
237 457 1
237 472 1
237 536 1
238 30 1
238 52 1
238 100 1
238 349 1
238 364 1
238 428 1
238 451 1
238 471 1
238 535 1
239 35 1
239 37 1
239 98 1
239 348 1
239 371 1
239 432 1
239 465 1
239 480 1
239 527 1
240 27 1
240 50 1
240 97 1
240 347 1
240 370 1
240 426 1
240 456 1
240 479 1
240 540 1
241 34 1
241 54 1
241 96 1
241 346 1
241 368 1
241 431 1
241 453 1
241 475 1
241 531 1
242 33 1
242 48 1
242 95 1
242 345 1
242 367 1
242 423 1
242 467 1
242 469 1
242 530 1
243 24 1
243 47 1
243 108 1
243 359 1
243 361 1
243 422 1
243 459 1
243 482 1
243 529 1
244 32 1
244 53 1
244 94 1
244 352 1
244 366 1
244 430 1
244 461 1
244 483 1
244 524 1
245 31 1
245 45 1
245 93 1
245 344 1
245 365 1
245 429 1
245 460 1
245 474 1
245 538 1
246 22 1
246 44 1
246 107 1
246 358 1
246 378 1
246 420 1
246 452 1
246 473 1
246 537 1
247 29 1
247 51 1
247 92 1
247 343 1
247 363 1
247 427 1
247 464 1
247 485 1
247 526 1
248 28 1
248 42 1
248 106 1
248 356 1
248 377 1
248 418 1
248 463 1
248 477 1
248 525 1
249 26 1
249 49 1
249 91 1
249 360 1
249 362 1
249 425 1
249 455 1
249 478 1
249 534 1
250 25 1
250 40 1
250 104 1
250 354 1
250 376 1
250 424 1
250 468 1
250 470 1
250 533 1
251 23 1
251 46 1
251 102 1
251 351 1
251 374 1
251 421 1
251 458 1
251 481 1
251 523 1
252 21 1
252 43 1
252 99 1
252 357 1
252 372 1
252 419 1
252 466 1
252 486 1
252 528 1
253 41 1
253 67 1
253 84 1
253 369 1
253 380 1
253 403 1
253 476 1
253 496 1
253 505 1
254 39 1
254 69 1
254 81 1
254 375 1
254 381 1
254 401 1
254 484 1
254 503 1
254 510 1
255 38 1
255 63 1
255 87 1
255 373 1
255 383 1
255 399 1
255 472 1
255 492 1
255 521 1
256 52 1
256 71 1
256 78 1
256 364 1
256 384 1
256 413 1
256 471 1
256 501 1
256 513 1
257 37 1
257 66 1
257 85 1
257 371 1
257 385 1
257 398 1
257 480 1
257 487 1
257 514 1
258 50 1
258 72 1
258 76 1
258 370 1
258 386 1
258 412 1
258 479 1
258 493 1
258 506 1
259 54 1
259 68 1
259 83 1
259 368 1
259 388 1
259 397 1
259 475 1
259 497 1
259 518 1
260 48 1
260 55 1
260 82 1
260 367 1
260 389 1
260 410 1
260 469 1
260 498 1
260 517 1
261 47 1
261 61 1
261 74 1
261 361 1
261 390 1
261 409 1
261 482 1
261 504 1
261 508 1
262 53 1
262 70 1
262 80 1
262 366 1
262 382 1
262 414 1
262 483 1
262 489 1
262 509 1
263 45 1
263 56 1
263 79 1
263 365 1
263 391 1
263 408 1
263 474 1
263 490 1
263 522 1
264 44 1
264 64 1
264 73 1
264 378 1
264 392 1
264 407 1
264 473 1
264 499 1
264 516 1
265 51 1
265 57 1
265 77 1
265 363 1
265 393 1
265 405 1
265 485 1
265 502 1
265 512 1
266 42 1
266 58 1
266 90 1
266 377 1
266 394 1
266 404 1
266 477 1
266 488 1
266 511 1
267 49 1
267 59 1
267 75 1
267 362 1
267 387 1
267 411 1
267 478 1
267 494 1
267 520 1
268 40 1
268 60 1
268 89 1
268 376 1
268 395 1
268 402 1
268 470 1
268 495 1
268 519 1
269 46 1
269 62 1
269 88 1
269 374 1
269 396 1
269 400 1
269 481 1
269 491 1
269 507 1
270 43 1
270 65 1
270 86 1
270 372 1
270 379 1
270 406 1
270 486 1
270 500 1
270 515 1
271 110 1
271 189 1
271 211 1
271 226 1
271 296 1
271 310 1
271 335 1
271 403 1
271 417 1
272 109 1
272 192 1
272 213 1
272 230 1
272 306 1
272 322 1
272 337 1
272 401 1
272 416 1
273 113 1
273 193 1
273 206 1
273 222 1
273 292 1
273 313 1
273 339 1
273 399 1
273 415 1
274 114 1
274 184 1
274 205 1
274 231 1
274 291 1
274 307 1
274 340 1
274 413 1
274 428 1
275 111 1
275 195 1
275 209 1
275 233 1
275 304 1
275 318 1
275 333 1
275 398 1
275 432 1
276 112 1
276 186 1
276 208 1
276 219 1
276 303 1
276 317 1
276 341 1
276 412 1
276 426 1
277 118 1
277 188 1
277 202 1
277 227 1
277 295 1
277 309 1
277 336 1
277 397 1
277 431 1
278 119 1
278 187 1
278 201 1
278 228 1
278 289 1
278 323 1
278 342 1
278 410 1
278 423 1
279 120 1
279 181 1
279 215 1
279 234 1
279 302 1
279 315 1
279 329 1
279 409 1
279 422 1
280 115 1
280 191 1
280 204 1
280 217 1
280 300 1
280 321 1
280 338 1
280 414 1
280 430 1
281 116 1
281 190 1
281 203 1
281 223 1
281 299 1
281 312 1
281 325 1
281 408 1
281 429 1
282 117 1
282 182 1
282 216 1
282 224 1
282 298 1
282 311 1
282 331 1
282 407 1
282 420 1
283 123 1
283 183 1
283 199 1
283 232 1
283 305 1
283 320 1
283 326 1
283 405 1
283 427 1
284 124 1
284 197 1
284 212 1
284 218 1
284 297 1
284 319 1
284 334 1
284 404 1
284 418 1
285 121 1
285 185 1
285 200 1
285 220 1
285 294 1
285 316 1
285 327 1
285 411 1
285 425 1
286 122 1
286 198 1
286 214 1
286 229 1
286 293 1
286 308 1
286 328 1
286 402 1
286 424 1
287 126 1
287 194 1
287 207 1
287 221 1
287 301 1
287 314 1
287 330 1
287 400 1
287 421 1
288 125 1
288 196 1
288 210 1
288 225 1
288 290 1
288 324 1
288 332 1
288 406 1
288 419 1
289 127 1
289 147 1
289 211 1
289 248 1
289 269 1
289 310 1
289 355 1
289 369 1
289 417 1
290 128 1
290 149 1
290 213 1
290 244 1
290 258 1
290 322 1
290 353 1
290 375 1
290 416 1
291 143 1
291 145 1
291 206 1
291 243 1
291 266 1
291 313 1
291 350 1
291 373 1
291 415 1
292 135 1
292 158 1
292 205 1
292 242 1
292 265 1
292 307 1
292 349 1
292 364 1
292 428 1
293 144 1
293 146 1
293 209 1
293 239 1
293 262 1
293 318 1
293 348 1
293 371 1
293 432 1
294 138 1
294 160 1
294 208 1
294 252 1
294 254 1
294 317 1
294 347 1
294 370 1
294 426 1
295 140 1
295 161 1
295 202 1
295 247 1
295 261 1
295 309 1
295 346 1
295 368 1
295 431 1
296 139 1
296 153 1
296 201 1
296 238 1
296 260 1
296 323 1
296 345 1
296 367 1
296 423 1
297 130 1
297 152 1
297 215 1
297 237 1
297 259 1
297 315 1
297 359 1
297 361 1
297 422 1
298 142 1
298 162 1
298 204 1
298 236 1
298 257 1
298 321 1
298 352 1
298 366 1
298 430 1
299 141 1
299 156 1
299 203 1
299 250 1
299 270 1
299 312 1
299 344 1
299 365 1
299 429 1
300 132 1
300 155 1
300 216 1
300 249 1
300 264 1
300 311 1
300 358 1
300 378 1
300 420 1
301 134 1
301 157 1
301 199 1
301 241 1
301 256 1
301 320 1
301 343 1
301 363 1
301 427 1
302 133 1
302 148 1
302 212 1
302 235 1
302 255 1
302 319 1
302 356 1
302 377 1
302 418 1
303 137 1
303 159 1
303 200 1
303 246 1
303 268 1
303 316 1
303 360 1
303 362 1
303 425 1
304 136 1
304 150 1
304 214 1
304 245 1
304 267 1
304 308 1
304 354 1
304 376 1
304 424 1
305 129 1
305 151 1
305 207 1
305 251 1
305 253 1
305 314 1
305 351 1
305 374 1
305 421 1
306 131 1
306 154 1
306 210 1
306 240 1
306 263 1
306 324 1
306 357 1
306 372 1
306 419 1
307 147 1
307 177 1
307 189 1
307 269 1
307 286 1
307 296 1
307 369 1
307 380 1
307 403 1
308 149 1
308 175 1
308 192 1
308 258 1
308 274 1
308 306 1
308 375 1
308 381 1
308 401 1
309 145 1
309 174 1
309 193 1
309 266 1
309 288 1
309 292 1
309 373 1
309 383 1
309 399 1
310 158 1
310 180 1
310 184 1
310 265 1
310 275 1
310 291 1
310 364 1
310 384 1
310 413 1
311 146 1
311 171 1
311 195 1
311 262 1
311 278 1
311 304 1
311 371 1
311 385 1
311 398 1
312 160 1
312 179 1
312 186 1
312 254 1
312 279 1
312 303 1
312 370 1
312 386 1
312 412 1
313 161 1
313 178 1
313 188 1
313 261 1
313 272 1
313 295 1
313 368 1
313 388 1
313 397 1
314 153 1
314 164 1
314 187 1
314 260 1
314 280 1
314 289 1
314 367 1
314 389 1
314 410 1
315 152 1
315 172 1
315 181 1
315 259 1
315 281 1
315 302 1
315 361 1
315 390 1
315 409 1
316 162 1
316 176 1
316 191 1
316 257 1
316 283 1
316 300 1
316 366 1
316 382 1
316 414 1
317 156 1
317 163 1
317 190 1
317 270 1
317 284 1
317 299 1
317 365 1
317 391 1
317 408 1
318 155 1
318 169 1
318 182 1
318 264 1
318 271 1
318 298 1
318 378 1
318 392 1
318 407 1
319 157 1
319 167 1
319 183 1
319 256 1
319 276 1
319 305 1
319 363 1
319 393 1
319 405 1
320 148 1
320 168 1
320 197 1
320 255 1
320 285 1
320 297 1
320 377 1
320 394 1
320 404 1
321 159 1
321 165 1
321 185 1
321 268 1
321 287 1
321 294 1
321 362 1
321 387 1
321 411 1
322 150 1
322 166 1
322 198 1
322 267 1
322 273 1
322 293 1
322 376 1
322 395 1
322 402 1
323 151 1
323 173 1
323 194 1
323 253 1
323 282 1
323 301 1
323 374 1
323 396 1
323 400 1
324 154 1
324 170 1
324 196 1
324 263 1
324 277 1
324 290 1
324 372 1
324 379 1
324 406 1
