%%MatrixMarket matrix coordinate integer general
288 576 2592
1 1 1
1 49 1
1 65 1
1 97 1
1 145 1
1 161 1
1 289 1
1 337 1
1 353 1
2 2 1
2 50 1
2 66 1
2 98 1
2 146 1
2 162 1
2 290 1
2 338 1
2 354 1
3 3 1
3 51 1
3 67 1
3 99 1
3 147 1
3 163 1
3 291 1
3 339 1
3 355 1
4 4 1
4 52 1
4 68 1
4 100 1
4 148 1
4 164 1
4 292 1
4 340 1
4 356 1
5 5 1
5 53 1
5 69 1
5 101 1
5 149 1
5 165 1
5 293 1
5 341 1
5 357 1
6 6 1
6 54 1
6 70 1
6 102 1
6 150 1
6 166 1
6 294 1
6 342 1
6 358 1
7 7 1
7 55 1
7 71 1
7 103 1
7 151 1
7 167 1
7 295 1
7 343 1
7 359 1
8 8 1
8 56 1
8 72 1
8 104 1
8 152 1
8 168 1
8 296 1
8 344 1
8 360 1
9 9 1
9 57 1
9 73 1
9 105 1
9 153 1
9 169 1
9 297 1
9 345 1
9 361 1
10 10 1
10 58 1
10 74 1
10 106 1
10 154 1
10 170 1
10 298 1
10 346 1
10 362 1
11 11 1
11 59 1
11 75 1
11 107 1
11 155 1
11 171 1
11 299 1
11 347 1
11 363 1
12 12 1
12 60 1
12 76 1
12 108 1
12 156 1
12 172 1
12 300 1
12 348 1
12 364 1
13 13 1
13 61 1
13 77 1
13 109 1
13 157 1
13 173 1
13 301 1
13 349 1
13 365 1
14 14 1
14 62 1
14 78 1
14 110 1
14 158 1
14 174 1
14 302 1
14 350 1
14 366 1
15 15 1
15 63 1
15 79 1
15 111 1
15 159 1
15 175 1
15 303 1
15 351 1
15 367 1
16 16 1
16 64 1
16 80 1
16 112 1
16 160 1
16 176 1
16 304 1
16 352 1
16 368 1
17 17 1
17 49 1
17 81 1
17 113 1
17 145 1
17 177 1
17 305 1
17 337 1
17 369 1
18 18 1
18 50 1
18 82 1
18 114 1
18 146 1
18 178 1
18 306 1
18 338 1
18 370 1
19 19 1
19 51 1
19 83 1
19 115 1
19 147 1
19 179 1
19 307 1
19 339 1
19 371 1
20 20 1
20 52 1
20 84 1
20 116 1
20 148 1
20 180 1
20 308 1
20 340 1
20 372 1
21 21 1
21 53 1
21 85 1
21 117 1
21 149 1
21 181 1
21 309 1
21 341 1
21 373 1
22 22 1
22 54 1
22 86 1
22 118 1
22 150 1
22 182 1
22 310 1
22 342 1
22 374 1
23 23 1
23 55 1
23 87 1
23 119 1
23 151 1
23 183 1
23 311 1
23 343 1
23 375 1
24 24 1
24 56 1
24 88 1
24 120 1
24 152 1
24 184 1
24 312 1
24 344 1
24 376 1
25 25 1
25 57 1
25 89 1
25 121 1
25 153 1
25 185 1
25 313 1
25 345 1
25 377 1
26 26 1
26 58 1
26 90 1
26 122 1
26 154 1
26 186 1
26 314 1
26 346 1
26 378 1
27 27 1
27 59 1
27 91 1
27 123 1
27 155 1
27 187 1
27 315 1
27 347 1
27 379 1
28 28 1
28 60 1
28 92 1
28 124 1
28 156 1
28 188 1
28 316 1
28 348 1
28 380 1
29 29 1
29 61 1
29 93 1
29 125 1
29 157 1
29 189 1
29 317 1
29 349 1
29 381 1
30 30 1
30 62 1
30 94 1
30 126 1
30 158 1
30 190 1
30 318 1
30 350 1
30 382 1
31 31 1
31 63 1
31 95 1
31 127 1
31 159 1
31 191 1
31 319 1
31 351 1
31 383 1
32 32 1
32 64 1
32 96 1
32 128 1
32 160 1
32 192 1
32 320 1
32 352 1
32 384 1
33 33 1
33 65 1
33 81 1
33 129 1
33 161 1
33 177 1
33 321 1
33 353 1
33 369 1
34 34 1
34 66 1
34 82 1
34 130 1
34 162 1
34 178 1
34 322 1
34 354 1
34 370 1
35 35 1
35 67 1
35 83 1
35 131 1
35 163 1
35 179 1
35 323 1
35 355 1
35 371 1
36 36 1
36 68 1
36 84 1
36 132 1
36 164 1
36 180 1
36 324 1
36 356 1
36 372 1
37 37 1
37 69 1
37 85 1
37 133 1
37 165 1
37 181 1
37 325 1
37 357 1
37 373 1
38 38 1
38 70 1
38 86 1
38 134 1
38 166 1
38 182 1
38 326 1
38 358 1
38 374 1
39 39 1
39 71 1
39 87 1
39 135 1
39 167 1
39 183 1
39 327 1
39 359 1
39 375 1
40 40 1
40 72 1
40 88 1
40 136 1
40 168 1
40 184 1
40 328 1
40 360 1
40 376 1
41 41 1
41 73 1
41 89 1
41 137 1
41 169 1
41 185 1
41 329 1
41 361 1
41 377 1
42 42 1
42 74 1
42 90 1
42 138 1
42 170 1
42 186 1
42 330 1
42 362 1
42 378 1
43 43 1
43 75 1
43 91 1
43 139 1
43 171 1
43 187 1
43 331 1
43 363 1
43 379 1
44 44 1
44 76 1
44 92 1
44 140 1
44 172 1
44 188 1
44 332 1
44 364 1
44 380 1
45 45 1
45 77 1
45 93 1
45 141 1
45 173 1
45 189 1
45 333 1
45 365 1
45 381 1
46 46 1
46 78 1
46 94 1
46 142 1
46 174 1
46 190 1
46 334 1
46 366 1
46 382 1
47 47 1
47 79 1
47 95 1
47 143 1
47 175 1
47 191 1
47 335 1
47 367 1
47 383 1
48 48 1
48 80 1
48 96 1
48 144 1
48 176 1
48 192 1
48 336 1
48 368 1
48 384 1
49 1 1
49 49 1
49 65 1
49 193 1
49 241 1
49 257 1
49 385 1
49 433 1
49 449 1
50 2 1
50 50 1
50 66 1
50 194 1
50 242 1
50 258 1
50 386 1
50 434 1
50 450 1
51 3 1
51 51 1
51 67 1
51 195 1
51 243 1
51 259 1
51 387 1
51 435 1
51 451 1
52 4 1
52 52 1
52 68 1
52 196 1
52 244 1
52 260 1
52 388 1
52 436 1
52 452 1
53 5 1
53 53 1
53 69 1
53 197 1
53 245 1
53 261 1
53 389 1
53 437 1
53 453 1
54 6 1
54 54 1
54 70 1
54 198 1
54 246 1
54 262 1
54 390 1
54 438 1
54 454 1
55 7 1
55 55 1
55 71 1
55 199 1
55 247 1
55 263 1
55 391 1
55 439 1
55 455 1
56 8 1
56 56 1
56 72 1
56 200 1
56 248 1
56 264 1
56 392 1
56 440 1
56 456 1
57 9 1
57 57 1
57 73 1
57 201 1
57 249 1
57 265 1
57 393 1
57 441 1
57 457 1
58 10 1
58 58 1
58 74 1
58 202 1
58 250 1
58 266 1
58 394 1
58 442 1
58 458 1
59 11 1
59 59 1
59 75 1
59 203 1
59 251 1
59 267 1
59 395 1
59 443 1
59 459 1
60 12 1
60 60 1
60 76 1
60 204 1
60 252 1
60 268 1
60 396 1
60 444 1
60 460 1
61 13 1
61 61 1
61 77 1
61 205 1
61 253 1
61 269 1
61 397 1
61 445 1
61 461 1
62 14 1
62 62 1
62 78 1
62 206 1
62 254 1
62 270 1
62 398 1
62 446 1
62 462 1
63 15 1
63 63 1
63 79 1
63 207 1
63 255 1
63 271 1
63 399 1
63 447 1
63 463 1
64 16 1
64 64 1
64 80 1
64 208 1
64 256 1
64 272 1
64 400 1
64 448 1
64 464 1
65 17 1
65 49 1
65 81 1
65 209 1
65 241 1
65 273 1
65 401 1
65 433 1
65 465 1
66 18 1
66 50 1
66 82 1
66 210 1
66 242 1
66 274 1
66 402 1
66 434 1
66 466 1
67 19 1
67 51 1
67 83 1
67 211 1
67 243 1
67 275 1
67 403 1
67 435 1
67 467 1
68 20 1
68 52 1
68 84 1
68 212 1
68 244 1
68 276 1
68 404 1
68 436 1
68 468 1
69 21 1
69 53 1
69 85 1
69 213 1
69 245 1
69 277 1
69 405 1
69 437 1
69 469 1
70 22 1
70 54 1
70 86 1
70 214 1
70 246 1
70 278 1
70 406 1
70 438 1
70 470 1
71 23 1
71 55 1
71 87 1
71 215 1
71 247 1
71 279 1
71 407 1
71 439 1
71 471 1
72 24 1
72 56 1
72 88 1
72 216 1
72 248 1
72 280 1
72 408 1
72 440 1
72 472 1
73 25 1
73 57 1
73 89 1
73 217 1
73 249 1
73 281 1
73 409 1
73 441 1
73 473 1
74 26 1
74 58 1
74 90 1
74 218 1
74 250 1
74 282 1
74 410 1
74 442 1
74 474 1
75 27 1
75 59 1
75 91 1
75 219 1
75 251 1
75 283 1
75 411 1
75 443 1
75 475 1
76 28 1
76 60 1
76 92 1
76 220 1
76 252 1
76 284 1
76 412 1
76 444 1
76 476 1
77 29 1
77 61 1
77 93 1
77 221 1
77 253 1
77 285 1
77 413 1
77 445 1
77 477 1
78 30 1
78 62 1
78 94 1
78 222 1
78 254 1
78 286 1
78 414 1
78 446 1
78 478 1
79 31 1
79 63 1
79 95 1
79 223 1
79 255 1
79 287 1
79 415 1
79 447 1
79 479 1
80 32 1
80 64 1
80 96 1
80 224 1
80 256 1
80 288 1
80 416 1
80 448 1
80 480 1
81 33 1
81 65 1
81 81 1
81 225 1
81 257 1
81 273 1
81 417 1
81 449 1
81 465 1
82 34 1
82 66 1
82 82 1
82 226 1
82 258 1
82 274 1
82 418 1
82 450 1
82 466 1
83 35 1
83 67 1
83 83 1
83 227 1
83 259 1
83 275 1
83 419 1
83 451 1
83 467 1
84 36 1
84 68 1
84 84 1
84 228 1
84 260 1
84 276 1
84 420 1
84 452 1
84 468 1
85 37 1
85 69 1
85 85 1
85 229 1
85 261 1
85 277 1
85 421 1
85 453 1
85 469 1
86 38 1
86 70 1
86 86 1
86 230 1
86 262 1
86 278 1
86 422 1
86 454 1
86 470 1
87 39 1
87 71 1
87 87 1
87 231 1
87 263 1
87 279 1
87 423 1
87 455 1
87 471 1
88 40 1
88 72 1
88 88 1
88 232 1
88 264 1
88 280 1
88 424 1
88 456 1
88 472 1
89 41 1
89 73 1
89 89 1
89 233 1
89 265 1
89 281 1
89 425 1
89 457 1
89 473 1
90 42 1
90 74 1
90 90 1
90 234 1
90 266 1
90 282 1
90 426 1
90 458 1
90 474 1
91 43 1
91 75 1
91 91 1
91 235 1
91 267 1
91 283 1
91 427 1
91 459 1
91 475 1
92 44 1
92 76 1
92 92 1
92 236 1
92 268 1
92 284 1
92 428 1
92 460 1
92 476 1
93 45 1
93 77 1
93 93 1
93 237 1
93 269 1
93 285 1
93 429 1
93 461 1
93 477 1
94 46 1
94 78 1
94 94 1
94 238 1
94 270 1
94 286 1
94 430 1
94 462 1
94 478 1
95 47 1
95 79 1
95 95 1
95 239 1
95 271 1
95 287 1
95 431 1
95 463 1
95 479 1
96 48 1
96 80 1
96 96 1
96 240 1
96 272 1
96 288 1
96 432 1
96 464 1
96 480 1
97 97 1
97 145 1
97 161 1
97 193 1
97 241 1
97 257 1
97 481 1
97 529 1
97 545 1
98 98 1
98 146 1
98 162 1
98 194 1
98 242 1
98 258 1
98 482 1
98 530 1
98 546 1
99 99 1
99 147 1
99 163 1
99 195 1
99 243 1
99 259 1
99 483 1
99 531 1
99 547 1
100 100 1
100 148 1
100 164 1
100 196 1
100 244 1
100 260 1
100 484 1
100 532 1
100 548 1
101 101 1
101 149 1
101 165 1
101 197 1
101 245 1
101 261 1
101 485 1
101 533 1
101 549 1
102 102 1
102 150 1
102 166 1
102 198 1
102 246 1
102 262 1
102 486 1
102 534 1
102 550 1
103 103 1
103 151 1
103 167 1
103 199 1
103 247 1
103 263 1
103 487 1
103 535 1
103 551 1
104 104 1
104 152 1
104 168 1
104 200 1
104 248 1
104 264 1
104 488 1
104 536 1
104 552 1
105 105 1
105 153 1
105 169 1
105 201 1
105 249 1
105 265 1
105 489 1
105 537 1
105 553 1
106 106 1
106 154 1
106 170 1
106 202 1
106 250 1
106 266 1
106 490 1
106 538 1
106 554 1
107 107 1
107 155 1
107 171 1
107 203 1
107 251 1
107 267 1
107 491 1
107 539 1
107 555 1
108 108 1
108 156 1
108 172 1
108 204 1
108 252 1
108 268 1
108 492 1
108 540 1
108 556 1
109 109 1
109 157 1
109 173 1
109 205 1
109 253 1
109 269 1
109 493 1
109 541 1
109 557 1
110 110 1
110 158 1
110 174 1
110 206 1
110 254 1
110 270 1
110 494 1
110 542 1
110 558 1
111 111 1
111 159 1
111 175 1
111 207 1
111 255 1
111 271 1
111 495 1
111 543 1
111 559 1
112 112 1
112 160 1
112 176 1
112 208 1
112 256 1
112 272 1
112 496 1
112 544 1
112 560 1
113 113 1
113 145 1
113 177 1
113 209 1
113 241 1
113 273 1
113 497 1
113 529 1
113 561 1
114 114 1
114 146 1
114 178 1
114 210 1
114 242 1
114 274 1
114 498 1
114 530 1
114 562 1
115 115 1
115 147 1
115 179 1
115 211 1
115 243 1
115 275 1
115 499 1
115 531 1
115 563 1
116 116 1
116 148 1
116 180 1
116 212 1
116 244 1
116 276 1
116 500 1
116 532 1
116 564 1
117 117 1
117 149 1
117 181 1
117 213 1
117 245 1
117 277 1
117 501 1
117 533 1
117 565 1
118 118 1
118 150 1
118 182 1
118 214 1
118 246 1
118 278 1
118 502 1
118 534 1
118 566 1
119 119 1
119 151 1
119 183 1
119 215 1
119 247 1
119 279 1
119 503 1
119 535 1
119 567 1
120 120 1
120 152 1
120 184 1
120 216 1
120 248 1
120 280 1
120 504 1
120 536 1
120 568 1
121 121 1
121 153 1
121 185 1
121 217 1
121 249 1
121 281 1
121 505 1
121 537 1
121 569 1
122 122 1
122 154 1
122 186 1
122 218 1
122 250 1
122 282 1
122 506 1
122 538 1
122 570 1
123 123 1
123 155 1
123 187 1
123 219 1
123 251 1
123 283 1
123 507 1
123 539 1
123 571 1
124 124 1
124 156 1
124 188 1
124 220 1
124 252 1
124 284 1
124 508 1
124 540 1
124 572 1
125 125 1
125 157 1
125 189 1
125 221 1
125 253 1
125 285 1
125 509 1
125 541 1
125 573 1
126 126 1
126 158 1
126 190 1
126 222 1
126 254 1
126 286 1
126 510 1
126 542 1
126 574 1
127 127 1
127 159 1
127 191 1
127 223 1
127 255 1
127 287 1
127 511 1
127 543 1
127 575 1
128 128 1
128 160 1
128 192 1
128 224 1
128 256 1
128 288 1
128 512 1
128 544 1
128 576 1
129 129 1
129 161 1
129 177 1
129 225 1
129 257 1
129 273 1
129 513 1
129 545 1
129 561 1
130 130 1
130 162 1
130 178 1
130 226 1
130 258 1
130 274 1
130 514 1
130 546 1
130 562 1
131 131 1
131 163 1
131 179 1
131 227 1
131 259 1
131 275 1
131 515 1
131 547 1
131 563 1
132 132 1
132 164 1
132 180 1
132 228 1
132 260 1
132 276 1
132 516 1
132 548 1
132 564 1
133 133 1
133 165 1
133 181 1
133 229 1
133 261 1
133 277 1
133 517 1
133 549 1
133 565 1
134 134 1
134 166 1
134 182 1
134 230 1
134 262 1
134 278 1
134 518 1
134 550 1
134 566 1
135 135 1
135 167 1
135 183 1
135 231 1
135 263 1
135 279 1
135 519 1
135 551 1
135 567 1
136 136 1
136 168 1
136 184 1
136 232 1
136 264 1
136 280 1
136 520 1
136 552 1
136 568 1
137 137 1
137 169 1
137 185 1
137 233 1
137 265 1
137 281 1
137 521 1
137 553 1
137 569 1
138 138 1
138 170 1
138 186 1
138 234 1
138 266 1
138 282 1
138 522 1
138 554 1
138 570 1
139 139 1
139 171 1
139 187 1
139 235 1
139 267 1
139 283 1
139 523 1
139 555 1
139 571 1
140 140 1
140 172 1
140 188 1
140 236 1
140 268 1
140 284 1
140 524 1
140 556 1
140 572 1
141 141 1
141 173 1
141 189 1
141 237 1
141 269 1
141 285 1
141 525 1
141 557 1
141 573 1
142 142 1
142 174 1
142 190 1
142 238 1
142 270 1
142 286 1
142 526 1
142 558 1
142 574 1
143 143 1
143 175 1
143 191 1
143 239 1
143 271 1
143 287 1
143 527 1
143 559 1
143 575 1
144 144 1
144 176 1
144 192 1
144 240 1
144 272 1
144 288 1
144 528 1
144 560 1
144 576 1
145 1 1
145 46 1
145 68 1
145 103 1
145 131 1
145 168 1
145 297 1
145 326 1
145 362 1
146 2 1
146 47 1
146 71 1
146 105 1
146 134 1
146 170 1
146 300 1
146 324 1
146 365 1
147 3 1
147 48 1
147 73 1
147 108 1
147 132 1
147 173 1
147 293 1
147 327 1
147 363 1
148 4 1
148 34 1
148 69 1
148 104 1
148 137 1
148 174 1
148 298 1
148 332 1
148 367 1
149 5 1
149 39 1
149 75 1
149 110 1
149 138 1
149 162 1
149 303 1
149 333 1
149 355 1
150 6 1
150 33 1
150 76 1
150 101 1
150 135 1
150 171 1
150 296 1
150 329 1
150 366 1
151 7 1
151 35 1
151 72 1
151 106 1
151 140 1
151 175 1
151 301 1
151 325 1
151 368 1
152 8 1
152 41 1
152 78 1
152 111 1
152 141 1
152 163 1
152 304 1
152 331 1
152 358 1
153 9 1
153 38 1
153 74 1
153 109 1
153 133 1
153 176 1
153 299 1
153 328 1
153 353 1
154 10 1
154 44 1
154 79 1
154 112 1
154 139 1
154 166 1
154 289 1
154 334 1
154 356 1
155 11 1
155 40 1
155 65 1
155 98 1
155 143 1
155 167 1
155 291 1
155 336 1
155 361 1
156 12 1
156 36 1
156 77 1
156 107 1
156 136 1
156 161 1
156 302 1
156 330 1
156 354 1
157 13 1
157 37 1
157 80 1
157 97 1
157 142 1
157 164 1
157 290 1
157 335 1
157 359 1
158 14 1
158 42 1
158 66 1
158 99 1
158 144 1
158 169 1
158 294 1
158 321 1
158 364 1
159 15 1
159 45 1
159 67 1
159 102 1
159 129 1
159 172 1
159 292 1
159 322 1
159 357 1
160 16 1
160 43 1
160 70 1
160 100 1
160 130 1
160 165 1
160 295 1
160 323 1
160 360 1
161 27 1
161 46 1
161 57 1
161 114 1
161 131 1
161 157 1
161 307 1
161 326 1
161 347 1
162 30 1
162 47 1
162 60 1
162 115 1
162 134 1
162 155 1
162 310 1
162 324 1
162 350 1
163 31 1
163 48 1
163 53 1
163 118 1
163 132 1
163 158 1
163 308 1
163 327 1
163 351 1
164 17 1
164 34 1
164 58 1
164 119 1
164 137 1
164 160 1
164 313 1
164 332 1
164 337 1
165 20 1
165 39 1
165 63 1
165 120 1
165 138 1
165 150 1
165 314 1
165 333 1
165 340 1
166 32 1
166 33 1
166 56 1
166 116 1
166 135 1
166 159 1
166 311 1
166 329 1
166 352 1
167 18 1
167 35 1
167 61 1
167 121 1
167 140 1
167 145 1
167 316 1
167 325 1
167 338 1
168 23 1
168 41 1
168 64 1
168 122 1
168 141 1
168 148 1
168 317 1
168 331 1
168 343 1
169 19 1
169 38 1
169 59 1
169 124 1
169 133 1
169 146 1
169 309 1
169 328 1
169 339 1
170 25 1
170 44 1
170 49 1
170 125 1
170 139 1
170 151 1
170 315 1
170 334 1
170 345 1
171 21 1
171 40 1
171 51 1
171 126 1
171 143 1
171 156 1
171 319 1
171 336 1
171 341 1
172 22 1
172 36 1
172 62 1
172 117 1
172 136 1
172 147 1
172 312 1
172 330 1
172 342 1
173 28 1
173 37 1
173 50 1
173 123 1
173 142 1
173 153 1
173 318 1
173 335 1
173 348 1
174 24 1
174 42 1
174 54 1
174 127 1
174 144 1
174 149 1
174 320 1
174 321 1
174 344 1
175 26 1
175 45 1
175 52 1
175 128 1
175 129 1
175 152 1
175 305 1
175 322 1
175 346 1
176 29 1
176 43 1
176 55 1
176 113 1
176 130 1
176 154 1
176 306 1
176 323 1
176 349 1
177 57 1
177 68 1
177 87 1
177 157 1
177 168 1
177 186 1
177 347 1
177 362 1
177 381 1
178 60 1
178 71 1
178 89 1
178 155 1
178 170 1
178 189 1
178 350 1
178 365 1
178 379 1
179 53 1
179 73 1
179 92 1
179 158 1
179 173 1
179 187 1
179 351 1
179 363 1
179 382 1
180 58 1
180 69 1
180 88 1
180 160 1
180 174 1
180 191 1
180 337 1
180 367 1
180 384 1
181 63 1
181 75 1
181 94 1
181 150 1
181 162 1
181 179 1
181 340 1
181 355 1
181 374 1
182 56 1
182 76 1
182 85 1
182 159 1
182 171 1
182 190 1
182 352 1
182 366 1
182 383 1
183 61 1
183 72 1
183 90 1
183 145 1
183 175 1
183 192 1
183 338 1
183 368 1
183 369 1
184 64 1
184 78 1
184 95 1
184 148 1
184 163 1
184 182 1
184 343 1
184 358 1
184 372 1
185 59 1
185 74 1
185 93 1
185 146 1
185 176 1
185 177 1
185 339 1
185 353 1
185 370 1
186 49 1
186 79 1
186 96 1
186 151 1
186 166 1
186 180 1
186 345 1
186 356 1
186 375 1
187 51 1
187 65 1
187 82 1
187 156 1
187 167 1
187 185 1
187 341 1
187 361 1
187 380 1
188 62 1
188 77 1
188 91 1
188 147 1
188 161 1
188 178 1
188 342 1
188 354 1
188 371 1
189 50 1
189 80 1
189 81 1
189 153 1
189 164 1
189 183 1
189 348 1
189 359 1
189 377 1
190 54 1
190 66 1
190 83 1
190 149 1
190 169 1
190 188 1
190 344 1
190 364 1
190 373 1
191 52 1
191 67 1
191 86 1
191 152 1
191 172 1
191 181 1
191 346 1
191 357 1
191 376 1
192 55 1
192 70 1
192 84 1
192 154 1
192 165 1
192 184 1
192 349 1
192 360 1
192 378 1
193 1 1
193 46 1
193 68 1
193 394 1
193 428 1
193 463 1
193 491 1
193 520 1
193 545 1
194 2 1
194 47 1
194 71 1
194 397 1
194 421 1
194 464 1
194 494 1
194 522 1
194 546 1
195 3 1
195 48 1
195 73 1
195 395 1
195 424 1
195 449 1
195 495 1
195 525 1
195 547 1
196 4 1
196 34 1
196 69 1
196 399 1
196 429 1
196 451 1
196 481 1
196 526 1
196 548 1
197 5 1
197 39 1
197 75 1
197 387 1
197 432 1
197 457 1
197 484 1
197 514 1
197 549 1
198 6 1
198 33 1
198 76 1
198 398 1
198 426 1
198 450 1
198 496 1
198 523 1
198 550 1
199 7 1
199 35 1
199 72 1
199 400 1
199 427 1
199 454 1
199 482 1
199 527 1
199 551 1
200 8 1
200 41 1
200 78 1
200 390 1
200 417 1
200 460 1
200 487 1
200 515 1
200 552 1
201 9 1
201 38 1
201 74 1
201 385 1
201 430 1
201 452 1
201 483 1
201 528 1
201 553 1
202 10 1
202 44 1
202 79 1
202 388 1
202 418 1
202 453 1
202 489 1
202 518 1
202 554 1
203 11 1
203 40 1
203 65 1
203 393 1
203 422 1
203 458 1
203 485 1
203 519 1
203 555 1
204 12 1
204 36 1
204 77 1
204 386 1
204 431 1
204 455 1
204 486 1
204 513 1
204 556 1
205 13 1
205 37 1
205 80 1
205 391 1
205 419 1
205 456 1
205 492 1
205 516 1
205 557 1
206 14 1
206 42 1
206 66 1
206 396 1
206 420 1
206 461 1
206 488 1
206 521 1
206 558 1
207 15 1
207 45 1
207 67 1
207 389 1
207 423 1
207 459 1
207 490 1
207 524 1
207 559 1
208 16 1
208 43 1
208 70 1
208 392 1
208 425 1
208 462 1
208 493 1
208 517 1
208 560 1
209 27 1
209 46 1
209 57 1
209 409 1
209 428 1
209 433 1
209 501 1
209 520 1
209 531 1
210 30 1
210 47 1
210 60 1
210 412 1
210 421 1
210 434 1
210 504 1
210 522 1
210 534 1
211 31 1
211 48 1
211 53 1
211 405 1
211 424 1
211 435 1
211 506 1
211 525 1
211 532 1
212 17 1
212 34 1
212 58 1
212 410 1
212 429 1
212 436 1
212 507 1
212 526 1
212 537 1
213 20 1
213 39 1
213 63 1
213 415 1
213 432 1
213 437 1
213 497 1
213 514 1
213 538 1
214 32 1
214 33 1
214 56 1
214 408 1
214 426 1
214 438 1
214 509 1
214 523 1
214 535 1
215 18 1
215 35 1
215 61 1
215 413 1
215 427 1
215 439 1
215 510 1
215 527 1
215 540 1
216 23 1
216 41 1
216 64 1
216 416 1
216 417 1
216 440 1
216 498 1
216 515 1
216 541 1
217 19 1
217 38 1
217 59 1
217 411 1
217 430 1
217 441 1
217 511 1
217 528 1
217 533 1
218 25 1
218 44 1
218 49 1
218 401 1
218 418 1
218 442 1
218 499 1
218 518 1
218 539 1
219 21 1
219 40 1
219 51 1
219 403 1
219 422 1
219 443 1
219 500 1
219 519 1
219 543 1
220 22 1
220 36 1
220 62 1
220 414 1
220 431 1
220 444 1
220 512 1
220 513 1
220 536 1
221 28 1
221 37 1
221 50 1
221 402 1
221 419 1
221 445 1
221 502 1
221 516 1
221 542 1
222 24 1
222 42 1
222 54 1
222 406 1
222 420 1
222 446 1
222 503 1
222 521 1
222 544 1
223 26 1
223 45 1
223 52 1
223 404 1
223 423 1
223 447 1
223 505 1
223 524 1
223 529 1
224 29 1
224 43 1
224 55 1
224 407 1
224 425 1
224 448 1
224 508 1
224 517 1
224 530 1
225 57 1
225 68 1
225 87 1
225 433 1
225 463 1
225 480 1
225 531 1
225 545 1
225 562 1
226 60 1
226 71 1
226 89 1
226 434 1
226 464 1
226 465 1
226 534 1
226 546 1
226 563 1
227 53 1
227 73 1
227 92 1
227 435 1
227 449 1
227 466 1
227 532 1
227 547 1
227 566 1
228 58 1
228 69 1
228 88 1
228 436 1
228 451 1
228 470 1
228 537 1
228 548 1
228 567 1
229 63 1
229 75 1
229 94 1
229 437 1
229 457 1
229 476 1
229 538 1
229 549 1
229 568 1
230 56 1
230 76 1
230 85 1
230 438 1
230 450 1
230 467 1
230 535 1
230 550 1
230 564 1
231 61 1
231 72 1
231 90 1
231 439 1
231 454 1
231 468 1
231 540 1
231 551 1
231 569 1
232 64 1
232 78 1
232 95 1
232 440 1
232 460 1
232 469 1
232 541 1
232 552 1
232 570 1
233 59 1
233 74 1
233 93 1
233 441 1
233 452 1
233 471 1
233 533 1
233 553 1
233 572 1
234 49 1
234 79 1
234 96 1
234 442 1
234 453 1
234 472 1
234 539 1
234 554 1
234 573 1
235 51 1
235 65 1
235 82 1
235 443 1
235 458 1
235 477 1
235 543 1
235 555 1
235 574 1
236 62 1
236 77 1
236 91 1
236 444 1
236 455 1
236 473 1
236 536 1
236 556 1
236 565 1
237 50 1
237 80 1
237 81 1
237 445 1
237 456 1
237 474 1
237 542 1
237 557 1
237 571 1
238 54 1
238 66 1
238 83 1
238 446 1
238 461 1
238 475 1
238 544 1
238 558 1
238 575 1
239 52 1
239 67 1
239 86 1
239 447 1
239 459 1
239 478 1
239 529 1
239 559 1
239 576 1
240 55 1
240 70 1
240 84 1
240 448 1
240 462 1
240 479 1
240 530 1
240 560 1
240 561 1
241 103 1
241 131 1
241 168 1
241 200 1
241 233 1
241 270 1
241 394 1
241 428 1
241 463 1
242 105 1
242 134 1
242 170 1
242 202 1
242 236 1
242 271 1
242 397 1
242 421 1
242 464 1
243 108 1
243 132 1
243 173 1
243 205 1
243 229 1
243 272 1
243 395 1
243 424 1
243 449 1
244 104 1
244 137 1
244 174 1
244 206 1
244 234 1
244 258 1
244 399 1
244 429 1
244 451 1
245 110 1
245 138 1
245 162 1
245 194 1
245 239 1
245 263 1
245 387 1
245 432 1
245 457 1
246 101 1
246 135 1
246 171 1
246 203 1
246 232 1
246 257 1
246 398 1
246 426 1
246 450 1
247 106 1
247 140 1
247 175 1
247 207 1
247 237 1
247 259 1
247 400 1
247 427 1
247 454 1
248 111 1
248 141 1
248 163 1
248 195 1
248 240 1
248 265 1
248 390 1
248 417 1
248 460 1
249 109 1
249 133 1
249 176 1
249 208 1
249 235 1
249 262 1
249 385 1
249 430 1
249 452 1
250 112 1
250 139 1
250 166 1
250 198 1
250 225 1
250 268 1
250 388 1
250 418 1
250 453 1
251 98 1
251 143 1
251 167 1
251 199 1
251 227 1
251 264 1
251 393 1
251 422 1
251 458 1
252 107 1
252 136 1
252 161 1
252 193 1
252 238 1
252 260 1
252 386 1
252 431 1
252 455 1
253 97 1
253 142 1
253 164 1
253 196 1
253 226 1
253 261 1
253 391 1
253 419 1
253 456 1
254 99 1
254 144 1
254 169 1
254 201 1
254 230 1
254 266 1
254 396 1
254 420 1
254 461 1
255 102 1
255 129 1
255 172 1
255 204 1
255 228 1
255 269 1
255 389 1
255 423 1
255 459 1
256 100 1
256 130 1
256 165 1
256 197 1
256 231 1
256 267 1
256 392 1
256 425 1
256 462 1
257 114 1
257 131 1
257 157 1
257 215 1
257 233 1
257 256 1
257 409 1
257 428 1
257 433 1
258 115 1
258 134 1
258 155 1
258 217 1
258 236 1
258 241 1
258 412 1
258 421 1
258 434 1
259 118 1
259 132 1
259 158 1
259 220 1
259 229 1
259 242 1
259 405 1
259 424 1
259 435 1
260 119 1
260 137 1
260 160 1
260 216 1
260 234 1
260 246 1
260 410 1
260 429 1
260 436 1
261 120 1
261 138 1
261 150 1
261 222 1
261 239 1
261 252 1
261 415 1
261 432 1
261 437 1
262 116 1
262 135 1
262 159 1
262 213 1
262 232 1
262 243 1
262 408 1
262 426 1
262 438 1
263 121 1
263 140 1
263 145 1
263 218 1
263 237 1
263 244 1
263 413 1
263 427 1
263 439 1
264 122 1
264 141 1
264 148 1
264 223 1
264 240 1
264 245 1
264 416 1
264 417 1
264 440 1
265 124 1
265 133 1
265 146 1
265 221 1
265 235 1
265 247 1
265 411 1
265 430 1
265 441 1
266 125 1
266 139 1
266 151 1
266 224 1
266 225 1
266 248 1
266 401 1
266 418 1
266 442 1
267 126 1
267 143 1
267 156 1
267 210 1
267 227 1
267 253 1
267 403 1
267 422 1
267 443 1
268 117 1
268 136 1
268 147 1
268 219 1
268 238 1
268 249 1
268 414 1
268 431 1
268 444 1
269 123 1
269 142 1
269 153 1
269 209 1
269 226 1
269 250 1
269 402 1
269 419 1
269 445 1
270 127 1
270 144 1
270 149 1
270 211 1
270 230 1
270 251 1
270 406 1
270 420 1
270 446 1
271 128 1
271 129 1
271 152 1
271 214 1
271 228 1
271 254 1
271 404 1
271 423 1
271 447 1
272 113 1
272 130 1
272 154 1
272 212 1
272 231 1
272 255 1
272 407 1
272 425 1
272 448 1
273 157 1
273 168 1
273 186 1
273 256 1
273 270 1
273 287 1
273 433 1
273 463 1
273 480 1
274 155 1
274 170 1
274 189 1
274 241 1
274 271 1
274 288 1
274 434 1
274 464 1
274 465 1
275 158 1
275 173 1
275 187 1
275 242 1
275 272 1
275 273 1
275 435 1
275 449 1
275 466 1
276 160 1
276 174 1
276 191 1
276 246 1
276 258 1
276 275 1
276 436 1
276 451 1
276 470 1
277 150 1
277 162 1
277 179 1
277 252 1
277 263 1
277 281 1
277 437 1
277 457 1
277 476 1
278 159 1
278 171 1
278 190 1
278 243 1
278 257 1
278 274 1
278 438 1
278 450 1
278 467 1
279 145 1
279 175 1
279 192 1
279 244 1
279 259 1
279 278 1
279 439 1
279 454 1
279 468 1
280 148 1
280 163 1
280 182 1
280 245 1
280 265 1
280 284 1
280 440 1
280 460 1
280 469 1
281 146 1
281 176 1
281 177 1
281 247 1
281 262 1
281 276 1
281 441 1
281 452 1
281 471 1
282 151 1
282 166 1
282 180 1
282 248 1
282 268 1
282 277 1
282 442 1
282 453 1
282 472 1
283 156 1
283 167 1
283 185 1
283 253 1
283 264 1
283 282 1
283 443 1
283 458 1
283 477 1
284 147 1
284 161 1
284 178 1
284 249 1
284 260 1
284 279 1
284 444 1
284 455 1
284 473 1
285 153 1
285 164 1
285 183 1
285 250 1
285 261 1
285 280 1
285 445 1
285 456 1
285 474 1
286 149 1
286 169 1
286 188 1
286 251 1
286 266 1
286 285 1
286 446 1
286 461 1
286 475 1
287 152 1
287 172 1
287 181 1
287 254 1
287 269 1
287 283 1
287 447 1
287 459 1
287 478 1
288 154 1
288 165 1
288 184 1
288 255 1
288 267 1
288 286 1
288 448 1
288 462 1
288 479 1
