%%MatrixMarket matrix coordinate integer general
162 324 1458
1 1 1
1 28 1
1 37 1
1 55 1
1 82 1
1 91 1
1 163 1
1 190 1
1 199 1
2 2 1
2 29 1
2 38 1
2 56 1
2 83 1
2 92 1
2 164 1
2 191 1
2 200 1
3 3 1
3 30 1
3 39 1
3 57 1
3 84 1
3 93 1
3 165 1
3 192 1
3 201 1
4 4 1
4 31 1
4 40 1
4 58 1
4 85 1
4 94 1
4 166 1
4 193 1
4 202 1
5 5 1
5 32 1
5 41 1
5 59 1
5 86 1
5 95 1
5 167 1
5 194 1
5 203 1
6 6 1
6 33 1
6 42 1
6 60 1
6 87 1
6 96 1
6 168 1
6 195 1
6 204 1
7 7 1
7 34 1
7 43 1
7 61 1
7 88 1
7 97 1
7 169 1
7 196 1
7 205 1
8 8 1
8 35 1
8 44 1
8 62 1
8 89 1
8 98 1
8 170 1
8 197 1
8 206 1
9 9 1
9 36 1
9 45 1
9 63 1
9 90 1
9 99 1
9 171 1
9 198 1
9 207 1
10 10 1
10 28 1
10 46 1
10 64 1
10 82 1
10 100 1
10 172 1
10 190 1
10 208 1
11 11 1
11 29 1
11 47 1
11 65 1
11 83 1
11 101 1
11 173 1
11 191 1
11 209 1
12 12 1
12 30 1
12 48 1
12 66 1
12 84 1
12 102 1
12 174 1
12 192 1
12 210 1
13 13 1
13 31 1
13 49 1
13 67 1
13 85 1
13 103 1
13 175 1
13 193 1
13 211 1
14 14 1
14 32 1
14 50 1
14 68 1
14 86 1
14 104 1
14 176 1
14 194 1
14 212 1
15 15 1
15 33 1
15 51 1
15 69 1
15 87 1
15 105 1
15 177 1
15 195 1
15 213 1
16 16 1
16 34 1
16 52 1
16 70 1
16 88 1
16 106 1
16 178 1
16 196 1
16 214 1
17 17 1
17 35 1
17 53 1
17 71 1
17 89 1
17 107 1
17 179 1
17 197 1
17 215 1
18 18 1
18 36 1
18 54 1
18 72 1
18 90 1
18 108 1
18 180 1
18 198 1
18 216 1
19 19 1
19 37 1
19 46 1
19 73 1
19 91 1
19 100 1
19 181 1
19 199 1
19 208 1
20 20 1
20 38 1
20 47 1
20 74 1
20 92 1
20 101 1
20 182 1
20 200 1
20 209 1
21 21 1
21 39 1
21 48 1
21 75 1
21 93 1
21 102 1
21 183 1
21 201 1
21 210 1
22 22 1
22 40 1
22 49 1
22 76 1
22 94 1
22 103 1
22 184 1
22 202 1
22 211 1
23 23 1
23 41 1
23 50 1
23 77 1
23 95 1
23 104 1
23 185 1
23 203 1
23 212 1
24 24 1
24 42 1
24 51 1
24 78 1
24 96 1
24 105 1
24 186 1
24 204 1
24 213 1
25 25 1
25 43 1
25 52 1
25 79 1
25 97 1
25 106 1
25 187 1
25 205 1
25 214 1
26 26 1
26 44 1
26 53 1
26 80 1
26 98 1
26 107 1
26 188 1
26 206 1
26 215 1
27 27 1
27 45 1
27 54 1
27 81 1
27 99 1
27 108 1
27 189 1
27 207 1
27 216 1
28 1 1
28 28 1
28 37 1
28 109 1
28 136 1
28 145 1
28 217 1
28 244 1
28 253 1
29 2 1
29 29 1
29 38 1
29 110 1
29 137 1
29 146 1
29 218 1
29 245 1
29 254 1
30 3 1
30 30 1
30 39 1
30 111 1
30 138 1
30 147 1
30 219 1
30 246 1
30 255 1
31 4 1
31 31 1
31 40 1
31 112 1
31 139 1
31 148 1
31 220 1
31 247 1
31 256 1
32 5 1
32 32 1
32 41 1
32 113 1
32 140 1
32 149 1
32 221 1
32 248 1
32 257 1
33 6 1
33 33 1
33 42 1
33 114 1
33 141 1
33 150 1
33 222 1
33 249 1
33 258 1
34 7 1
34 34 1
34 43 1
34 115 1
34 142 1
34 151 1
34 223 1
34 250 1
34 259 1
35 8 1
35 35 1
35 44 1
35 116 1
35 143 1
35 152 1
35 224 1
35 251 1
35 260 1
36 9 1
36 36 1
36 45 1
36 117 1
36 144 1
36 153 1
36 225 1
36 252 1
36 261 1
37 10 1
37 28 1
37 46 1
37 118 1
37 136 1
37 154 1
37 226 1
37 244 1
37 262 1
38 11 1
38 29 1
38 47 1
38 119 1
38 137 1
38 155 1
38 227 1
38 245 1
38 263 1
39 12 1
39 30 1
39 48 1
39 120 1
39 138 1
39 156 1
39 228 1
39 246 1
39 264 1
40 13 1
40 31 1
40 49 1
40 121 1
40 139 1
40 157 1
40 229 1
40 247 1
40 265 1
41 14 1
41 32 1
41 50 1
41 122 1
41 140 1
41 158 1
41 230 1
41 248 1
41 266 1
42 15 1
42 33 1
42 51 1
42 123 1
42 141 1
42 159 1
42 231 1
42 249 1
42 267 1
43 16 1
43 34 1
43 52 1
43 124 1
43 142 1
43 160 1
43 232 1
43 250 1
43 268 1
44 17 1
44 35 1
44 53 1
44 125 1
44 143 1
44 161 1
44 233 1
44 251 1
44 269 1
45 18 1
45 36 1
45 54 1
45 126 1
45 144 1
45 162 1
45 234 1
45 252 1
45 270 1
46 19 1
46 37 1
46 46 1
46 127 1
46 145 1
46 154 1
46 235 1
46 253 1
46 262 1
47 20 1
47 38 1
47 47 1
47 128 1
47 146 1
47 155 1
47 236 1
47 254 1
47 263 1
48 21 1
48 39 1
48 48 1
48 129 1
48 147 1
48 156 1
48 237 1
48 255 1
48 264 1
49 22 1
49 40 1
49 49 1
49 130 1
49 148 1
49 157 1
49 238 1
49 256 1
49 265 1
50 23 1
50 41 1
50 50 1
50 131 1
50 149 1
50 158 1
50 239 1
50 257 1
50 266 1
51 24 1
51 42 1
51 51 1
51 132 1
51 150 1
51 159 1
51 240 1
51 258 1
51 267 1
52 25 1
52 43 1
52 52 1
52 133 1
52 151 1
52 160 1
52 241 1
52 259 1
52 268 1
53 26 1
53 44 1
53 53 1
53 134 1
53 152 1
53 161 1
53 242 1
53 260 1
53 269 1
54 27 1
54 45 1
54 54 1
54 135 1
54 153 1
54 162 1
54 243 1
54 261 1
54 270 1
55 55 1
55 82 1
55 91 1
55 109 1
55 136 1
55 145 1
55 271 1
55 298 1
55 307 1
56 56 1
56 83 1
56 92 1
56 110 1
56 137 1
56 146 1
56 272 1
56 299 1
56 308 1
57 57 1
57 84 1
57 93 1
57 111 1
57 138 1
57 147 1
57 273 1
57 300 1
57 309 1
58 58 1
58 85 1
58 94 1
58 112 1
58 139 1
58 148 1
58 274 1
58 301 1
58 310 1
59 59 1
59 86 1
59 95 1
59 113 1
59 140 1
59 149 1
59 275 1
59 302 1
59 311 1
60 60 1
60 87 1
60 96 1
60 114 1
60 141 1
60 150 1
60 276 1
60 303 1
60 312 1
61 61 1
61 88 1
61 97 1
61 115 1
61 142 1
61 151 1
61 277 1
61 304 1
61 313 1
62 62 1
62 89 1
62 98 1
62 116 1
62 143 1
62 152 1
62 278 1
62 305 1
62 314 1
63 63 1
63 90 1
63 99 1
63 117 1
63 144 1
63 153 1
63 279 1
63 306 1
63 315 1
64 64 1
64 82 1
64 100 1
64 118 1
64 136 1
64 154 1
64 280 1
64 298 1
64 316 1
65 65 1
65 83 1
65 101 1
65 119 1
65 137 1
65 155 1
65 281 1
65 299 1
65 317 1
66 66 1
66 84 1
66 102 1
66 120 1
66 138 1
66 156 1
66 282 1
66 300 1
66 318 1
67 67 1
67 85 1
67 103 1
67 121 1
67 139 1
67 157 1
67 283 1
67 301 1
67 319 1
68 68 1
68 86 1
68 104 1
68 122 1
68 140 1
68 158 1
68 284 1
68 302 1
68 320 1
69 69 1
69 87 1
69 105 1
69 123 1
69 141 1
69 159 1
69 285 1
69 303 1
69 321 1
70 70 1
70 88 1
70 106 1
70 124 1
70 142 1
70 160 1
70 286 1
70 304 1
70 322 1
71 71 1
71 89 1
71 107 1
71 125 1
71 143 1
71 161 1
71 287 1
71 305 1
71 323 1
72 72 1
72 90 1
72 108 1
72 126 1
72 144 1
72 162 1
72 288 1
72 306 1
72 324 1
73 73 1
73 91 1
73 100 1
73 127 1
73 145 1
73 154 1
73 289 1
73 307 1
73 316 1
74 74 1
74 92 1
74 101 1
74 128 1
74 146 1
74 155 1
74 290 1
74 308 1
74 317 1
75 75 1
75 93 1
75 102 1
75 129 1
75 147 1
75 156 1
75 291 1
75 309 1
75 318 1
76 76 1
76 94 1
76 103 1
76 130 1
76 148 1
76 157 1
76 292 1
76 310 1
76 319 1
77 77 1
77 95 1
77 104 1
77 131 1
77 149 1
77 158 1
77 293 1
77 311 1
77 320 1
78 78 1
78 96 1
78 105 1
78 132 1
78 150 1
78 159 1
78 294 1
78 312 1
78 321 1
79 79 1
79 97 1
79 106 1
79 133 1
79 151 1
79 160 1
79 295 1
79 313 1
79 322 1
80 80 1
80 98 1
80 107 1
80 134 1
80 152 1
80 161 1
80 296 1
80 314 1
80 323 1
81 81 1
81 99 1
81 108 1
81 135 1
81 153 1
81 162 1
81 297 1
81 315 1
81 324 1
82 1 1
82 45 1
82 50 1
82 55 1
82 99 1
82 104 1
82 273 1
82 310 1
82 323 1
83 2 1
83 42 1
83 52 1
83 56 1
83 96 1
83 106 1
83 275 1
83 307 1
83 324 1
84 3 1
84 40 1
84 53 1
84 57 1
84 94 1
84 107 1
84 276 1
84 313 1
84 317 1
85 4 1
85 44 1
85 48 1
85 58 1
85 98 1
85 102 1
85 277 1
85 308 1
85 321 1
86 5 1
86 37 1
86 54 1
86 59 1
86 91 1
86 108 1
86 278 1
86 309 1
86 319 1
87 6 1
87 43 1
87 47 1
87 60 1
87 97 1
87 101 1
87 271 1
87 315 1
87 320 1
88 7 1
88 38 1
88 51 1
88 61 1
88 92 1
88 105 1
88 279 1
88 311 1
88 316 1
89 8 1
89 39 1
89 49 1
89 62 1
89 93 1
89 103 1
89 272 1
89 312 1
89 322 1
90 9 1
90 41 1
90 46 1
90 63 1
90 95 1
90 100 1
90 274 1
90 314 1
90 318 1
91 13 1
91 24 1
91 50 1
91 67 1
91 78 1
91 104 1
91 286 1
91 289 1
91 323 1
92 10 1
92 26 1
92 52 1
92 64 1
92 80 1
92 106 1
92 282 1
92 290 1
92 324 1
93 16 1
93 19 1
93 53 1
93 70 1
93 73 1
93 107 1
93 288 1
93 291 1
93 317 1
94 11 1
94 27 1
94 48 1
94 65 1
94 81 1
94 102 1
94 284 1
94 292 1
94 321 1
95 12 1
95 20 1
95 54 1
95 66 1
95 74 1
95 108 1
95 285 1
95 293 1
95 319 1
96 18 1
96 21 1
96 47 1
96 72 1
96 75 1
96 101 1
96 283 1
96 294 1
96 320 1
97 14 1
97 22 1
97 51 1
97 68 1
97 76 1
97 105 1
97 287 1
97 295 1
97 316 1
98 15 1
98 23 1
98 49 1
98 69 1
98 77 1
98 103 1
98 280 1
98 296 1
98 322 1
99 17 1
99 25 1
99 46 1
99 71 1
99 79 1
99 100 1
99 281 1
99 297 1
99 318 1
100 24 1
100 29 1
100 45 1
100 78 1
100 83 1
100 99 1
100 289 1
100 302 1
100 310 1
101 26 1
101 31 1
101 42 1
101 80 1
101 85 1
101 96 1
101 290 1
101 304 1
101 307 1
102 19 1
102 32 1
102 40 1
102 73 1
102 86 1
102 94 1
102 291 1
102 305 1
102 313 1
103 27 1
103 28 1
103 44 1
103 81 1
103 82 1
103 98 1
103 292 1
103 300 1
103 308 1
104 20 1
104 34 1
104 37 1
104 74 1
104 88 1
104 91 1
104 293 1
104 306 1
104 309 1
105 21 1
105 35 1
105 43 1
105 75 1
105 89 1
105 97 1
105 294 1
105 299 1
105 315 1
106 22 1
106 30 1
106 38 1
106 76 1
106 84 1
106 92 1
106 295 1
106 303 1
106 311 1
107 23 1
107 36 1
107 39 1
107 77 1
107 90 1
107 93 1
107 296 1
107 301 1
107 312 1
108 25 1
108 33 1
108 41 1
108 79 1
108 87 1
108 95 1
108 297 1
108 298 1
108 314 1
109 1 1
109 45 1
109 50 1
109 164 1
109 204 1
109 214 1
109 219 1
109 256 1
109 269 1
110 2 1
110 42 1
110 52 1
110 166 1
110 206 1
110 210 1
110 221 1
110 253 1
110 270 1
111 3 1
111 40 1
111 53 1
111 167 1
111 199 1
111 216 1
111 222 1
111 259 1
111 263 1
112 4 1
112 44 1
112 48 1
112 163 1
112 207 1
112 212 1
112 223 1
112 254 1
112 267 1
113 5 1
113 37 1
113 54 1
113 169 1
113 200 1
113 213 1
113 224 1
113 255 1
113 265 1
114 6 1
114 43 1
114 47 1
114 170 1
114 201 1
114 211 1
114 217 1
114 261 1
114 266 1
115 7 1
115 38 1
115 51 1
115 165 1
115 202 1
115 215 1
115 225 1
115 257 1
115 262 1
116 8 1
116 39 1
116 49 1
116 171 1
116 203 1
116 208 1
116 218 1
116 258 1
116 268 1
117 9 1
117 41 1
117 46 1
117 168 1
117 205 1
117 209 1
117 220 1
117 260 1
117 264 1
118 13 1
118 24 1
118 50 1
118 172 1
118 188 1
118 214 1
118 232 1
118 235 1
118 269 1
119 10 1
119 26 1
119 52 1
119 173 1
119 189 1
119 210 1
119 228 1
119 236 1
119 270 1
120 16 1
120 19 1
120 53 1
120 174 1
120 182 1
120 216 1
120 234 1
120 237 1
120 263 1
121 11 1
121 27 1
121 48 1
121 175 1
121 186 1
121 212 1
121 230 1
121 238 1
121 267 1
122 12 1
122 20 1
122 54 1
122 176 1
122 184 1
122 213 1
122 231 1
122 239 1
122 265 1
123 18 1
123 21 1
123 47 1
123 177 1
123 185 1
123 211 1
123 229 1
123 240 1
123 266 1
124 14 1
124 22 1
124 51 1
124 178 1
124 181 1
124 215 1
124 233 1
124 241 1
124 262 1
125 15 1
125 23 1
125 49 1
125 179 1
125 187 1
125 208 1
125 226 1
125 242 1
125 268 1
126 17 1
126 25 1
126 46 1
126 180 1
126 183 1
126 209 1
126 227 1
126 243 1
126 264 1
127 24 1
127 29 1
127 45 1
127 188 1
127 193 1
127 204 1
127 235 1
127 248 1
127 256 1
128 26 1
128 31 1
128 42 1
128 189 1
128 190 1
128 206 1
128 236 1
128 250 1
128 253 1
129 19 1
129 32 1
129 40 1
129 182 1
129 196 1
129 199 1
129 237 1
129 251 1
129 259 1
130 27 1
130 28 1
130 44 1
130 186 1
130 191 1
130 207 1
130 238 1
130 246 1
130 254 1
131 20 1
131 34 1
131 37 1
131 184 1
131 192 1
131 200 1
131 239 1
131 252 1
131 255 1
132 21 1
132 35 1
132 43 1
132 185 1
132 198 1
132 201 1
132 240 1
132 245 1
132 261 1
133 22 1
133 30 1
133 38 1
133 181 1
133 194 1
133 202 1
133 241 1
133 249 1
133 257 1
134 23 1
134 36 1
134 39 1
134 187 1
134 195 1
134 203 1
134 242 1
134 247 1
134 258 1
135 25 1
135 33 1
135 41 1
135 183 1
135 197 1
135 205 1
135 243 1
135 244 1
135 260 1
136 55 1
136 99 1
136 104 1
136 110 1
136 150 1
136 160 1
136 164 1
136 204 1
136 214 1
137 56 1
137 96 1
137 106 1
137 112 1
137 152 1
137 156 1
137 166 1
137 206 1
137 210 1
138 57 1
138 94 1
138 107 1
138 113 1
138 145 1
138 162 1
138 167 1
138 199 1
138 216 1
139 58 1
139 98 1
139 102 1
139 109 1
139 153 1
139 158 1
139 163 1
139 207 1
139 212 1
140 59 1
140 91 1
140 108 1
140 115 1
140 146 1
140 159 1
140 169 1
140 200 1
140 213 1
141 60 1
141 97 1
141 101 1
141 116 1
141 147 1
141 157 1
141 170 1
141 201 1
141 211 1
142 61 1
142 92 1
142 105 1
142 111 1
142 148 1
142 161 1
142 165 1
142 202 1
142 215 1
143 62 1
143 93 1
143 103 1
143 117 1
143 149 1
143 154 1
143 171 1
143 203 1
143 208 1
144 63 1
144 95 1
144 100 1
144 114 1
144 151 1
144 155 1
144 168 1
144 205 1
144 209 1
145 67 1
145 78 1
145 104 1
145 118 1
145 134 1
145 160 1
145 172 1
145 188 1
145 214 1
146 64 1
146 80 1
146 106 1
146 119 1
146 135 1
146 156 1
146 173 1
146 189 1
146 210 1
147 70 1
147 73 1
147 107 1
147 120 1
147 128 1
147 162 1
147 174 1
147 182 1
147 216 1
148 65 1
148 81 1
148 102 1
148 121 1
148 132 1
148 158 1
148 175 1
148 186 1
148 212 1
149 66 1
149 74 1
149 108 1
149 122 1
149 130 1
149 159 1
149 176 1
149 184 1
149 213 1
150 72 1
150 75 1
150 101 1
150 123 1
150 131 1
150 157 1
150 177 1
150 185 1
150 211 1
151 68 1
151 76 1
151 105 1
151 124 1
151 127 1
151 161 1
151 178 1
151 181 1
151 215 1
152 69 1
152 77 1
152 103 1
152 125 1
152 133 1
152 154 1
152 179 1
152 187 1
152 208 1
153 71 1
153 79 1
153 100 1
153 126 1
153 129 1
153 155 1
153 180 1
153 183 1
153 209 1
154 78 1
154 83 1
154 99 1
154 134 1
154 139 1
154 150 1
154 188 1
154 193 1
154 204 1
155 80 1
155 85 1
155 96 1
155 135 1
155 136 1
155 152 1
155 189 1
155 190 1
155 206 1
156 73 1
156 86 1
156 94 1
156 128 1
156 142 1
156 145 1
156 182 1
156 196 1
156 199 1
157 81 1
157 82 1
157 98 1
157 132 1
157 137 1
157 153 1
157 186 1
157 191 1
157 207 1
158 74 1
158 88 1
158 91 1
158 130 1
158 138 1
158 146 1
158 184 1
158 192 1
158 200 1
159 75 1
159 89 1
159 97 1
159 131 1
159 144 1
159 147 1
159 185 1
159 198 1
159 201 1
160 76 1
160 84 1
160 92 1
160 127 1
160 140 1
160 148 1
160 181 1
160 194 1
160 202 1
161 77 1
161 90 1
161 93 1
161 133 1
161 141 1
161 149 1
161 187 1
161 195 1
161 203 1
162 79 1
162 87 1
162 95 1
162 129 1
162 143 1
162 151 1
162 183 1
162 197 1
162 205 1
