%%MatrixMarket matrix coordinate integer general
144 288 1296
1 1 1
1 14 1
1 43 1
1 145 1
1 158 1
1 187 1
1 193 1
1 206 1
1 235 1
2 2 1
2 9 1
2 45 1
2 146 1
2 153 1
2 189 1
2 194 1
2 201 1
2 237 1
3 3 1
3 13 1
3 44 1
3 147 1
3 157 1
3 188 1
3 195 1
3 205 1
3 236 1
4 4 1
4 10 1
4 47 1
4 148 1
4 154 1
4 191 1
4 196 1
4 202 1
4 239 1
5 5 1
5 15 1
5 46 1
5 149 1
5 159 1
5 190 1
5 197 1
5 207 1
5 238 1
6 6 1
6 12 1
6 48 1
6 150 1
6 156 1
6 192 1
6 198 1
6 204 1
6 240 1
7 7 1
7 16 1
7 41 1
7 151 1
7 160 1
7 185 1
7 199 1
7 208 1
7 233 1
8 8 1
8 11 1
8 42 1
8 152 1
8 155 1
8 186 1
8 200 1
8 203 1
8 234 1
9 1 1
9 23 1
9 34 1
9 145 1
9 167 1
9 178 1
9 193 1
9 215 1
9 226 1
10 2 1
10 24 1
10 36 1
10 146 1
10 168 1
10 180 1
10 194 1
10 216 1
10 228 1
11 3 1
11 17 1
11 40 1
11 147 1
11 161 1
11 184 1
11 195 1
11 209 1
11 232 1
12 4 1
12 19 1
12 38 1
12 148 1
12 163 1
12 182 1
12 196 1
12 211 1
12 230 1
13 5 1
13 18 1
13 35 1
13 149 1
13 162 1
13 179 1
13 197 1
13 210 1
13 227 1
14 6 1
14 21 1
14 33 1
14 150 1
14 165 1
14 177 1
14 198 1
14 213 1
14 225 1
15 7 1
15 20 1
15 37 1
15 151 1
15 164 1
15 181 1
15 199 1
15 212 1
15 229 1
16 8 1
16 22 1
16 39 1
16 152 1
16 166 1
16 183 1
16 200 1
16 214 1
16 231 1
17 14 1
17 32 1
17 34 1
17 158 1
17 176 1
17 178 1
17 206 1
17 224 1
17 226 1
18 9 1
18 27 1
18 36 1
18 153 1
18 171 1
18 180 1
18 201 1
18 219 1
18 228 1
19 13 1
19 30 1
19 40 1
19 157 1
19 174 1
19 184 1
19 205 1
19 222 1
19 232 1
20 10 1
20 29 1
20 38 1
20 154 1
20 173 1
20 182 1
20 202 1
20 221 1
20 230 1
21 15 1
21 25 1
21 35 1
21 159 1
21 169 1
21 179 1
21 207 1
21 217 1
21 227 1
22 12 1
22 31 1
22 33 1
22 156 1
22 175 1
22 177 1
22 204 1
22 223 1
22 225 1
23 16 1
23 26 1
23 37 1
23 160 1
23 170 1
23 181 1
23 208 1
23 218 1
23 229 1
24 11 1
24 28 1
24 39 1
24 155 1
24 172 1
24 183 1
24 203 1
24 220 1
24 231 1
25 49 1
25 62 1
25 91 1
25 145 1
25 158 1
25 187 1
25 241 1
25 254 1
25 283 1
26 50 1
26 57 1
26 93 1
26 146 1
26 153 1
26 189 1
26 242 1
26 249 1
26 285 1
27 51 1
27 61 1
27 92 1
27 147 1
27 157 1
27 188 1
27 243 1
27 253 1
27 284 1
28 52 1
28 58 1
28 95 1
28 148 1
28 154 1
28 191 1
28 244 1
28 250 1
28 287 1
29 53 1
29 63 1
29 94 1
29 149 1
29 159 1
29 190 1
29 245 1
29 255 1
29 286 1
30 54 1
30 60 1
30 96 1
30 150 1
30 156 1
30 192 1
30 246 1
30 252 1
30 288 1
31 55 1
31 64 1
31 89 1
31 151 1
31 160 1
31 185 1
31 247 1
31 256 1
31 281 1
32 56 1
32 59 1
32 90 1
32 152 1
32 155 1
32 186 1
32 248 1
32 251 1
32 282 1
33 49 1
33 71 1
33 82 1
33 145 1
33 167 1
33 178 1
33 241 1
33 263 1
33 274 1
34 50 1
34 72 1
34 84 1
34 146 1
34 168 1
34 180 1
34 242 1
34 264 1
34 276 1
35 51 1
35 65 1
35 88 1
35 147 1
35 161 1
35 184 1
35 243 1
35 257 1
35 280 1
36 52 1
36 67 1
36 86 1
36 148 1
36 163 1
36 182 1
36 244 1
36 259 1
36 278 1
37 53 1
37 66 1
37 83 1
37 149 1
37 162 1
37 179 1
37 245 1
37 258 1
37 275 1
38 54 1
38 69 1
38 81 1
38 150 1
38 165 1
38 177 1
38 246 1
38 261 1
38 273 1
39 55 1
39 68 1
39 85 1
39 151 1
39 164 1
39 181 1
39 247 1
39 260 1
39 277 1
40 56 1
40 70 1
40 87 1
40 152 1
40 166 1
40 183 1
40 248 1
40 262 1
40 279 1
41 62 1
41 80 1
41 82 1
41 158 1
41 176 1
41 178 1
41 254 1
41 272 1
41 274 1
42 57 1
42 75 1
42 84 1
42 153 1
42 171 1
42 180 1
42 249 1
42 267 1
42 276 1
43 61 1
43 78 1
43 88 1
43 157 1
43 174 1
43 184 1
43 253 1
43 270 1
43 280 1
44 58 1
44 77 1
44 86 1
44 154 1
44 173 1
44 182 1
44 250 1
44 269 1
44 278 1
45 63 1
45 73 1
45 83 1
45 159 1
45 169 1
45 179 1
45 255 1
45 265 1
45 275 1
46 60 1
46 79 1
46 81 1
46 156 1
46 175 1
46 177 1
46 252 1
46 271 1
46 273 1
47 64 1
47 74 1
47 85 1
47 160 1
47 170 1
47 181 1
47 256 1
47 266 1
47 277 1
48 59 1
48 76 1
48 87 1
48 155 1
48 172 1
48 183 1
48 251 1
48 268 1
48 279 1
49 97 1
49 110 1
49 139 1
49 193 1
49 206 1
49 235 1
49 241 1
49 254 1
49 283 1
50 98 1
50 105 1
50 141 1
50 194 1
50 201 1
50 237 1
50 242 1
50 249 1
50 285 1
51 99 1
51 109 1
51 140 1
51 195 1
51 205 1
51 236 1
51 243 1
51 253 1
51 284 1
52 100 1
52 106 1
52 143 1
52 196 1
52 202 1
52 239 1
52 244 1
52 250 1
52 287 1
53 101 1
53 111 1
53 142 1
53 197 1
53 207 1
53 238 1
53 245 1
53 255 1
53 286 1
54 102 1
54 108 1
54 144 1
54 198 1
54 204 1
54 240 1
54 246 1
54 252 1
54 288 1
55 103 1
55 112 1
55 137 1
55 199 1
55 208 1
55 233 1
55 247 1
55 256 1
55 281 1
56 104 1
56 107 1
56 138 1
56 200 1
56 203 1
56 234 1
56 248 1
56 251 1
56 282 1
57 97 1
57 119 1
57 130 1
57 193 1
57 215 1
57 226 1
57 241 1
57 263 1
57 274 1
58 98 1
58 120 1
58 132 1
58 194 1
58 216 1
58 228 1
58 242 1
58 264 1
58 276 1
59 99 1
59 113 1
59 136 1
59 195 1
59 209 1
59 232 1
59 243 1
59 257 1
59 280 1
60 100 1
60 115 1
60 134 1
60 196 1
60 211 1
60 230 1
60 244 1
60 259 1
60 278 1
61 101 1
61 114 1
61 131 1
61 197 1
61 210 1
61 227 1
61 245 1
61 258 1
61 275 1
62 102 1
62 117 1
62 129 1
62 198 1
62 213 1
62 225 1
62 246 1
62 261 1
62 273 1
63 103 1
63 116 1
63 133 1
63 199 1
63 212 1
63 229 1
63 247 1
63 260 1
63 277 1
64 104 1
64 118 1
64 135 1
64 200 1
64 214 1
64 231 1
64 248 1
64 262 1
64 279 1
65 110 1
65 128 1
65 130 1
65 206 1
65 224 1
65 226 1
65 254 1
65 272 1
65 274 1
66 105 1
66 123 1
66 132 1
66 201 1
66 219 1
66 228 1
66 249 1
66 267 1
66 276 1
67 109 1
67 126 1
67 136 1
67 205 1
67 222 1
67 232 1
67 253 1
67 270 1
67 280 1
68 106 1
68 125 1
68 134 1
68 202 1
68 221 1
68 230 1
68 250 1
68 269 1
68 278 1
69 111 1
69 121 1
69 131 1
69 207 1
69 217 1
69 227 1
69 255 1
69 265 1
69 275 1
70 108 1
70 127 1
70 129 1
70 204 1
70 223 1
70 225 1
70 252 1
70 271 1
70 273 1
71 112 1
71 122 1
71 133 1
71 208 1
71 218 1
71 229 1
71 256 1
71 266 1
71 277 1
72 107 1
72 124 1
72 135 1
72 203 1
72 220 1
72 231 1
72 251 1
72 268 1
72 279 1
73 1 1
73 9 1
73 25 1
73 199 1
73 207 1
73 223 1
73 248 1
73 256 1
73 272 1
74 2 1
74 10 1
74 26 1
74 197 1
74 205 1
74 221 1
74 247 1
74 255 1
74 271 1
75 3 1
75 11 1
75 27 1
75 193 1
75 201 1
75 217 1
75 242 1
75 250 1
75 266 1
76 4 1
76 12 1
76 28 1
76 195 1
76 203 1
76 219 1
76 245 1
76 253 1
76 269 1
77 5 1
77 13 1
77 29 1
77 198 1
77 206 1
77 222 1
77 241 1
77 249 1
77 265 1
78 6 1
78 14 1
78 30 1
78 200 1
78 208 1
78 224 1
78 243 1
78 251 1
78 267 1
79 7 1
79 15 1
79 31 1
79 196 1
79 204 1
79 220 1
79 246 1
79 254 1
79 270 1
80 8 1
80 16 1
80 32 1
80 194 1
80 202 1
80 218 1
80 244 1
80 252 1
80 268 1
81 1 1
81 17 1
81 33 1
81 199 1
81 215 1
81 231 1
81 248 1
81 264 1
81 280 1
82 2 1
82 18 1
82 34 1
82 197 1
82 213 1
82 229 1
82 247 1
82 263 1
82 279 1
83 3 1
83 19 1
83 35 1
83 193 1
83 209 1
83 225 1
83 242 1
83 258 1
83 274 1
84 4 1
84 20 1
84 36 1
84 195 1
84 211 1
84 227 1
84 245 1
84 261 1
84 277 1
85 5 1
85 21 1
85 37 1
85 198 1
85 214 1
85 230 1
85 241 1
85 257 1
85 273 1
86 6 1
86 22 1
86 38 1
86 200 1
86 216 1
86 232 1
86 243 1
86 259 1
86 275 1
87 7 1
87 23 1
87 39 1
87 196 1
87 212 1
87 228 1
87 246 1
87 262 1
87 278 1
88 8 1
88 24 1
88 40 1
88 194 1
88 210 1
88 226 1
88 244 1
88 260 1
88 276 1
89 9 1
89 17 1
89 41 1
89 207 1
89 215 1
89 239 1
89 256 1
89 264 1
89 288 1
90 10 1
90 18 1
90 42 1
90 205 1
90 213 1
90 237 1
90 255 1
90 263 1
90 287 1
91 11 1
91 19 1
91 43 1
91 201 1
91 209 1
91 233 1
91 250 1
91 258 1
91 282 1
92 12 1
92 20 1
92 44 1
92 203 1
92 211 1
92 235 1
92 253 1
92 261 1
92 285 1
93 13 1
93 21 1
93 45 1
93 206 1
93 214 1
93 238 1
93 249 1
93 257 1
93 281 1
94 14 1
94 22 1
94 46 1
94 208 1
94 216 1
94 240 1
94 251 1
94 259 1
94 283 1
95 15 1
95 23 1
95 47 1
95 204 1
95 212 1
95 236 1
95 254 1
95 262 1
95 286 1
96 16 1
96 24 1
96 48 1
96 202 1
96 210 1
96 234 1
96 252 1
96 260 1
96 284 1
97 50 1
97 58 1
97 74 1
97 101 1
97 109 1
97 125 1
97 248 1
97 256 1
97 272 1
98 52 1
98 60 1
98 76 1
98 99 1
98 107 1
98 123 1
98 247 1
98 255 1
98 271 1
99 53 1
99 61 1
99 77 1
99 102 1
99 110 1
99 126 1
99 242 1
99 250 1
99 266 1
100 54 1
100 62 1
100 78 1
100 104 1
100 112 1
100 128 1
100 245 1
100 253 1
100 269 1
101 55 1
101 63 1
101 79 1
101 100 1
101 108 1
101 124 1
101 241 1
101 249 1
101 265 1
102 49 1
102 57 1
102 73 1
102 103 1
102 111 1
102 127 1
102 243 1
102 251 1
102 267 1
103 56 1
103 64 1
103 80 1
103 98 1
103 106 1
103 122 1
103 246 1
103 254 1
103 270 1
104 51 1
104 59 1
104 75 1
104 97 1
104 105 1
104 121 1
104 244 1
104 252 1
104 268 1
105 50 1
105 66 1
105 82 1
105 101 1
105 117 1
105 133 1
105 248 1
105 264 1
105 280 1
106 52 1
106 68 1
106 84 1
106 99 1
106 115 1
106 131 1
106 247 1
106 263 1
106 279 1
107 53 1
107 69 1
107 85 1
107 102 1
107 118 1
107 134 1
107 242 1
107 258 1
107 274 1
108 54 1
108 70 1
108 86 1
108 104 1
108 120 1
108 136 1
108 245 1
108 261 1
108 277 1
109 55 1
109 71 1
109 87 1
109 100 1
109 116 1
109 132 1
109 241 1
109 257 1
109 273 1
110 49 1
110 65 1
110 81 1
110 103 1
110 119 1
110 135 1
110 243 1
110 259 1
110 275 1
111 56 1
111 72 1
111 88 1
111 98 1
111 114 1
111 130 1
111 246 1
111 262 1
111 278 1
112 51 1
112 67 1
112 83 1
112 97 1
112 113 1
112 129 1
112 244 1
112 260 1
112 276 1
113 58 1
113 66 1
113 90 1
113 109 1
113 117 1
113 141 1
113 256 1
113 264 1
113 288 1
114 60 1
114 68 1
114 92 1
114 107 1
114 115 1
114 139 1
114 255 1
114 263 1
114 287 1
115 61 1
115 69 1
115 93 1
115 110 1
115 118 1
115 142 1
115 250 1
115 258 1
115 282 1
116 62 1
116 70 1
116 94 1
116 112 1
116 120 1
116 144 1
116 253 1
116 261 1
116 285 1
117 63 1
117 71 1
117 95 1
117 108 1
117 116 1
117 140 1
117 249 1
117 257 1
117 281 1
118 57 1
118 65 1
118 89 1
118 111 1
118 119 1
118 143 1
118 251 1
118 259 1
118 283 1
119 64 1
119 72 1
119 96 1
119 106 1
119 114 1
119 138 1
119 254 1
119 262 1
119 286 1
120 59 1
120 67 1
120 91 1
120 105 1
120 113 1
120 137 1
120 252 1
120 260 1
120 284 1
121 101 1
121 109 1
121 125 1
121 150 1
121 158 1
121 174 1
121 199 1
121 207 1
121 223 1
122 99 1
122 107 1
122 123 1
122 145 1
122 153 1
122 169 1
122 197 1
122 205 1
122 221 1
123 102 1
123 110 1
123 126 1
123 152 1
123 160 1
123 176 1
123 193 1
123 201 1
123 217 1
124 104 1
124 112 1
124 128 1
124 146 1
124 154 1
124 170 1
124 195 1
124 203 1
124 219 1
125 100 1
125 108 1
125 124 1
125 147 1
125 155 1
125 171 1
125 198 1
125 206 1
125 222 1
126 103 1
126 111 1
126 127 1
126 148 1
126 156 1
126 172 1
126 200 1
126 208 1
126 224 1
127 98 1
127 106 1
127 122 1
127 149 1
127 157 1
127 173 1
127 196 1
127 204 1
127 220 1
128 97 1
128 105 1
128 121 1
128 151 1
128 159 1
128 175 1
128 194 1
128 202 1
128 218 1
129 101 1
129 117 1
129 133 1
129 150 1
129 166 1
129 182 1
129 199 1
129 215 1
129 231 1
130 99 1
130 115 1
130 131 1
130 145 1
130 161 1
130 177 1
130 197 1
130 213 1
130 229 1
131 102 1
131 118 1
131 134 1
131 152 1
131 168 1
131 184 1
131 193 1
131 209 1
131 225 1
132 104 1
132 120 1
132 136 1
132 146 1
132 162 1
132 178 1
132 195 1
132 211 1
132 227 1
133 100 1
133 116 1
133 132 1
133 147 1
133 163 1
133 179 1
133 198 1
133 214 1
133 230 1
134 103 1
134 119 1
134 135 1
134 148 1
134 164 1
134 180 1
134 200 1
134 216 1
134 232 1
135 98 1
135 114 1
135 130 1
135 149 1
135 165 1
135 181 1
135 196 1
135 212 1
135 228 1
136 97 1
136 113 1
136 129 1
136 151 1
136 167 1
136 183 1
136 194 1
136 210 1
136 226 1
137 109 1
137 117 1
137 141 1
137 158 1
137 166 1
137 190 1
137 207 1
137 215 1
137 239 1
138 107 1
138 115 1
138 139 1
138 153 1
138 161 1
138 185 1
138 205 1
138 213 1
138 237 1
139 110 1
139 118 1
139 142 1
139 160 1
139 168 1
139 192 1
139 201 1
139 209 1
139 233 1
140 112 1
140 120 1
140 144 1
140 154 1
140 162 1
140 186 1
140 203 1
140 211 1
140 235 1
141 108 1
141 116 1
141 140 1
141 155 1
141 163 1
141 187 1
141 206 1
141 214 1
141 238 1
142 111 1
142 119 1
142 143 1
142 156 1
142 164 1
142 188 1
142 208 1
142 216 1
142 240 1
143 106 1
143 114 1
143 138 1
143 157 1
143 165 1
143 189 1
143 204 1
143 212 1
143 236 1
144 105 1
144 113 1
144 137 1
144 159 1
144 167 1
144 191 1
144 202 1
144 210 1
144 234 1
