%%MatrixMarket matrix coordinate integer general
306 612 2754
1 1 1
1 34 1
1 64 1
1 307 1
1 340 1
1 370 1
1 409 1
1 442 1
1 472 1
2 2 1
2 18 1
2 65 1
2 308 1
2 324 1
2 371 1
2 410 1
2 426 1
2 473 1
3 3 1
3 19 1
3 66 1
3 309 1
3 325 1
3 372 1
3 411 1
3 427 1
3 474 1
4 4 1
4 20 1
4 67 1
4 310 1
4 326 1
4 373 1
4 412 1
4 428 1
4 475 1
5 5 1
5 21 1
5 68 1
5 311 1
5 327 1
5 374 1
5 413 1
5 429 1
5 476 1
6 6 1
6 22 1
6 52 1
6 312 1
6 328 1
6 358 1
6 414 1
6 430 1
6 460 1
7 7 1
7 23 1
7 53 1
7 313 1
7 329 1
7 359 1
7 415 1
7 431 1
7 461 1
8 8 1
8 24 1
8 54 1
8 314 1
8 330 1
8 360 1
8 416 1
8 432 1
8 462 1
9 9 1
9 25 1
9 55 1
9 315 1
9 331 1
9 361 1
9 417 1
9 433 1
9 463 1
10 10 1
10 26 1
10 56 1
10 316 1
10 332 1
10 362 1
10 418 1
10 434 1
10 464 1
11 11 1
11 27 1
11 57 1
11 317 1
11 333 1
11 363 1
11 419 1
11 435 1
11 465 1
12 12 1
12 28 1
12 58 1
12 318 1
12 334 1
12 364 1
12 420 1
12 436 1
12 466 1
13 13 1
13 29 1
13 59 1
13 319 1
13 335 1
13 365 1
13 421 1
13 437 1
13 467 1
14 14 1
14 30 1
14 60 1
14 320 1
14 336 1
14 366 1
14 422 1
14 438 1
14 468 1
15 15 1
15 31 1
15 61 1
15 321 1
15 337 1
15 367 1
15 423 1
15 439 1
15 469 1
16 16 1
16 32 1
16 62 1
16 322 1
16 338 1
16 368 1
16 424 1
16 440 1
16 470 1
17 17 1
17 33 1
17 63 1
17 323 1
17 339 1
17 369 1
17 425 1
17 441 1
17 471 1
18 1 1
18 49 1
18 73 1
18 307 1
18 355 1
18 379 1
18 409 1
18 457 1
18 481 1
19 2 1
19 50 1
19 74 1
19 308 1
19 356 1
19 380 1
19 410 1
19 458 1
19 482 1
20 3 1
20 51 1
20 75 1
20 309 1
20 357 1
20 381 1
20 411 1
20 459 1
20 483 1
21 4 1
21 35 1
21 76 1
21 310 1
21 341 1
21 382 1
21 412 1
21 443 1
21 484 1
22 5 1
22 36 1
22 77 1
22 311 1
22 342 1
22 383 1
22 413 1
22 444 1
22 485 1
23 6 1
23 37 1
23 78 1
23 312 1
23 343 1
23 384 1
23 414 1
23 445 1
23 486 1
24 7 1
24 38 1
24 79 1
24 313 1
24 344 1
24 385 1
24 415 1
24 446 1
24 487 1
25 8 1
25 39 1
25 80 1
25 314 1
25 345 1
25 386 1
25 416 1
25 447 1
25 488 1
26 9 1
26 40 1
26 81 1
26 315 1
26 346 1
26 387 1
26 417 1
26 448 1
26 489 1
27 10 1
27 41 1
27 82 1
27 316 1
27 347 1
27 388 1
27 418 1
27 449 1
27 490 1
28 11 1
28 42 1
28 83 1
28 317 1
28 348 1
28 389 1
28 419 1
28 450 1
28 491 1
29 12 1
29 43 1
29 84 1
29 318 1
29 349 1
29 390 1
29 420 1
29 451 1
29 492 1
30 13 1
30 44 1
30 85 1
30 319 1
30 350 1
30 391 1
30 421 1
30 452 1
30 493 1
31 14 1
31 45 1
31 69 1
31 320 1
31 351 1
31 375 1
31 422 1
31 453 1
31 477 1
32 15 1
32 46 1
32 70 1
32 321 1
32 352 1
32 376 1
32 423 1
32 454 1
32 478 1
33 16 1
33 47 1
33 71 1
33 322 1
33 353 1
33 377 1
33 424 1
33 455 1
33 479 1
34 17 1
34 48 1
34 72 1
34 323 1
34 354 1
34 378 1
34 425 1
34 456 1
34 480 1
35 34 1
35 49 1
35 88 1
35 340 1
35 355 1
35 394 1
35 442 1
35 457 1
35 496 1
36 18 1
36 50 1
36 89 1
36 324 1
36 356 1
36 395 1
36 426 1
36 458 1
36 497 1
37 19 1
37 51 1
37 90 1
37 325 1
37 357 1
37 396 1
37 427 1
37 459 1
37 498 1
38 20 1
38 35 1
38 91 1
38 326 1
38 341 1
38 397 1
38 428 1
38 443 1
38 499 1
39 21 1
39 36 1
39 92 1
39 327 1
39 342 1
39 398 1
39 429 1
39 444 1
39 500 1
40 22 1
40 37 1
40 93 1
40 328 1
40 343 1
40 399 1
40 430 1
40 445 1
40 501 1
41 23 1
41 38 1
41 94 1
41 329 1
41 344 1
41 400 1
41 431 1
41 446 1
41 502 1
42 24 1
42 39 1
42 95 1
42 330 1
42 345 1
42 401 1
42 432 1
42 447 1
42 503 1
43 25 1
43 40 1
43 96 1
43 331 1
43 346 1
43 402 1
43 433 1
43 448 1
43 504 1
44 26 1
44 41 1
44 97 1
44 332 1
44 347 1
44 403 1
44 434 1
44 449 1
44 505 1
45 27 1
45 42 1
45 98 1
45 333 1
45 348 1
45 404 1
45 435 1
45 450 1
45 506 1
46 28 1
46 43 1
46 99 1
46 334 1
46 349 1
46 405 1
46 436 1
46 451 1
46 507 1
47 29 1
47 44 1
47 100 1
47 335 1
47 350 1
47 406 1
47 437 1
47 452 1
47 508 1
48 30 1
48 45 1
48 101 1
48 336 1
48 351 1
48 407 1
48 438 1
48 453 1
48 509 1
49 31 1
49 46 1
49 102 1
49 337 1
49 352 1
49 408 1
49 439 1
49 454 1
49 510 1
50 32 1
50 47 1
50 86 1
50 338 1
50 353 1
50 392 1
50 440 1
50 455 1
50 494 1
51 33 1
51 48 1
51 87 1
51 339 1
51 354 1
51 393 1
51 441 1
51 456 1
51 495 1
52 103 1
52 136 1
52 166 1
52 307 1
52 340 1
52 370 1
52 511 1
52 544 1
52 574 1
53 104 1
53 120 1
53 167 1
53 308 1
53 324 1
53 371 1
53 512 1
53 528 1
53 575 1
54 105 1
54 121 1
54 168 1
54 309 1
54 325 1
54 372 1
54 513 1
54 529 1
54 576 1
55 106 1
55 122 1
55 169 1
55 310 1
55 326 1
55 373 1
55 514 1
55 530 1
55 577 1
56 107 1
56 123 1
56 170 1
56 311 1
56 327 1
56 374 1
56 515 1
56 531 1
56 578 1
57 108 1
57 124 1
57 154 1
57 312 1
57 328 1
57 358 1
57 516 1
57 532 1
57 562 1
58 109 1
58 125 1
58 155 1
58 313 1
58 329 1
58 359 1
58 517 1
58 533 1
58 563 1
59 110 1
59 126 1
59 156 1
59 314 1
59 330 1
59 360 1
59 518 1
59 534 1
59 564 1
60 111 1
60 127 1
60 157 1
60 315 1
60 331 1
60 361 1
60 519 1
60 535 1
60 565 1
61 112 1
61 128 1
61 158 1
61 316 1
61 332 1
61 362 1
61 520 1
61 536 1
61 566 1
62 113 1
62 129 1
62 159 1
62 317 1
62 333 1
62 363 1
62 521 1
62 537 1
62 567 1
63 114 1
63 130 1
63 160 1
63 318 1
63 334 1
63 364 1
63 522 1
63 538 1
63 568 1
64 115 1
64 131 1
64 161 1
64 319 1
64 335 1
64 365 1
64 523 1
64 539 1
64 569 1
65 116 1
65 132 1
65 162 1
65 320 1
65 336 1
65 366 1
65 524 1
65 540 1
65 570 1
66 117 1
66 133 1
66 163 1
66 321 1
66 337 1
66 367 1
66 525 1
66 541 1
66 571 1
67 118 1
67 134 1
67 164 1
67 322 1
67 338 1
67 368 1
67 526 1
67 542 1
67 572 1
68 119 1
68 135 1
68 165 1
68 323 1
68 339 1
68 369 1
68 527 1
68 543 1
68 573 1
69 103 1
69 151 1
69 175 1
69 307 1
69 355 1
69 379 1
69 511 1
69 559 1
69 583 1
70 104 1
70 152 1
70 176 1
70 308 1
70 356 1
70 380 1
70 512 1
70 560 1
70 584 1
71 105 1
71 153 1
71 177 1
71 309 1
71 357 1
71 381 1
71 513 1
71 561 1
71 585 1
72 106 1
72 137 1
72 178 1
72 310 1
72 341 1
72 382 1
72 514 1
72 545 1
72 586 1
73 107 1
73 138 1
73 179 1
73 311 1
73 342 1
73 383 1
73 515 1
73 546 1
73 587 1
74 108 1
74 139 1
74 180 1
74 312 1
74 343 1
74 384 1
74 516 1
74 547 1
74 588 1
75 109 1
75 140 1
75 181 1
75 313 1
75 344 1
75 385 1
75 517 1
75 548 1
75 589 1
76 110 1
76 141 1
76 182 1
76 314 1
76 345 1
76 386 1
76 518 1
76 549 1
76 590 1
77 111 1
77 142 1
77 183 1
77 315 1
77 346 1
77 387 1
77 519 1
77 550 1
77 591 1
78 112 1
78 143 1
78 184 1
78 316 1
78 347 1
78 388 1
78 520 1
78 551 1
78 592 1
79 113 1
79 144 1
79 185 1
79 317 1
79 348 1
79 389 1
79 521 1
79 552 1
79 593 1
80 114 1
80 145 1
80 186 1
80 318 1
80 349 1
80 390 1
80 522 1
80 553 1
80 594 1
81 115 1
81 146 1
81 187 1
81 319 1
81 350 1
81 391 1
81 523 1
81 554 1
81 595 1
82 116 1
82 147 1
82 171 1
82 320 1
82 351 1
82 375 1
82 524 1
82 555 1
82 579 1
83 117 1
83 148 1
83 172 1
83 321 1
83 352 1
83 376 1
83 525 1
83 556 1
83 580 1
84 118 1
84 149 1
84 173 1
84 322 1
84 353 1
84 377 1
84 526 1
84 557 1
84 581 1
85 119 1
85 150 1
85 174 1
85 323 1
85 354 1
85 378 1
85 527 1
85 558 1
85 582 1
86 136 1
86 151 1
86 190 1
86 340 1
86 355 1
86 394 1
86 544 1
86 559 1
86 598 1
87 120 1
87 152 1
87 191 1
87 324 1
87 356 1
87 395 1
87 528 1
87 560 1
87 599 1
88 121 1
88 153 1
88 192 1
88 325 1
88 357 1
88 396 1
88 529 1
88 561 1
88 600 1
89 122 1
89 137 1
89 193 1
89 326 1
89 341 1
89 397 1
89 530 1
89 545 1
89 601 1
90 123 1
90 138 1
90 194 1
90 327 1
90 342 1
90 398 1
90 531 1
90 546 1
90 602 1
91 124 1
91 139 1
91 195 1
91 328 1
91 343 1
91 399 1
91 532 1
91 547 1
91 603 1
92 125 1
92 140 1
92 196 1
92 329 1
92 344 1
92 400 1
92 533 1
92 548 1
92 604 1
93 126 1
93 141 1
93 197 1
93 330 1
93 345 1
93 401 1
93 534 1
93 549 1
93 605 1
94 127 1
94 142 1
94 198 1
94 331 1
94 346 1
94 402 1
94 535 1
94 550 1
94 606 1
95 128 1
95 143 1
95 199 1
95 332 1
95 347 1
95 403 1
95 536 1
95 551 1
95 607 1
96 129 1
96 144 1
96 200 1
96 333 1
96 348 1
96 404 1
96 537 1
96 552 1
96 608 1
97 130 1
97 145 1
97 201 1
97 334 1
97 349 1
97 405 1
97 538 1
97 553 1
97 609 1
98 131 1
98 146 1
98 202 1
98 335 1
98 350 1
98 406 1
98 539 1
98 554 1
98 610 1
99 132 1
99 147 1
99 203 1
99 336 1
99 351 1
99 407 1
99 540 1
99 555 1
99 611 1
100 133 1
100 148 1
100 204 1
100 337 1
100 352 1
100 408 1
100 541 1
100 556 1
100 612 1
101 134 1
101 149 1
101 188 1
101 338 1
101 353 1
101 392 1
101 542 1
101 557 1
101 596 1
102 135 1
102 150 1
102 189 1
102 339 1
102 354 1
102 393 1
102 543 1
102 558 1
102 597 1
103 205 1
103 238 1
103 268 1
103 409 1
103 442 1
103 472 1
103 511 1
103 544 1
103 574 1
104 206 1
104 222 1
104 269 1
104 410 1
104 426 1
104 473 1
104 512 1
104 528 1
104 575 1
105 207 1
105 223 1
105 270 1
105 411 1
105 427 1
105 474 1
105 513 1
105 529 1
105 576 1
106 208 1
106 224 1
106 271 1
106 412 1
106 428 1
106 475 1
106 514 1
106 530 1
106 577 1
107 209 1
107 225 1
107 272 1
107 413 1
107 429 1
107 476 1
107 515 1
107 531 1
107 578 1
108 210 1
108 226 1
108 256 1
108 414 1
108 430 1
108 460 1
108 516 1
108 532 1
108 562 1
109 211 1
109 227 1
109 257 1
109 415 1
109 431 1
109 461 1
109 517 1
109 533 1
109 563 1
110 212 1
110 228 1
110 258 1
110 416 1
110 432 1
110 462 1
110 518 1
110 534 1
110 564 1
111 213 1
111 229 1
111 259 1
111 417 1
111 433 1
111 463 1
111 519 1
111 535 1
111 565 1
112 214 1
112 230 1
112 260 1
112 418 1
112 434 1
112 464 1
112 520 1
112 536 1
112 566 1
113 215 1
113 231 1
113 261 1
113 419 1
113 435 1
113 465 1
113 521 1
113 537 1
113 567 1
114 216 1
114 232 1
114 262 1
114 420 1
114 436 1
114 466 1
114 522 1
114 538 1
114 568 1
115 217 1
115 233 1
115 263 1
115 421 1
115 437 1
115 467 1
115 523 1
115 539 1
115 569 1
116 218 1
116 234 1
116 264 1
116 422 1
116 438 1
116 468 1
116 524 1
116 540 1
116 570 1
117 219 1
117 235 1
117 265 1
117 423 1
117 439 1
117 469 1
117 525 1
117 541 1
117 571 1
118 220 1
118 236 1
118 266 1
118 424 1
118 440 1
118 470 1
118 526 1
118 542 1
118 572 1
119 221 1
119 237 1
119 267 1
119 425 1
119 441 1
119 471 1
119 527 1
119 543 1
119 573 1
120 205 1
120 253 1
120 277 1
120 409 1
120 457 1
120 481 1
120 511 1
120 559 1
120 583 1
121 206 1
121 254 1
121 278 1
121 410 1
121 458 1
121 482 1
121 512 1
121 560 1
121 584 1
122 207 1
122 255 1
122 279 1
122 411 1
122 459 1
122 483 1
122 513 1
122 561 1
122 585 1
123 208 1
123 239 1
123 280 1
123 412 1
123 443 1
123 484 1
123 514 1
123 545 1
123 586 1
124 209 1
124 240 1
124 281 1
124 413 1
124 444 1
124 485 1
124 515 1
124 546 1
124 587 1
125 210 1
125 241 1
125 282 1
125 414 1
125 445 1
125 486 1
125 516 1
125 547 1
125 588 1
126 211 1
126 242 1
126 283 1
126 415 1
126 446 1
126 487 1
126 517 1
126 548 1
126 589 1
127 212 1
127 243 1
127 284 1
127 416 1
127 447 1
127 488 1
127 518 1
127 549 1
127 590 1
128 213 1
128 244 1
128 285 1
128 417 1
128 448 1
128 489 1
128 519 1
128 550 1
128 591 1
129 214 1
129 245 1
129 286 1
129 418 1
129 449 1
129 490 1
129 520 1
129 551 1
129 592 1
130 215 1
130 246 1
130 287 1
130 419 1
130 450 1
130 491 1
130 521 1
130 552 1
130 593 1
131 216 1
131 247 1
131 288 1
131 420 1
131 451 1
131 492 1
131 522 1
131 553 1
131 594 1
132 217 1
132 248 1
132 289 1
132 421 1
132 452 1
132 493 1
132 523 1
132 554 1
132 595 1
133 218 1
133 249 1
133 273 1
133 422 1
133 453 1
133 477 1
133 524 1
133 555 1
133 579 1
134 219 1
134 250 1
134 274 1
134 423 1
134 454 1
134 478 1
134 525 1
134 556 1
134 580 1
135 220 1
135 251 1
135 275 1
135 424 1
135 455 1
135 479 1
135 526 1
135 557 1
135 581 1
136 221 1
136 252 1
136 276 1
136 425 1
136 456 1
136 480 1
136 527 1
136 558 1
136 582 1
137 238 1
137 253 1
137 292 1
137 442 1
137 457 1
137 496 1
137 544 1
137 559 1
137 598 1
138 222 1
138 254 1
138 293 1
138 426 1
138 458 1
138 497 1
138 528 1
138 560 1
138 599 1
139 223 1
139 255 1
139 294 1
139 427 1
139 459 1
139 498 1
139 529 1
139 561 1
139 600 1
140 224 1
140 239 1
140 295 1
140 428 1
140 443 1
140 499 1
140 530 1
140 545 1
140 601 1
141 225 1
141 240 1
141 296 1
141 429 1
141 444 1
141 500 1
141 531 1
141 546 1
141 602 1
142 226 1
142 241 1
142 297 1
142 430 1
142 445 1
142 501 1
142 532 1
142 547 1
142 603 1
143 227 1
143 242 1
143 298 1
143 431 1
143 446 1
143 502 1
143 533 1
143 548 1
143 604 1
144 228 1
144 243 1
144 299 1
144 432 1
144 447 1
144 503 1
144 534 1
144 549 1
144 605 1
145 229 1
145 244 1
145 300 1
145 433 1
145 448 1
145 504 1
145 535 1
145 550 1
145 606 1
146 230 1
146 245 1
146 301 1
146 434 1
146 449 1
146 505 1
146 536 1
146 551 1
146 607 1
147 231 1
147 246 1
147 302 1
147 435 1
147 450 1
147 506 1
147 537 1
147 552 1
147 608 1
148 232 1
148 247 1
148 303 1
148 436 1
148 451 1
148 507 1
148 538 1
148 553 1
148 609 1
149 233 1
149 248 1
149 304 1
149 437 1
149 452 1
149 508 1
149 539 1
149 554 1
149 610 1
150 234 1
150 249 1
150 305 1
150 438 1
150 453 1
150 509 1
150 540 1
150 555 1
150 611 1
151 235 1
151 250 1
151 306 1
151 439 1
151 454 1
151 510 1
151 541 1
151 556 1
151 612 1
152 236 1
152 251 1
152 290 1
152 440 1
152 455 1
152 494 1
152 542 1
152 557 1
152 596 1
153 237 1
153 252 1
153 291 1
153 441 1
153 456 1
153 495 1
153 543 1
153 558 1
153 597 1
154 1 1
154 18 1
154 52 1
154 314 1
154 331 1
154 365 1
154 418 1
154 435 1
154 469 1
155 2 1
155 19 1
155 53 1
155 315 1
155 332 1
155 366 1
155 419 1
155 436 1
155 470 1
156 3 1
156 20 1
156 54 1
156 316 1
156 333 1
156 367 1
156 420 1
156 437 1
156 471 1
157 4 1
157 21 1
157 55 1
157 317 1
157 334 1
157 368 1
157 421 1
157 438 1
157 472 1
158 5 1
158 22 1
158 56 1
158 318 1
158 335 1
158 369 1
158 422 1
158 439 1
158 473 1
159 6 1
159 23 1
159 57 1
159 319 1
159 336 1
159 370 1
159 423 1
159 440 1
159 474 1
160 7 1
160 24 1
160 58 1
160 320 1
160 337 1
160 371 1
160 424 1
160 441 1
160 475 1
161 8 1
161 25 1
161 59 1
161 321 1
161 338 1
161 372 1
161 425 1
161 442 1
161 476 1
162 9 1
162 26 1
162 60 1
162 322 1
162 339 1
162 373 1
162 409 1
162 426 1
162 460 1
163 10 1
163 27 1
163 61 1
163 323 1
163 340 1
163 374 1
163 410 1
163 427 1
163 461 1
164 11 1
164 28 1
164 62 1
164 307 1
164 324 1
164 358 1
164 411 1
164 428 1
164 462 1
165 12 1
165 29 1
165 63 1
165 308 1
165 325 1
165 359 1
165 412 1
165 429 1
165 463 1
166 13 1
166 30 1
166 64 1
166 309 1
166 326 1
166 360 1
166 413 1
166 430 1
166 464 1
167 14 1
167 31 1
167 65 1
167 310 1
167 327 1
167 361 1
167 414 1
167 431 1
167 465 1
168 15 1
168 32 1
168 66 1
168 311 1
168 328 1
168 362 1
168 415 1
168 432 1
168 466 1
169 16 1
169 33 1
169 67 1
169 312 1
169 329 1
169 363 1
169 416 1
169 433 1
169 467 1
170 17 1
170 34 1
170 68 1
170 313 1
170 330 1
170 364 1
170 417 1
170 434 1
170 468 1
171 1 1
171 35 1
171 69 1
171 314 1
171 348 1
171 382 1
171 418 1
171 452 1
171 486 1
172 2 1
172 36 1
172 70 1
172 315 1
172 349 1
172 383 1
172 419 1
172 453 1
172 487 1
173 3 1
173 37 1
173 71 1
173 316 1
173 350 1
173 384 1
173 420 1
173 454 1
173 488 1
174 4 1
174 38 1
174 72 1
174 317 1
174 351 1
174 385 1
174 421 1
174 455 1
174 489 1
175 5 1
175 39 1
175 73 1
175 318 1
175 352 1
175 386 1
175 422 1
175 456 1
175 490 1
176 6 1
176 40 1
176 74 1
176 319 1
176 353 1
176 387 1
176 423 1
176 457 1
176 491 1
177 7 1
177 41 1
177 75 1
177 320 1
177 354 1
177 388 1
177 424 1
177 458 1
177 492 1
178 8 1
178 42 1
178 76 1
178 321 1
178 355 1
178 389 1
178 425 1
178 459 1
178 493 1
179 9 1
179 43 1
179 77 1
179 322 1
179 356 1
179 390 1
179 409 1
179 443 1
179 477 1
180 10 1
180 44 1
180 78 1
180 323 1
180 357 1
180 391 1
180 410 1
180 444 1
180 478 1
181 11 1
181 45 1
181 79 1
181 307 1
181 341 1
181 375 1
181 411 1
181 445 1
181 479 1
182 12 1
182 46 1
182 80 1
182 308 1
182 342 1
182 376 1
182 412 1
182 446 1
182 480 1
183 13 1
183 47 1
183 81 1
183 309 1
183 343 1
183 377 1
183 413 1
183 447 1
183 481 1
184 14 1
184 48 1
184 82 1
184 310 1
184 344 1
184 378 1
184 414 1
184 448 1
184 482 1
185 15 1
185 49 1
185 83 1
185 311 1
185 345 1
185 379 1
185 415 1
185 449 1
185 483 1
186 16 1
186 50 1
186 84 1
186 312 1
186 346 1
186 380 1
186 416 1
186 450 1
186 484 1
187 17 1
187 51 1
187 85 1
187 313 1
187 347 1
187 381 1
187 417 1
187 451 1
187 485 1
188 18 1
188 35 1
188 86 1
188 331 1
188 348 1
188 399 1
188 435 1
188 452 1
188 503 1
189 19 1
189 36 1
189 87 1
189 332 1
189 349 1
189 400 1
189 436 1
189 453 1
189 504 1
190 20 1
190 37 1
190 88 1
190 333 1
190 350 1
190 401 1
190 437 1
190 454 1
190 505 1
191 21 1
191 38 1
191 89 1
191 334 1
191 351 1
191 402 1
191 438 1
191 455 1
191 506 1
192 22 1
192 39 1
192 90 1
192 335 1
192 352 1
192 403 1
192 439 1
192 456 1
192 507 1
193 23 1
193 40 1
193 91 1
193 336 1
193 353 1
193 404 1
193 440 1
193 457 1
193 508 1
194 24 1
194 41 1
194 92 1
194 337 1
194 354 1
194 405 1
194 441 1
194 458 1
194 509 1
195 25 1
195 42 1
195 93 1
195 338 1
195 355 1
195 406 1
195 442 1
195 459 1
195 510 1
196 26 1
196 43 1
196 94 1
196 339 1
196 356 1
196 407 1
196 426 1
196 443 1
196 494 1
197 27 1
197 44 1
197 95 1
197 340 1
197 357 1
197 408 1
197 427 1
197 444 1
197 495 1
198 28 1
198 45 1
198 96 1
198 324 1
198 341 1
198 392 1
198 428 1
198 445 1
198 496 1
199 29 1
199 46 1
199 97 1
199 325 1
199 342 1
199 393 1
199 429 1
199 446 1
199 497 1
200 30 1
200 47 1
200 98 1
200 326 1
200 343 1
200 394 1
200 430 1
200 447 1
200 498 1
201 31 1
201 48 1
201 99 1
201 327 1
201 344 1
201 395 1
201 431 1
201 448 1
201 499 1
202 32 1
202 49 1
202 100 1
202 328 1
202 345 1
202 396 1
202 432 1
202 449 1
202 500 1
203 33 1
203 50 1
203 101 1
203 329 1
203 346 1
203 397 1
203 433 1
203 450 1
203 501 1
204 34 1
204 51 1
204 102 1
204 330 1
204 347 1
204 398 1
204 434 1
204 451 1
204 502 1
205 104 1
205 121 1
205 155 1
205 314 1
205 331 1
205 365 1
205 527 1
205 544 1
205 578 1
206 105 1
206 122 1
206 156 1
206 315 1
206 332 1
206 366 1
206 511 1
206 528 1
206 562 1
207 106 1
207 123 1
207 157 1
207 316 1
207 333 1
207 367 1
207 512 1
207 529 1
207 563 1
208 107 1
208 124 1
208 158 1
208 317 1
208 334 1
208 368 1
208 513 1
208 530 1
208 564 1
209 108 1
209 125 1
209 159 1
209 318 1
209 335 1
209 369 1
209 514 1
209 531 1
209 565 1
210 109 1
210 126 1
210 160 1
210 319 1
210 336 1
210 370 1
210 515 1
210 532 1
210 566 1
211 110 1
211 127 1
211 161 1
211 320 1
211 337 1
211 371 1
211 516 1
211 533 1
211 567 1
212 111 1
212 128 1
212 162 1
212 321 1
212 338 1
212 372 1
212 517 1
212 534 1
212 568 1
213 112 1
213 129 1
213 163 1
213 322 1
213 339 1
213 373 1
213 518 1
213 535 1
213 569 1
214 113 1
214 130 1
214 164 1
214 323 1
214 340 1
214 374 1
214 519 1
214 536 1
214 570 1
215 114 1
215 131 1
215 165 1
215 307 1
215 324 1
215 358 1
215 520 1
215 537 1
215 571 1
216 115 1
216 132 1
216 166 1
216 308 1
216 325 1
216 359 1
216 521 1
216 538 1
216 572 1
217 116 1
217 133 1
217 167 1
217 309 1
217 326 1
217 360 1
217 522 1
217 539 1
217 573 1
218 117 1
218 134 1
218 168 1
218 310 1
218 327 1
218 361 1
218 523 1
218 540 1
218 574 1
219 118 1
219 135 1
219 169 1
219 311 1
219 328 1
219 362 1
219 524 1
219 541 1
219 575 1
220 119 1
220 136 1
220 170 1
220 312 1
220 329 1
220 363 1
220 525 1
220 542 1
220 576 1
221 103 1
221 120 1
221 154 1
221 313 1
221 330 1
221 364 1
221 526 1
221 543 1
221 577 1
222 104 1
222 138 1
222 172 1
222 314 1
222 348 1
222 382 1
222 527 1
222 561 1
222 595 1
223 105 1
223 139 1
223 173 1
223 315 1
223 349 1
223 383 1
223 511 1
223 545 1
223 579 1
224 106 1
224 140 1
224 174 1
224 316 1
224 350 1
224 384 1
224 512 1
224 546 1
224 580 1
225 107 1
225 141 1
225 175 1
225 317 1
225 351 1
225 385 1
225 513 1
225 547 1
225 581 1
226 108 1
226 142 1
226 176 1
226 318 1
226 352 1
226 386 1
226 514 1
226 548 1
226 582 1
227 109 1
227 143 1
227 177 1
227 319 1
227 353 1
227 387 1
227 515 1
227 549 1
227 583 1
228 110 1
228 144 1
228 178 1
228 320 1
228 354 1
228 388 1
228 516 1
228 550 1
228 584 1
229 111 1
229 145 1
229 179 1
229 321 1
229 355 1
229 389 1
229 517 1
229 551 1
229 585 1
230 112 1
230 146 1
230 180 1
230 322 1
230 356 1
230 390 1
230 518 1
230 552 1
230 586 1
231 113 1
231 147 1
231 181 1
231 323 1
231 357 1
231 391 1
231 519 1
231 553 1
231 587 1
232 114 1
232 148 1
232 182 1
232 307 1
232 341 1
232 375 1
232 520 1
232 554 1
232 588 1
233 115 1
233 149 1
233 183 1
233 308 1
233 342 1
233 376 1
233 521 1
233 555 1
233 589 1
234 116 1
234 150 1
234 184 1
234 309 1
234 343 1
234 377 1
234 522 1
234 556 1
234 590 1
235 117 1
235 151 1
235 185 1
235 310 1
235 344 1
235 378 1
235 523 1
235 557 1
235 591 1
236 118 1
236 152 1
236 186 1
236 311 1
236 345 1
236 379 1
236 524 1
236 558 1
236 592 1
237 119 1
237 153 1
237 187 1
237 312 1
237 346 1
237 380 1
237 525 1
237 559 1
237 593 1
238 103 1
238 137 1
238 171 1
238 313 1
238 347 1
238 381 1
238 526 1
238 560 1
238 594 1
239 121 1
239 138 1
239 189 1
239 331 1
239 348 1
239 399 1
239 544 1
239 561 1
239 612 1
240 122 1
240 139 1
240 190 1
240 332 1
240 349 1
240 400 1
240 528 1
240 545 1
240 596 1
241 123 1
241 140 1
241 191 1
241 333 1
241 350 1
241 401 1
241 529 1
241 546 1
241 597 1
242 124 1
242 141 1
242 192 1
242 334 1
242 351 1
242 402 1
242 530 1
242 547 1
242 598 1
243 125 1
243 142 1
243 193 1
243 335 1
243 352 1
243 403 1
243 531 1
243 548 1
243 599 1
244 126 1
244 143 1
244 194 1
244 336 1
244 353 1
244 404 1
244 532 1
244 549 1
244 600 1
245 127 1
245 144 1
245 195 1
245 337 1
245 354 1
245 405 1
245 533 1
245 550 1
245 601 1
246 128 1
246 145 1
246 196 1
246 338 1
246 355 1
246 406 1
246 534 1
246 551 1
246 602 1
247 129 1
247 146 1
247 197 1
247 339 1
247 356 1
247 407 1
247 535 1
247 552 1
247 603 1
248 130 1
248 147 1
248 198 1
248 340 1
248 357 1
248 408 1
248 536 1
248 553 1
248 604 1
249 131 1
249 148 1
249 199 1
249 324 1
249 341 1
249 392 1
249 537 1
249 554 1
249 605 1
250 132 1
250 149 1
250 200 1
250 325 1
250 342 1
250 393 1
250 538 1
250 555 1
250 606 1
251 133 1
251 150 1
251 201 1
251 326 1
251 343 1
251 394 1
251 539 1
251 556 1
251 607 1
252 134 1
252 151 1
252 202 1
252 327 1
252 344 1
252 395 1
252 540 1
252 557 1
252 608 1
253 135 1
253 152 1
253 203 1
253 328 1
253 345 1
253 396 1
253 541 1
253 558 1
253 609 1
254 136 1
254 153 1
254 204 1
254 329 1
254 346 1
254 397 1
254 542 1
254 559 1
254 610 1
255 120 1
255 137 1
255 188 1
255 330 1
255 347 1
255 398 1
255 543 1
255 560 1
255 611 1
256 212 1
256 229 1
256 263 1
256 418 1
256 435 1
256 469 1
256 527 1
256 544 1
256 578 1
257 213 1
257 230 1
257 264 1
257 419 1
257 436 1
257 470 1
257 511 1
257 528 1
257 562 1
258 214 1
258 231 1
258 265 1
258 420 1
258 437 1
258 471 1
258 512 1
258 529 1
258 563 1
259 215 1
259 232 1
259 266 1
259 421 1
259 438 1
259 472 1
259 513 1
259 530 1
259 564 1
260 216 1
260 233 1
260 267 1
260 422 1
260 439 1
260 473 1
260 514 1
260 531 1
260 565 1
261 217 1
261 234 1
261 268 1
261 423 1
261 440 1
261 474 1
261 515 1
261 532 1
261 566 1
262 218 1
262 235 1
262 269 1
262 424 1
262 441 1
262 475 1
262 516 1
262 533 1
262 567 1
263 219 1
263 236 1
263 270 1
263 425 1
263 442 1
263 476 1
263 517 1
263 534 1
263 568 1
264 220 1
264 237 1
264 271 1
264 409 1
264 426 1
264 460 1
264 518 1
264 535 1
264 569 1
265 221 1
265 238 1
265 272 1
265 410 1
265 427 1
265 461 1
265 519 1
265 536 1
265 570 1
266 205 1
266 222 1
266 256 1
266 411 1
266 428 1
266 462 1
266 520 1
266 537 1
266 571 1
267 206 1
267 223 1
267 257 1
267 412 1
267 429 1
267 463 1
267 521 1
267 538 1
267 572 1
268 207 1
268 224 1
268 258 1
268 413 1
268 430 1
268 464 1
268 522 1
268 539 1
268 573 1
269 208 1
269 225 1
269 259 1
269 414 1
269 431 1
269 465 1
269 523 1
269 540 1
269 574 1
270 209 1
270 226 1
270 260 1
270 415 1
270 432 1
270 466 1
270 524 1
270 541 1
270 575 1
271 210 1
271 227 1
271 261 1
271 416 1
271 433 1
271 467 1
271 525 1
271 542 1
271 576 1
272 211 1
272 228 1
272 262 1
272 417 1
272 434 1
272 468 1
272 526 1
272 543 1
272 577 1
273 212 1
273 246 1
273 280 1
273 418 1
273 452 1
273 486 1
273 527 1
273 561 1
273 595 1
274 213 1
274 247 1
274 281 1
274 419 1
274 453 1
274 487 1
274 511 1
274 545 1
274 579 1
275 214 1
275 248 1
275 282 1
275 420 1
275 454 1
275 488 1
275 512 1
275 546 1
275 580 1
276 215 1
276 249 1
276 283 1
276 421 1
276 455 1
276 489 1
276 513 1
276 547 1
276 581 1
277 216 1
277 250 1
277 284 1
277 422 1
277 456 1
277 490 1
277 514 1
277 548 1
277 582 1
278 217 1
278 251 1
278 285 1
278 423 1
278 457 1
278 491 1
278 515 1
278 549 1
278 583 1
279 218 1
279 252 1
279 286 1
279 424 1
279 458 1
279 492 1
279 516 1
279 550 1
279 584 1
280 219 1
280 253 1
280 287 1
280 425 1
280 459 1
280 493 1
280 517 1
280 551 1
280 585 1
281 220 1
281 254 1
281 288 1
281 409 1
281 443 1
281 477 1
281 518 1
281 552 1
281 586 1
282 221 1
282 255 1
282 289 1
282 410 1
282 444 1
282 478 1
282 519 1
282 553 1
282 587 1
283 205 1
283 239 1
283 273 1
283 411 1
283 445 1
283 479 1
283 520 1
283 554 1
283 588 1
284 206 1
284 240 1
284 274 1
284 412 1
284 446 1
284 480 1
284 521 1
284 555 1
284 589 1
285 207 1
285 241 1
285 275 1
285 413 1
285 447 1
285 481 1
285 522 1
285 556 1
285 590 1
286 208 1
286 242 1
286 276 1
286 414 1
286 448 1
286 482 1
286 523 1
286 557 1
286 591 1
287 209 1
287 243 1
287 277 1
287 415 1
287 449 1
287 483 1
287 524 1
287 558 1
287 592 1
288 210 1
288 244 1
288 278 1
288 416 1
288 450 1
288 484 1
288 525 1
288 559 1
288 593 1
289 211 1
289 245 1
289 279 1
289 417 1
289 451 1
289 485 1
289 526 1
289 560 1
289 594 1
290 229 1
290 246 1
290 297 1
290 435 1
290 452 1
290 503 1
290 544 1
290 561 1
290 612 1
291 230 1
291 247 1
291 298 1
291 436 1
291 453 1
291 504 1
291 528 1
291 545 1
291 596 1
292 231 1
292 248 1
292 299 1
292 437 1
292 454 1
292 505 1
292 529 1
292 546 1
292 597 1
293 232 1
293 249 1
293 300 1
293 438 1
293 455 1
293 506 1
293 530 1
293 547 1
293 598 1
294 233 1
294 250 1
294 301 1
294 439 1
294 456 1
294 507 1
294 531 1
294 548 1
294 599 1
295 234 1
295 251 1
295 302 1
295 440 1
295 457 1
295 508 1
295 532 1
295 549 1
295 600 1
296 235 1
296 252 1
296 303 1
296 441 1
296 458 1
296 509 1
296 533 1
296 550 1
296 601 1
297 236 1
297 253 1
297 304 1
297 442 1
297 459 1
297 510 1
297 534 1
297 551 1
297 602 1
298 237 1
298 254 1
298 305 1
298 426 1
298 443 1
298 494 1
298 535 1
298 552 1
298 603 1
299 238 1
299 255 1
299 306 1
299 427 1
299 444 1
299 495 1
299 536 1
299 553 1
299 604 1
300 222 1
300 239 1
300 290 1
300 428 1
300 445 1
300 496 1
300 537 1
300 554 1
300 605 1
301 223 1
301 240 1
301 291 1
301 429 1
301 446 1
301 497 1
301 538 1
301 555 1
301 606 1
302 224 1
302 241 1
302 292 1
302 430 1
302 447 1
302 498 1
302 539 1
302 556 1
302 607 1
303 225 1
303 242 1
303 293 1
303 431 1
303 448 1
303 499 1
303 540 1
303 557 1
303 608 1
304 226 1
304 243 1
304 294 1
304 432 1
304 449 1
304 500 1
304 541 1
304 558 1
304 609 1
305 227 1
305 244 1
305 295 1
305 433 1
305 450 1
305 501 1
305 542 1
305 559 1
305 610 1
306 228 1
306 245 1
306 296 1
306 434 1
306 451 1
306 502 1
306 543 1
306 560 1
306 611 1
