%%MatrixMarket matrix coordinate integer general
306 612 2754
1 1 1
1 34 1
1 63 1
1 307 1
1 340 1
1 369 1
1 409 1
1 442 1
1 471 1
2 2 1
2 18 1
2 64 1
2 308 1
2 324 1
2 370 1
2 410 1
2 426 1
2 472 1
3 3 1
3 19 1
3 65 1
3 309 1
3 325 1
3 371 1
3 411 1
3 427 1
3 473 1
4 4 1
4 20 1
4 66 1
4 310 1
4 326 1
4 372 1
4 412 1
4 428 1
4 474 1
5 5 1
5 21 1
5 67 1
5 311 1
5 327 1
5 373 1
5 413 1
5 429 1
5 475 1
6 6 1
6 22 1
6 68 1
6 312 1
6 328 1
6 374 1
6 414 1
6 430 1
6 476 1
7 7 1
7 23 1
7 52 1
7 313 1
7 329 1
7 358 1
7 415 1
7 431 1
7 460 1
8 8 1
8 24 1
8 53 1
8 314 1
8 330 1
8 359 1
8 416 1
8 432 1
8 461 1
9 9 1
9 25 1
9 54 1
9 315 1
9 331 1
9 360 1
9 417 1
9 433 1
9 462 1
10 10 1
10 26 1
10 55 1
10 316 1
10 332 1
10 361 1
10 418 1
10 434 1
10 463 1
11 11 1
11 27 1
11 56 1
11 317 1
11 333 1
11 362 1
11 419 1
11 435 1
11 464 1
12 12 1
12 28 1
12 57 1
12 318 1
12 334 1
12 363 1
12 420 1
12 436 1
12 465 1
13 13 1
13 29 1
13 58 1
13 319 1
13 335 1
13 364 1
13 421 1
13 437 1
13 466 1
14 14 1
14 30 1
14 59 1
14 320 1
14 336 1
14 365 1
14 422 1
14 438 1
14 467 1
15 15 1
15 31 1
15 60 1
15 321 1
15 337 1
15 366 1
15 423 1
15 439 1
15 468 1
16 16 1
16 32 1
16 61 1
16 322 1
16 338 1
16 367 1
16 424 1
16 440 1
16 469 1
17 17 1
17 33 1
17 62 1
17 323 1
17 339 1
17 368 1
17 425 1
17 441 1
17 470 1
18 1 1
18 48 1
18 80 1
18 307 1
18 354 1
18 386 1
18 409 1
18 456 1
18 488 1
19 2 1
19 49 1
19 81 1
19 308 1
19 355 1
19 387 1
19 410 1
19 457 1
19 489 1
20 3 1
20 50 1
20 82 1
20 309 1
20 356 1
20 388 1
20 411 1
20 458 1
20 490 1
21 4 1
21 51 1
21 83 1
21 310 1
21 357 1
21 389 1
21 412 1
21 459 1
21 491 1
22 5 1
22 35 1
22 84 1
22 311 1
22 341 1
22 390 1
22 413 1
22 443 1
22 492 1
23 6 1
23 36 1
23 85 1
23 312 1
23 342 1
23 391 1
23 414 1
23 444 1
23 493 1
24 7 1
24 37 1
24 69 1
24 313 1
24 343 1
24 375 1
24 415 1
24 445 1
24 477 1
25 8 1
25 38 1
25 70 1
25 314 1
25 344 1
25 376 1
25 416 1
25 446 1
25 478 1
26 9 1
26 39 1
26 71 1
26 315 1
26 345 1
26 377 1
26 417 1
26 447 1
26 479 1
27 10 1
27 40 1
27 72 1
27 316 1
27 346 1
27 378 1
27 418 1
27 448 1
27 480 1
28 11 1
28 41 1
28 73 1
28 317 1
28 347 1
28 379 1
28 419 1
28 449 1
28 481 1
29 12 1
29 42 1
29 74 1
29 318 1
29 348 1
29 380 1
29 420 1
29 450 1
29 482 1
30 13 1
30 43 1
30 75 1
30 319 1
30 349 1
30 381 1
30 421 1
30 451 1
30 483 1
31 14 1
31 44 1
31 76 1
31 320 1
31 350 1
31 382 1
31 422 1
31 452 1
31 484 1
32 15 1
32 45 1
32 77 1
32 321 1
32 351 1
32 383 1
32 423 1
32 453 1
32 485 1
33 16 1
33 46 1
33 78 1
33 322 1
33 352 1
33 384 1
33 424 1
33 454 1
33 486 1
34 17 1
34 47 1
34 79 1
34 323 1
34 353 1
34 385 1
34 425 1
34 455 1
34 487 1
35 34 1
35 48 1
35 87 1
35 340 1
35 354 1
35 393 1
35 442 1
35 456 1
35 495 1
36 18 1
36 49 1
36 88 1
36 324 1
36 355 1
36 394 1
36 426 1
36 457 1
36 496 1
37 19 1
37 50 1
37 89 1
37 325 1
37 356 1
37 395 1
37 427 1
37 458 1
37 497 1
38 20 1
38 51 1
38 90 1
38 326 1
38 357 1
38 396 1
38 428 1
38 459 1
38 498 1
39 21 1
39 35 1
39 91 1
39 327 1
39 341 1
39 397 1
39 429 1
39 443 1
39 499 1
40 22 1
40 36 1
40 92 1
40 328 1
40 342 1
40 398 1
40 430 1
40 444 1
40 500 1
41 23 1
41 37 1
41 93 1
41 329 1
41 343 1
41 399 1
41 431 1
41 445 1
41 501 1
42 24 1
42 38 1
42 94 1
42 330 1
42 344 1
42 400 1
42 432 1
42 446 1
42 502 1
43 25 1
43 39 1
43 95 1
43 331 1
43 345 1
43 401 1
43 433 1
43 447 1
43 503 1
44 26 1
44 40 1
44 96 1
44 332 1
44 346 1
44 402 1
44 434 1
44 448 1
44 504 1
45 27 1
45 41 1
45 97 1
45 333 1
45 347 1
45 403 1
45 435 1
45 449 1
45 505 1
46 28 1
46 42 1
46 98 1
46 334 1
46 348 1
46 404 1
46 436 1
46 450 1
46 506 1
47 29 1
47 43 1
47 99 1
47 335 1
47 349 1
47 405 1
47 437 1
47 451 1
47 507 1
48 30 1
48 44 1
48 100 1
48 336 1
48 350 1
48 406 1
48 438 1
48 452 1
48 508 1
49 31 1
49 45 1
49 101 1
49 337 1
49 351 1
49 407 1
49 439 1
49 453 1
49 509 1
50 32 1
50 46 1
50 102 1
50 338 1
50 352 1
50 408 1
50 440 1
50 454 1
50 510 1
51 33 1
51 47 1
51 86 1
51 339 1
51 353 1
51 392 1
51 441 1
51 455 1
51 494 1
52 103 1
52 136 1
52 165 1
52 307 1
52 340 1
52 369 1
52 511 1
52 544 1
52 573 1
53 104 1
53 120 1
53 166 1
53 308 1
53 324 1
53 370 1
53 512 1
53 528 1
53 574 1
54 105 1
54 121 1
54 167 1
54 309 1
54 325 1
54 371 1
54 513 1
54 529 1
54 575 1
55 106 1
55 122 1
55 168 1
55 310 1
55 326 1
55 372 1
55 514 1
55 530 1
55 576 1
56 107 1
56 123 1
56 169 1
56 311 1
56 327 1
56 373 1
56 515 1
56 531 1
56 577 1
57 108 1
57 124 1
57 170 1
57 312 1
57 328 1
57 374 1
57 516 1
57 532 1
57 578 1
58 109 1
58 125 1
58 154 1
58 313 1
58 329 1
58 358 1
58 517 1
58 533 1
58 562 1
59 110 1
59 126 1
59 155 1
59 314 1
59 330 1
59 359 1
59 518 1
59 534 1
59 563 1
60 111 1
60 127 1
60 156 1
60 315 1
60 331 1
60 360 1
60 519 1
60 535 1
60 564 1
61 112 1
61 128 1
61 157 1
61 316 1
61 332 1
61 361 1
61 520 1
61 536 1
61 565 1
62 113 1
62 129 1
62 158 1
62 317 1
62 333 1
62 362 1
62 521 1
62 537 1
62 566 1
63 114 1
63 130 1
63 159 1
63 318 1
63 334 1
63 363 1
63 522 1
63 538 1
63 567 1
64 115 1
64 131 1
64 160 1
64 319 1
64 335 1
64 364 1
64 523 1
64 539 1
64 568 1
65 116 1
65 132 1
65 161 1
65 320 1
65 336 1
65 365 1
65 524 1
65 540 1
65 569 1
66 117 1
66 133 1
66 162 1
66 321 1
66 337 1
66 366 1
66 525 1
66 541 1
66 570 1
67 118 1
67 134 1
67 163 1
67 322 1
67 338 1
67 367 1
67 526 1
67 542 1
67 571 1
68 119 1
68 135 1
68 164 1
68 323 1
68 339 1
68 368 1
68 527 1
68 543 1
68 572 1
69 103 1
69 150 1
69 182 1
69 307 1
69 354 1
69 386 1
69 511 1
69 558 1
69 590 1
70 104 1
70 151 1
70 183 1
70 308 1
70 355 1
70 387 1
70 512 1
70 559 1
70 591 1
71 105 1
71 152 1
71 184 1
71 309 1
71 356 1
71 388 1
71 513 1
71 560 1
71 592 1
72 106 1
72 153 1
72 185 1
72 310 1
72 357 1
72 389 1
72 514 1
72 561 1
72 593 1
73 107 1
73 137 1
73 186 1
73 311 1
73 341 1
73 390 1
73 515 1
73 545 1
73 594 1
74 108 1
74 138 1
74 187 1
74 312 1
74 342 1
74 391 1
74 516 1
74 546 1
74 595 1
75 109 1
75 139 1
75 171 1
75 313 1
75 343 1
75 375 1
75 517 1
75 547 1
75 579 1
76 110 1
76 140 1
76 172 1
76 314 1
76 344 1
76 376 1
76 518 1
76 548 1
76 580 1
77 111 1
77 141 1
77 173 1
77 315 1
77 345 1
77 377 1
77 519 1
77 549 1
77 581 1
78 112 1
78 142 1
78 174 1
78 316 1
78 346 1
78 378 1
78 520 1
78 550 1
78 582 1
79 113 1
79 143 1
79 175 1
79 317 1
79 347 1
79 379 1
79 521 1
79 551 1
79 583 1
80 114 1
80 144 1
80 176 1
80 318 1
80 348 1
80 380 1
80 522 1
80 552 1
80 584 1
81 115 1
81 145 1
81 177 1
81 319 1
81 349 1
81 381 1
81 523 1
81 553 1
81 585 1
82 116 1
82 146 1
82 178 1
82 320 1
82 350 1
82 382 1
82 524 1
82 554 1
82 586 1
83 117 1
83 147 1
83 179 1
83 321 1
83 351 1
83 383 1
83 525 1
83 555 1
83 587 1
84 118 1
84 148 1
84 180 1
84 322 1
84 352 1
84 384 1
84 526 1
84 556 1
84 588 1
85 119 1
85 149 1
85 181 1
85 323 1
85 353 1
85 385 1
85 527 1
85 557 1
85 589 1
86 136 1
86 150 1
86 189 1
86 340 1
86 354 1
86 393 1
86 544 1
86 558 1
86 597 1
87 120 1
87 151 1
87 190 1
87 324 1
87 355 1
87 394 1
87 528 1
87 559 1
87 598 1
88 121 1
88 152 1
88 191 1
88 325 1
88 356 1
88 395 1
88 529 1
88 560 1
88 599 1
89 122 1
89 153 1
89 192 1
89 326 1
89 357 1
89 396 1
89 530 1
89 561 1
89 600 1
90 123 1
90 137 1
90 193 1
90 327 1
90 341 1
90 397 1
90 531 1
90 545 1
90 601 1
91 124 1
91 138 1
91 194 1
91 328 1
91 342 1
91 398 1
91 532 1
91 546 1
91 602 1
92 125 1
92 139 1
92 195 1
92 329 1
92 343 1
92 399 1
92 533 1
92 547 1
92 603 1
93 126 1
93 140 1
93 196 1
93 330 1
93 344 1
93 400 1
93 534 1
93 548 1
93 604 1
94 127 1
94 141 1
94 197 1
94 331 1
94 345 1
94 401 1
94 535 1
94 549 1
94 605 1
95 128 1
95 142 1
95 198 1
95 332 1
95 346 1
95 402 1
95 536 1
95 550 1
95 606 1
96 129 1
96 143 1
96 199 1
96 333 1
96 347 1
96 403 1
96 537 1
96 551 1
96 607 1
97 130 1
97 144 1
97 200 1
97 334 1
97 348 1
97 404 1
97 538 1
97 552 1
97 608 1
98 131 1
98 145 1
98 201 1
98 335 1
98 349 1
98 405 1
98 539 1
98 553 1
98 609 1
99 132 1
99 146 1
99 202 1
99 336 1
99 350 1
99 406 1
99 540 1
99 554 1
99 610 1
100 133 1
100 147 1
100 203 1
100 337 1
100 351 1
100 407 1
100 541 1
100 555 1
100 611 1
101 134 1
101 148 1
101 204 1
101 338 1
101 352 1
101 408 1
101 542 1
101 556 1
101 612 1
102 135 1
102 149 1
102 188 1
102 339 1
102 353 1
102 392 1
102 543 1
102 557 1
102 596 1
103 205 1
103 238 1
103 267 1
103 409 1
103 442 1
103 471 1
103 511 1
103 544 1
103 573 1
104 206 1
104 222 1
104 268 1
104 410 1
104 426 1
104 472 1
104 512 1
104 528 1
104 574 1
105 207 1
105 223 1
105 269 1
105 411 1
105 427 1
105 473 1
105 513 1
105 529 1
105 575 1
106 208 1
106 224 1
106 270 1
106 412 1
106 428 1
106 474 1
106 514 1
106 530 1
106 576 1
107 209 1
107 225 1
107 271 1
107 413 1
107 429 1
107 475 1
107 515 1
107 531 1
107 577 1
108 210 1
108 226 1
108 272 1
108 414 1
108 430 1
108 476 1
108 516 1
108 532 1
108 578 1
109 211 1
109 227 1
109 256 1
109 415 1
109 431 1
109 460 1
109 517 1
109 533 1
109 562 1
110 212 1
110 228 1
110 257 1
110 416 1
110 432 1
110 461 1
110 518 1
110 534 1
110 563 1
111 213 1
111 229 1
111 258 1
111 417 1
111 433 1
111 462 1
111 519 1
111 535 1
111 564 1
112 214 1
112 230 1
112 259 1
112 418 1
112 434 1
112 463 1
112 520 1
112 536 1
112 565 1
113 215 1
113 231 1
113 260 1
113 419 1
113 435 1
113 464 1
113 521 1
113 537 1
113 566 1
114 216 1
114 232 1
114 261 1
114 420 1
114 436 1
114 465 1
114 522 1
114 538 1
114 567 1
115 217 1
115 233 1
115 262 1
115 421 1
115 437 1
115 466 1
115 523 1
115 539 1
115 568 1
116 218 1
116 234 1
116 263 1
116 422 1
116 438 1
116 467 1
116 524 1
116 540 1
116 569 1
117 219 1
117 235 1
117 264 1
117 423 1
117 439 1
117 468 1
117 525 1
117 541 1
117 570 1
118 220 1
118 236 1
118 265 1
118 424 1
118 440 1
118 469 1
118 526 1
118 542 1
118 571 1
119 221 1
119 237 1
119 266 1
119 425 1
119 441 1
119 470 1
119 527 1
119 543 1
119 572 1
120 205 1
120 252 1
120 284 1
120 409 1
120 456 1
120 488 1
120 511 1
120 558 1
120 590 1
121 206 1
121 253 1
121 285 1
121 410 1
121 457 1
121 489 1
121 512 1
121 559 1
121 591 1
122 207 1
122 254 1
122 286 1
122 411 1
122 458 1
122 490 1
122 513 1
122 560 1
122 592 1
123 208 1
123 255 1
123 287 1
123 412 1
123 459 1
123 491 1
123 514 1
123 561 1
123 593 1
124 209 1
124 239 1
124 288 1
124 413 1
124 443 1
124 492 1
124 515 1
124 545 1
124 594 1
125 210 1
125 240 1
125 289 1
125 414 1
125 444 1
125 493 1
125 516 1
125 546 1
125 595 1
126 211 1
126 241 1
126 273 1
126 415 1
126 445 1
126 477 1
126 517 1
126 547 1
126 579 1
127 212 1
127 242 1
127 274 1
127 416 1
127 446 1
127 478 1
127 518 1
127 548 1
127 580 1
128 213 1
128 243 1
128 275 1
128 417 1
128 447 1
128 479 1
128 519 1
128 549 1
128 581 1
129 214 1
129 244 1
129 276 1
129 418 1
129 448 1
129 480 1
129 520 1
129 550 1
129 582 1
130 215 1
130 245 1
130 277 1
130 419 1
130 449 1
130 481 1
130 521 1
130 551 1
130 583 1
131 216 1
131 246 1
131 278 1
131 420 1
131 450 1
131 482 1
131 522 1
131 552 1
131 584 1
132 217 1
132 247 1
132 279 1
132 421 1
132 451 1
132 483 1
132 523 1
132 553 1
132 585 1
133 218 1
133 248 1
133 280 1
133 422 1
133 452 1
133 484 1
133 524 1
133 554 1
133 586 1
134 219 1
134 249 1
134 281 1
134 423 1
134 453 1
134 485 1
134 525 1
134 555 1
134 587 1
135 220 1
135 250 1
135 282 1
135 424 1
135 454 1
135 486 1
135 526 1
135 556 1
135 588 1
136 221 1
136 251 1
136 283 1
136 425 1
136 455 1
136 487 1
136 527 1
136 557 1
136 589 1
137 238 1
137 252 1
137 291 1
137 442 1
137 456 1
137 495 1
137 544 1
137 558 1
137 597 1
138 222 1
138 253 1
138 292 1
138 426 1
138 457 1
138 496 1
138 528 1
138 559 1
138 598 1
139 223 1
139 254 1
139 293 1
139 427 1
139 458 1
139 497 1
139 529 1
139 560 1
139 599 1
140 224 1
140 255 1
140 294 1
140 428 1
140 459 1
140 498 1
140 530 1
140 561 1
140 600 1
141 225 1
141 239 1
141 295 1
141 429 1
141 443 1
141 499 1
141 531 1
141 545 1
141 601 1
142 226 1
142 240 1
142 296 1
142 430 1
142 444 1
142 500 1
142 532 1
142 546 1
142 602 1
143 227 1
143 241 1
143 297 1
143 431 1
143 445 1
143 501 1
143 533 1
143 547 1
143 603 1
144 228 1
144 242 1
144 298 1
144 432 1
144 446 1
144 502 1
144 534 1
144 548 1
144 604 1
145 229 1
145 243 1
145 299 1
145 433 1
145 447 1
145 503 1
145 535 1
145 549 1
145 605 1
146 230 1
146 244 1
146 300 1
146 434 1
146 448 1
146 504 1
146 536 1
146 550 1
146 606 1
147 231 1
147 245 1
147 301 1
147 435 1
147 449 1
147 505 1
147 537 1
147 551 1
147 607 1
148 232 1
148 246 1
148 302 1
148 436 1
148 450 1
148 506 1
148 538 1
148 552 1
148 608 1
149 233 1
149 247 1
149 303 1
149 437 1
149 451 1
149 507 1
149 539 1
149 553 1
149 609 1
150 234 1
150 248 1
150 304 1
150 438 1
150 452 1
150 508 1
150 540 1
150 554 1
150 610 1
151 235 1
151 249 1
151 305 1
151 439 1
151 453 1
151 509 1
151 541 1
151 555 1
151 611 1
152 236 1
152 250 1
152 306 1
152 440 1
152 454 1
152 510 1
152 542 1
152 556 1
152 612 1
153 237 1
153 251 1
153 290 1
153 441 1
153 455 1
153 494 1
153 543 1
153 557 1
153 596 1
154 1 1
154 18 1
154 52 1
154 308 1
154 325 1
154 359 1
154 410 1
154 427 1
154 461 1
155 2 1
155 19 1
155 53 1
155 309 1
155 326 1
155 360 1
155 411 1
155 428 1
155 462 1
156 3 1
156 20 1
156 54 1
156 310 1
156 327 1
156 361 1
156 412 1
156 429 1
156 463 1
157 4 1
157 21 1
157 55 1
157 311 1
157 328 1
157 362 1
157 413 1
157 430 1
157 464 1
158 5 1
158 22 1
158 56 1
158 312 1
158 329 1
158 363 1
158 414 1
158 431 1
158 465 1
159 6 1
159 23 1
159 57 1
159 313 1
159 330 1
159 364 1
159 415 1
159 432 1
159 466 1
160 7 1
160 24 1
160 58 1
160 314 1
160 331 1
160 365 1
160 416 1
160 433 1
160 467 1
161 8 1
161 25 1
161 59 1
161 315 1
161 332 1
161 366 1
161 417 1
161 434 1
161 468 1
162 9 1
162 26 1
162 60 1
162 316 1
162 333 1
162 367 1
162 418 1
162 435 1
162 469 1
163 10 1
163 27 1
163 61 1
163 317 1
163 334 1
163 368 1
163 419 1
163 436 1
163 470 1
164 11 1
164 28 1
164 62 1
164 318 1
164 335 1
164 369 1
164 420 1
164 437 1
164 471 1
165 12 1
165 29 1
165 63 1
165 319 1
165 336 1
165 370 1
165 421 1
165 438 1
165 472 1
166 13 1
166 30 1
166 64 1
166 320 1
166 337 1
166 371 1
166 422 1
166 439 1
166 473 1
167 14 1
167 31 1
167 65 1
167 321 1
167 338 1
167 372 1
167 423 1
167 440 1
167 474 1
168 15 1
168 32 1
168 66 1
168 322 1
168 339 1
168 373 1
168 424 1
168 441 1
168 475 1
169 16 1
169 33 1
169 67 1
169 323 1
169 340 1
169 374 1
169 425 1
169 442 1
169 476 1
170 17 1
170 34 1
170 68 1
170 307 1
170 324 1
170 358 1
170 409 1
170 426 1
170 460 1
171 1 1
171 35 1
171 69 1
171 308 1
171 342 1
171 376 1
171 410 1
171 444 1
171 478 1
172 2 1
172 36 1
172 70 1
172 309 1
172 343 1
172 377 1
172 411 1
172 445 1
172 479 1
173 3 1
173 37 1
173 71 1
173 310 1
173 344 1
173 378 1
173 412 1
173 446 1
173 480 1
174 4 1
174 38 1
174 72 1
174 311 1
174 345 1
174 379 1
174 413 1
174 447 1
174 481 1
175 5 1
175 39 1
175 73 1
175 312 1
175 346 1
175 380 1
175 414 1
175 448 1
175 482 1
176 6 1
176 40 1
176 74 1
176 313 1
176 347 1
176 381 1
176 415 1
176 449 1
176 483 1
177 7 1
177 41 1
177 75 1
177 314 1
177 348 1
177 382 1
177 416 1
177 450 1
177 484 1
178 8 1
178 42 1
178 76 1
178 315 1
178 349 1
178 383 1
178 417 1
178 451 1
178 485 1
179 9 1
179 43 1
179 77 1
179 316 1
179 350 1
179 384 1
179 418 1
179 452 1
179 486 1
180 10 1
180 44 1
180 78 1
180 317 1
180 351 1
180 385 1
180 419 1
180 453 1
180 487 1
181 11 1
181 45 1
181 79 1
181 318 1
181 352 1
181 386 1
181 420 1
181 454 1
181 488 1
182 12 1
182 46 1
182 80 1
182 319 1
182 353 1
182 387 1
182 421 1
182 455 1
182 489 1
183 13 1
183 47 1
183 81 1
183 320 1
183 354 1
183 388 1
183 422 1
183 456 1
183 490 1
184 14 1
184 48 1
184 82 1
184 321 1
184 355 1
184 389 1
184 423 1
184 457 1
184 491 1
185 15 1
185 49 1
185 83 1
185 322 1
185 356 1
185 390 1
185 424 1
185 458 1
185 492 1
186 16 1
186 50 1
186 84 1
186 323 1
186 357 1
186 391 1
186 425 1
186 459 1
186 493 1
187 17 1
187 51 1
187 85 1
187 307 1
187 341 1
187 375 1
187 409 1
187 443 1
187 477 1
188 18 1
188 35 1
188 86 1
188 325 1
188 342 1
188 393 1
188 427 1
188 444 1
188 495 1
189 19 1
189 36 1
189 87 1
189 326 1
189 343 1
189 394 1
189 428 1
189 445 1
189 496 1
190 20 1
190 37 1
190 88 1
190 327 1
190 344 1
190 395 1
190 429 1
190 446 1
190 497 1
191 21 1
191 38 1
191 89 1
191 328 1
191 345 1
191 396 1
191 430 1
191 447 1
191 498 1
192 22 1
192 39 1
192 90 1
192 329 1
192 346 1
192 397 1
192 431 1
192 448 1
192 499 1
193 23 1
193 40 1
193 91 1
193 330 1
193 347 1
193 398 1
193 432 1
193 449 1
193 500 1
194 24 1
194 41 1
194 92 1
194 331 1
194 348 1
194 399 1
194 433 1
194 450 1
194 501 1
195 25 1
195 42 1
195 93 1
195 332 1
195 349 1
195 400 1
195 434 1
195 451 1
195 502 1
196 26 1
196 43 1
196 94 1
196 333 1
196 350 1
196 401 1
196 435 1
196 452 1
196 503 1
197 27 1
197 44 1
197 95 1
197 334 1
197 351 1
197 402 1
197 436 1
197 453 1
197 504 1
198 28 1
198 45 1
198 96 1
198 335 1
198 352 1
198 403 1
198 437 1
198 454 1
198 505 1
199 29 1
199 46 1
199 97 1
199 336 1
199 353 1
199 404 1
199 438 1
199 455 1
199 506 1
200 30 1
200 47 1
200 98 1
200 337 1
200 354 1
200 405 1
200 439 1
200 456 1
200 507 1
201 31 1
201 48 1
201 99 1
201 338 1
201 355 1
201 406 1
201 440 1
201 457 1
201 508 1
202 32 1
202 49 1
202 100 1
202 339 1
202 356 1
202 407 1
202 441 1
202 458 1
202 509 1
203 33 1
203 50 1
203 101 1
203 340 1
203 357 1
203 408 1
203 442 1
203 459 1
203 510 1
204 34 1
204 51 1
204 102 1
204 324 1
204 341 1
204 392 1
204 426 1
204 443 1
204 494 1
205 103 1
205 120 1
205 154 1
205 308 1
205 325 1
205 359 1
205 523 1
205 540 1
205 574 1
206 104 1
206 121 1
206 155 1
206 309 1
206 326 1
206 360 1
206 524 1
206 541 1
206 575 1
207 105 1
207 122 1
207 156 1
207 310 1
207 327 1
207 361 1
207 525 1
207 542 1
207 576 1
208 106 1
208 123 1
208 157 1
208 311 1
208 328 1
208 362 1
208 526 1
208 543 1
208 577 1
209 107 1
209 124 1
209 158 1
209 312 1
209 329 1
209 363 1
209 527 1
209 544 1
209 578 1
210 108 1
210 125 1
210 159 1
210 313 1
210 330 1
210 364 1
210 511 1
210 528 1
210 562 1
211 109 1
211 126 1
211 160 1
211 314 1
211 331 1
211 365 1
211 512 1
211 529 1
211 563 1
212 110 1
212 127 1
212 161 1
212 315 1
212 332 1
212 366 1
212 513 1
212 530 1
212 564 1
213 111 1
213 128 1
213 162 1
213 316 1
213 333 1
213 367 1
213 514 1
213 531 1
213 565 1
214 112 1
214 129 1
214 163 1
214 317 1
214 334 1
214 368 1
214 515 1
214 532 1
214 566 1
215 113 1
215 130 1
215 164 1
215 318 1
215 335 1
215 369 1
215 516 1
215 533 1
215 567 1
216 114 1
216 131 1
216 165 1
216 319 1
216 336 1
216 370 1
216 517 1
216 534 1
216 568 1
217 115 1
217 132 1
217 166 1
217 320 1
217 337 1
217 371 1
217 518 1
217 535 1
217 569 1
218 116 1
218 133 1
218 167 1
218 321 1
218 338 1
218 372 1
218 519 1
218 536 1
218 570 1
219 117 1
219 134 1
219 168 1
219 322 1
219 339 1
219 373 1
219 520 1
219 537 1
219 571 1
220 118 1
220 135 1
220 169 1
220 323 1
220 340 1
220 374 1
220 521 1
220 538 1
220 572 1
221 119 1
221 136 1
221 170 1
221 307 1
221 324 1
221 358 1
221 522 1
221 539 1
221 573 1
222 103 1
222 137 1
222 171 1
222 308 1
222 342 1
222 376 1
222 523 1
222 557 1
222 591 1
223 104 1
223 138 1
223 172 1
223 309 1
223 343 1
223 377 1
223 524 1
223 558 1
223 592 1
224 105 1
224 139 1
224 173 1
224 310 1
224 344 1
224 378 1
224 525 1
224 559 1
224 593 1
225 106 1
225 140 1
225 174 1
225 311 1
225 345 1
225 379 1
225 526 1
225 560 1
225 594 1
226 107 1
226 141 1
226 175 1
226 312 1
226 346 1
226 380 1
226 527 1
226 561 1
226 595 1
227 108 1
227 142 1
227 176 1
227 313 1
227 347 1
227 381 1
227 511 1
227 545 1
227 579 1
228 109 1
228 143 1
228 177 1
228 314 1
228 348 1
228 382 1
228 512 1
228 546 1
228 580 1
229 110 1
229 144 1
229 178 1
229 315 1
229 349 1
229 383 1
229 513 1
229 547 1
229 581 1
230 111 1
230 145 1
230 179 1
230 316 1
230 350 1
230 384 1
230 514 1
230 548 1
230 582 1
231 112 1
231 146 1
231 180 1
231 317 1
231 351 1
231 385 1
231 515 1
231 549 1
231 583 1
232 113 1
232 147 1
232 181 1
232 318 1
232 352 1
232 386 1
232 516 1
232 550 1
232 584 1
233 114 1
233 148 1
233 182 1
233 319 1
233 353 1
233 387 1
233 517 1
233 551 1
233 585 1
234 115 1
234 149 1
234 183 1
234 320 1
234 354 1
234 388 1
234 518 1
234 552 1
234 586 1
235 116 1
235 150 1
235 184 1
235 321 1
235 355 1
235 389 1
235 519 1
235 553 1
235 587 1
236 117 1
236 151 1
236 185 1
236 322 1
236 356 1
236 390 1
236 520 1
236 554 1
236 588 1
237 118 1
237 152 1
237 186 1
237 323 1
237 357 1
237 391 1
237 521 1
237 555 1
237 589 1
238 119 1
238 153 1
238 187 1
238 307 1
238 341 1
238 375 1
238 522 1
238 556 1
238 590 1
239 120 1
239 137 1
239 188 1
239 325 1
239 342 1
239 393 1
239 540 1
239 557 1
239 608 1
240 121 1
240 138 1
240 189 1
240 326 1
240 343 1
240 394 1
240 541 1
240 558 1
240 609 1
241 122 1
241 139 1
241 190 1
241 327 1
241 344 1
241 395 1
241 542 1
241 559 1
241 610 1
242 123 1
242 140 1
242 191 1
242 328 1
242 345 1
242 396 1
242 543 1
242 560 1
242 611 1
243 124 1
243 141 1
243 192 1
243 329 1
243 346 1
243 397 1
243 544 1
243 561 1
243 612 1
244 125 1
244 142 1
244 193 1
244 330 1
244 347 1
244 398 1
244 528 1
244 545 1
244 596 1
245 126 1
245 143 1
245 194 1
245 331 1
245 348 1
245 399 1
245 529 1
245 546 1
245 597 1
246 127 1
246 144 1
246 195 1
246 332 1
246 349 1
246 400 1
246 530 1
246 547 1
246 598 1
247 128 1
247 145 1
247 196 1
247 333 1
247 350 1
247 401 1
247 531 1
247 548 1
247 599 1
248 129 1
248 146 1
248 197 1
248 334 1
248 351 1
248 402 1
248 532 1
248 549 1
248 600 1
249 130 1
249 147 1
249 198 1
249 335 1
249 352 1
249 403 1
249 533 1
249 550 1
249 601 1
250 131 1
250 148 1
250 199 1
250 336 1
250 353 1
250 404 1
250 534 1
250 551 1
250 602 1
251 132 1
251 149 1
251 200 1
251 337 1
251 354 1
251 405 1
251 535 1
251 552 1
251 603 1
252 133 1
252 150 1
252 201 1
252 338 1
252 355 1
252 406 1
252 536 1
252 553 1
252 604 1
253 134 1
253 151 1
253 202 1
253 339 1
253 356 1
253 407 1
253 537 1
253 554 1
253 605 1
254 135 1
254 152 1
254 203 1
254 340 1
254 357 1
254 408 1
254 538 1
254 555 1
254 606 1
255 136 1
255 153 1
255 204 1
255 324 1
255 341 1
255 392 1
255 539 1
255 556 1
255 607 1
256 206 1
256 223 1
256 257 1
256 410 1
256 427 1
256 461 1
256 523 1
256 540 1
256 574 1
257 207 1
257 224 1
257 258 1
257 411 1
257 428 1
257 462 1
257 524 1
257 541 1
257 575 1
258 208 1
258 225 1
258 259 1
258 412 1
258 429 1
258 463 1
258 525 1
258 542 1
258 576 1
259 209 1
259 226 1
259 260 1
259 413 1
259 430 1
259 464 1
259 526 1
259 543 1
259 577 1
260 210 1
260 227 1
260 261 1
260 414 1
260 431 1
260 465 1
260 527 1
260 544 1
260 578 1
261 211 1
261 228 1
261 262 1
261 415 1
261 432 1
261 466 1
261 511 1
261 528 1
261 562 1
262 212 1
262 229 1
262 263 1
262 416 1
262 433 1
262 467 1
262 512 1
262 529 1
262 563 1
263 213 1
263 230 1
263 264 1
263 417 1
263 434 1
263 468 1
263 513 1
263 530 1
263 564 1
264 214 1
264 231 1
264 265 1
264 418 1
264 435 1
264 469 1
264 514 1
264 531 1
264 565 1
265 215 1
265 232 1
265 266 1
265 419 1
265 436 1
265 470 1
265 515 1
265 532 1
265 566 1
266 216 1
266 233 1
266 267 1
266 420 1
266 437 1
266 471 1
266 516 1
266 533 1
266 567 1
267 217 1
267 234 1
267 268 1
267 421 1
267 438 1
267 472 1
267 517 1
267 534 1
267 568 1
268 218 1
268 235 1
268 269 1
268 422 1
268 439 1
268 473 1
268 518 1
268 535 1
268 569 1
269 219 1
269 236 1
269 270 1
269 423 1
269 440 1
269 474 1
269 519 1
269 536 1
269 570 1
270 220 1
270 237 1
270 271 1
270 424 1
270 441 1
270 475 1
270 520 1
270 537 1
270 571 1
271 221 1
271 238 1
271 272 1
271 425 1
271 442 1
271 476 1
271 521 1
271 538 1
271 572 1
272 205 1
272 222 1
272 256 1
272 409 1
272 426 1
272 460 1
272 522 1
272 539 1
272 573 1
273 206 1
273 240 1
273 274 1
273 410 1
273 444 1
273 478 1
273 523 1
273 557 1
273 591 1
274 207 1
274 241 1
274 275 1
274 411 1
274 445 1
274 479 1
274 524 1
274 558 1
274 592 1
275 208 1
275 242 1
275 276 1
275 412 1
275 446 1
275 480 1
275 525 1
275 559 1
275 593 1
276 209 1
276 243 1
276 277 1
276 413 1
276 447 1
276 481 1
276 526 1
276 560 1
276 594 1
277 210 1
277 244 1
277 278 1
277 414 1
277 448 1
277 482 1
277 527 1
277 561 1
277 595 1
278 211 1
278 245 1
278 279 1
278 415 1
278 449 1
278 483 1
278 511 1
278 545 1
278 579 1
279 212 1
279 246 1
279 280 1
279 416 1
279 450 1
279 484 1
279 512 1
279 546 1
279 580 1
280 213 1
280 247 1
280 281 1
280 417 1
280 451 1
280 485 1
280 513 1
280 547 1
280 581 1
281 214 1
281 248 1
281 282 1
281 418 1
281 452 1
281 486 1
281 514 1
281 548 1
281 582 1
282 215 1
282 249 1
282 283 1
282 419 1
282 453 1
282 487 1
282 515 1
282 549 1
282 583 1
283 216 1
283 250 1
283 284 1
283 420 1
283 454 1
283 488 1
283 516 1
283 550 1
283 584 1
284 217 1
284 251 1
284 285 1
284 421 1
284 455 1
284 489 1
284 517 1
284 551 1
284 585 1
285 218 1
285 252 1
285 286 1
285 422 1
285 456 1
285 490 1
285 518 1
285 552 1
285 586 1
286 219 1
286 253 1
286 287 1
286 423 1
286 457 1
286 491 1
286 519 1
286 553 1
286 587 1
287 220 1
287 254 1
287 288 1
287 424 1
287 458 1
287 492 1
287 520 1
287 554 1
287 588 1
288 221 1
288 255 1
288 289 1
288 425 1
288 459 1
288 493 1
288 521 1
288 555 1
288 589 1
289 205 1
289 239 1
289 273 1
289 409 1
289 443 1
289 477 1
289 522 1
289 556 1
289 590 1
290 223 1
290 240 1
290 291 1
290 427 1
290 444 1
290 495 1
290 540 1
290 557 1
290 608 1
291 224 1
291 241 1
291 292 1
291 428 1
291 445 1
291 496 1
291 541 1
291 558 1
291 609 1
292 225 1
292 242 1
292 293 1
292 429 1
292 446 1
292 497 1
292 542 1
292 559 1
292 610 1
293 226 1
293 243 1
293 294 1
293 430 1
293 447 1
293 498 1
293 543 1
293 560 1
293 611 1
294 227 1
294 244 1
294 295 1
294 431 1
294 448 1
294 499 1
294 544 1
294 561 1
294 612 1
295 228 1
295 245 1
295 296 1
295 432 1
295 449 1
295 500 1
295 528 1
295 545 1
295 596 1
296 229 1
296 246 1
296 297 1
296 433 1
296 450 1
296 501 1
296 529 1
296 546 1
296 597 1
297 230 1
297 247 1
297 298 1
297 434 1
297 451 1
297 502 1
297 530 1
297 547 1
297 598 1
298 231 1
298 248 1
298 299 1
298 435 1
298 452 1
298 503 1
298 531 1
298 548 1
298 599 1
299 232 1
299 249 1
299 300 1
299 436 1
299 453 1
299 504 1
299 532 1
299 549 1
299 600 1
300 233 1
300 250 1
300 301 1
300 437 1
300 454 1
300 505 1
300 533 1
300 550 1
300 601 1
301 234 1
301 251 1
301 302 1
301 438 1
301 455 1
301 506 1
301 534 1
301 551 1
301 602 1
302 235 1
302 252 1
302 303 1
302 439 1
302 456 1
302 507 1
302 535 1
302 552 1
302 603 1
303 236 1
303 253 1
303 304 1
303 440 1
303 457 1
303 508 1
303 536 1
303 553 1
303 604 1
304 237 1
304 254 1
304 305 1
304 441 1
304 458 1
304 509 1
304 537 1
304 554 1
304 605 1
305 238 1
305 255 1
305 306 1
305 442 1
305 459 1
305 510 1
305 538 1
305 555 1
305 606 1
306 222 1
306 239 1
306 290 1
306 426 1
306 443 1
306 494 1
306 539 1
306 556 1
306 607 1
