%%MatrixMarket matrix coordinate integer general
324 648 2916
1 1 1
1 55 1
1 73 1
1 109 1
1 163 1
1 181 1
1 325 1
1 379 1
1 397 1
2 2 1
2 56 1
2 74 1
2 110 1
2 164 1
2 182 1
2 326 1
2 380 1
2 398 1
3 3 1
3 57 1
3 75 1
3 111 1
3 165 1
3 183 1
3 327 1
3 381 1
3 399 1
4 4 1
4 58 1
4 76 1
4 112 1
4 166 1
4 184 1
4 328 1
4 382 1
4 400 1
5 5 1
5 59 1
5 77 1
5 113 1
5 167 1
5 185 1
5 329 1
5 383 1
5 401 1
6 6 1
6 60 1
6 78 1
6 114 1
6 168 1
6 186 1
6 330 1
6 384 1
6 402 1
7 7 1
7 61 1
7 79 1
7 115 1
7 169 1
7 187 1
7 331 1
7 385 1
7 403 1
8 8 1
8 62 1
8 80 1
8 116 1
8 170 1
8 188 1
8 332 1
8 386 1
8 404 1
9 9 1
9 63 1
9 81 1
9 117 1
9 171 1
9 189 1
9 333 1
9 387 1
9 405 1
10 10 1
10 64 1
10 82 1
10 118 1
10 172 1
10 190 1
10 334 1
10 388 1
10 406 1
11 11 1
11 65 1
11 83 1
11 119 1
11 173 1
11 191 1
11 335 1
11 389 1
11 407 1
12 12 1
12 66 1
12 84 1
12 120 1
12 174 1
12 192 1
12 336 1
12 390 1
12 408 1
13 13 1
13 67 1
13 85 1
13 121 1
13 175 1
13 193 1
13 337 1
13 391 1
13 409 1
14 14 1
14 68 1
14 86 1
14 122 1
14 176 1
14 194 1
14 338 1
14 392 1
14 410 1
15 15 1
15 69 1
15 87 1
15 123 1
15 177 1
15 195 1
15 339 1
15 393 1
15 411 1
16 16 1
16 70 1
16 88 1
16 124 1
16 178 1
16 196 1
16 340 1
16 394 1
16 412 1
17 17 1
17 71 1
17 89 1
17 125 1
17 179 1
17 197 1
17 341 1
17 395 1
17 413 1
18 18 1
18 72 1
18 90 1
18 126 1
18 180 1
18 198 1
18 342 1
18 396 1
18 414 1
19 19 1
19 55 1
19 91 1
19 127 1
19 163 1
19 199 1
19 343 1
19 379 1
19 415 1
20 20 1
20 56 1
20 92 1
20 128 1
20 164 1
20 200 1
20 344 1
20 380 1
20 416 1
21 21 1
21 57 1
21 93 1
21 129 1
21 165 1
21 201 1
21 345 1
21 381 1
21 417 1
22 22 1
22 58 1
22 94 1
22 130 1
22 166 1
22 202 1
22 346 1
22 382 1
22 418 1
23 23 1
23 59 1
23 95 1
23 131 1
23 167 1
23 203 1
23 347 1
23 383 1
23 419 1
24 24 1
24 60 1
24 96 1
24 132 1
24 168 1
24 204 1
24 348 1
24 384 1
24 420 1
25 25 1
25 61 1
25 97 1
25 133 1
25 169 1
25 205 1
25 349 1
25 385 1
25 421 1
26 26 1
26 62 1
26 98 1
26 134 1
26 170 1
26 206 1
26 350 1
26 386 1
26 422 1
27 27 1
27 63 1
27 99 1
27 135 1
27 171 1
27 207 1
27 351 1
27 387 1
27 423 1
28 28 1
28 64 1
28 100 1
28 136 1
28 172 1
28 208 1
28 352 1
28 388 1
28 424 1
29 29 1
29 65 1
29 101 1
29 137 1
29 173 1
29 209 1
29 353 1
29 389 1
29 425 1
30 30 1
30 66 1
30 102 1
30 138 1
30 174 1
30 210 1
30 354 1
30 390 1
30 426 1
31 31 1
31 67 1
31 103 1
31 139 1
31 175 1
31 211 1
31 355 1
31 391 1
31 427 1
32 32 1
32 68 1
32 104 1
32 140 1
32 176 1
32 212 1
32 356 1
32 392 1
32 428 1
33 33 1
33 69 1
33 105 1
33 141 1
33 177 1
33 213 1
33 357 1
33 393 1
33 429 1
34 34 1
34 70 1
34 106 1
34 142 1
34 178 1
34 214 1
34 358 1
34 394 1
34 430 1
35 35 1
35 71 1
35 107 1
35 143 1
35 179 1
35 215 1
35 359 1
35 395 1
35 431 1
36 36 1
36 72 1
36 108 1
36 144 1
36 180 1
36 216 1
36 360 1
36 396 1
36 432 1
37 37 1
37 73 1
37 91 1
37 145 1
37 181 1
37 199 1
37 361 1
37 397 1
37 415 1
38 38 1
38 74 1
38 92 1
38 146 1
38 182 1
38 200 1
38 362 1
38 398 1
38 416 1
39 39 1
39 75 1
39 93 1
39 147 1
39 183 1
39 201 1
39 363 1
39 399 1
39 417 1
40 40 1
40 76 1
40 94 1
40 148 1
40 184 1
40 202 1
40 364 1
40 400 1
40 418 1
41 41 1
41 77 1
41 95 1
41 149 1
41 185 1
41 203 1
41 365 1
41 401 1
41 419 1
42 42 1
42 78 1
42 96 1
42 150 1
42 186 1
42 204 1
42 366 1
42 402 1
42 420 1
43 43 1
43 79 1
43 97 1
43 151 1
43 187 1
43 205 1
43 367 1
43 403 1
43 421 1
44 44 1
44 80 1
44 98 1
44 152 1
44 188 1
44 206 1
44 368 1
44 404 1
44 422 1
45 45 1
45 81 1
45 99 1
45 153 1
45 189 1
45 207 1
45 369 1
45 405 1
45 423 1
46 46 1
46 82 1
46 100 1
46 154 1
46 190 1
46 208 1
46 370 1
46 406 1
46 424 1
47 47 1
47 83 1
47 101 1
47 155 1
47 191 1
47 209 1
47 371 1
47 407 1
47 425 1
48 48 1
48 84 1
48 102 1
48 156 1
48 192 1
48 210 1
48 372 1
48 408 1
48 426 1
49 49 1
49 85 1
49 103 1
49 157 1
49 193 1
49 211 1
49 373 1
49 409 1
49 427 1
50 50 1
50 86 1
50 104 1
50 158 1
50 194 1
50 212 1
50 374 1
50 410 1
50 428 1
51 51 1
51 87 1
51 105 1
51 159 1
51 195 1
51 213 1
51 375 1
51 411 1
51 429 1
52 52 1
52 88 1
52 106 1
52 160 1
52 196 1
52 214 1
52 376 1
52 412 1
52 430 1
53 53 1
53 89 1
53 107 1
53 161 1
53 197 1
53 215 1
53 377 1
53 413 1
53 431 1
54 54 1
54 90 1
54 108 1
54 162 1
54 198 1
54 216 1
54 378 1
54 414 1
54 432 1
55 1 1
55 55 1
55 73 1
55 217 1
55 271 1
55 289 1
55 433 1
55 487 1
55 505 1
56 2 1
56 56 1
56 74 1
56 218 1
56 272 1
56 290 1
56 434 1
56 488 1
56 506 1
57 3 1
57 57 1
57 75 1
57 219 1
57 273 1
57 291 1
57 435 1
57 489 1
57 507 1
58 4 1
58 58 1
58 76 1
58 220 1
58 274 1
58 292 1
58 436 1
58 490 1
58 508 1
59 5 1
59 59 1
59 77 1
59 221 1
59 275 1
59 293 1
59 437 1
59 491 1
59 509 1
60 6 1
60 60 1
60 78 1
60 222 1
60 276 1
60 294 1
60 438 1
60 492 1
60 510 1
61 7 1
61 61 1
61 79 1
61 223 1
61 277 1
61 295 1
61 439 1
61 493 1
61 511 1
62 8 1
62 62 1
62 80 1
62 224 1
62 278 1
62 296 1
62 440 1
62 494 1
62 512 1
63 9 1
63 63 1
63 81 1
63 225 1
63 279 1
63 297 1
63 441 1
63 495 1
63 513 1
64 10 1
64 64 1
64 82 1
64 226 1
64 280 1
64 298 1
64 442 1
64 496 1
64 514 1
65 11 1
65 65 1
65 83 1
65 227 1
65 281 1
65 299 1
65 443 1
65 497 1
65 515 1
66 12 1
66 66 1
66 84 1
66 228 1
66 282 1
66 300 1
66 444 1
66 498 1
66 516 1
67 13 1
67 67 1
67 85 1
67 229 1
67 283 1
67 301 1
67 445 1
67 499 1
67 517 1
68 14 1
68 68 1
68 86 1
68 230 1
68 284 1
68 302 1
68 446 1
68 500 1
68 518 1
69 15 1
69 69 1
69 87 1
69 231 1
69 285 1
69 303 1
69 447 1
69 501 1
69 519 1
70 16 1
70 70 1
70 88 1
70 232 1
70 286 1
70 304 1
70 448 1
70 502 1
70 520 1
71 17 1
71 71 1
71 89 1
71 233 1
71 287 1
71 305 1
71 449 1
71 503 1
71 521 1
72 18 1
72 72 1
72 90 1
72 234 1
72 288 1
72 306 1
72 450 1
72 504 1
72 522 1
73 19 1
73 55 1
73 91 1
73 235 1
73 271 1
73 307 1
73 451 1
73 487 1
73 523 1
74 20 1
74 56 1
74 92 1
74 236 1
74 272 1
74 308 1
74 452 1
74 488 1
74 524 1
75 21 1
75 57 1
75 93 1
75 237 1
75 273 1
75 309 1
75 453 1
75 489 1
75 525 1
76 22 1
76 58 1
76 94 1
76 238 1
76 274 1
76 310 1
76 454 1
76 490 1
76 526 1
77 23 1
77 59 1
77 95 1
77 239 1
77 275 1
77 311 1
77 455 1
77 491 1
77 527 1
78 24 1
78 60 1
78 96 1
78 240 1
78 276 1
78 312 1
78 456 1
78 492 1
78 528 1
79 25 1
79 61 1
79 97 1
79 241 1
79 277 1
79 313 1
79 457 1
79 493 1
79 529 1
80 26 1
80 62 1
80 98 1
80 242 1
80 278 1
80 314 1
80 458 1
80 494 1
80 530 1
81 27 1
81 63 1
81 99 1
81 243 1
81 279 1
81 315 1
81 459 1
81 495 1
81 531 1
82 28 1
82 64 1
82 100 1
82 244 1
82 280 1
82 316 1
82 460 1
82 496 1
82 532 1
83 29 1
83 65 1
83 101 1
83 245 1
83 281 1
83 317 1
83 461 1
83 497 1
83 533 1
84 30 1
84 66 1
84 102 1
84 246 1
84 282 1
84 318 1
84 462 1
84 498 1
84 534 1
85 31 1
85 67 1
85 103 1
85 247 1
85 283 1
85 319 1
85 463 1
85 499 1
85 535 1
86 32 1
86 68 1
86 104 1
86 248 1
86 284 1
86 320 1
86 464 1
86 500 1
86 536 1
87 33 1
87 69 1
87 105 1
87 249 1
87 285 1
87 321 1
87 465 1
87 501 1
87 537 1
88 34 1
88 70 1
88 106 1
88 250 1
88 286 1
88 322 1
88 466 1
88 502 1
88 538 1
89 35 1
89 71 1
89 107 1
89 251 1
89 287 1
89 323 1
89 467 1
89 503 1
89 539 1
90 36 1
90 72 1
90 108 1
90 252 1
90 288 1
90 324 1
90 468 1
90 504 1
90 540 1
91 37 1
91 73 1
91 91 1
91 253 1
91 289 1
91 307 1
91 469 1
91 505 1
91 523 1
92 38 1
92 74 1
92 92 1
92 254 1
92 290 1
92 308 1
92 470 1
92 506 1
92 524 1
93 39 1
93 75 1
93 93 1
93 255 1
93 291 1
93 309 1
93 471 1
93 507 1
93 525 1
94 40 1
94 76 1
94 94 1
94 256 1
94 292 1
94 310 1
94 472 1
94 508 1
94 526 1
95 41 1
95 77 1
95 95 1
95 257 1
95 293 1
95 311 1
95 473 1
95 509 1
95 527 1
96 42 1
96 78 1
96 96 1
96 258 1
96 294 1
96 312 1
96 474 1
96 510 1
96 528 1
97 43 1
97 79 1
97 97 1
97 259 1
97 295 1
97 313 1
97 475 1
97 511 1
97 529 1
98 44 1
98 80 1
98 98 1
98 260 1
98 296 1
98 314 1
98 476 1
98 512 1
98 530 1
99 45 1
99 81 1
99 99 1
99 261 1
99 297 1
99 315 1
99 477 1
99 513 1
99 531 1
100 46 1
100 82 1
100 100 1
100 262 1
100 298 1
100 316 1
100 478 1
100 514 1
100 532 1
101 47 1
101 83 1
101 101 1
101 263 1
101 299 1
101 317 1
101 479 1
101 515 1
101 533 1
102 48 1
102 84 1
102 102 1
102 264 1
102 300 1
102 318 1
102 480 1
102 516 1
102 534 1
103 49 1
103 85 1
103 103 1
103 265 1
103 301 1
103 319 1
103 481 1
103 517 1
103 535 1
104 50 1
104 86 1
104 104 1
104 266 1
104 302 1
104 320 1
104 482 1
104 518 1
104 536 1
105 51 1
105 87 1
105 105 1
105 267 1
105 303 1
105 321 1
105 483 1
105 519 1
105 537 1
106 52 1
106 88 1
106 106 1
106 268 1
106 304 1
106 322 1
106 484 1
106 520 1
106 538 1
107 53 1
107 89 1
107 107 1
107 269 1
107 305 1
107 323 1
107 485 1
107 521 1
107 539 1
108 54 1
108 90 1
108 108 1
108 270 1
108 306 1
108 324 1
108 486 1
108 522 1
108 540 1
109 109 1
109 163 1
109 181 1
109 217 1
109 271 1
109 289 1
109 541 1
109 595 1
109 613 1
110 110 1
110 164 1
110 182 1
110 218 1
110 272 1
110 290 1
110 542 1
110 596 1
110 614 1
111 111 1
111 165 1
111 183 1
111 219 1
111 273 1
111 291 1
111 543 1
111 597 1
111 615 1
112 112 1
112 166 1
112 184 1
112 220 1
112 274 1
112 292 1
112 544 1
112 598 1
112 616 1
113 113 1
113 167 1
113 185 1
113 221 1
113 275 1
113 293 1
113 545 1
113 599 1
113 617 1
114 114 1
114 168 1
114 186 1
114 222 1
114 276 1
114 294 1
114 546 1
114 600 1
114 618 1
115 115 1
115 169 1
115 187 1
115 223 1
115 277 1
115 295 1
115 547 1
115 601 1
115 619 1
116 116 1
116 170 1
116 188 1
116 224 1
116 278 1
116 296 1
116 548 1
116 602 1
116 620 1
117 117 1
117 171 1
117 189 1
117 225 1
117 279 1
117 297 1
117 549 1
117 603 1
117 621 1
118 118 1
118 172 1
118 190 1
118 226 1
118 280 1
118 298 1
118 550 1
118 604 1
118 622 1
119 119 1
119 173 1
119 191 1
119 227 1
119 281 1
119 299 1
119 551 1
119 605 1
119 623 1
120 120 1
120 174 1
120 192 1
120 228 1
120 282 1
120 300 1
120 552 1
120 606 1
120 624 1
121 121 1
121 175 1
121 193 1
121 229 1
121 283 1
121 301 1
121 553 1
121 607 1
121 625 1
122 122 1
122 176 1
122 194 1
122 230 1
122 284 1
122 302 1
122 554 1
122 608 1
122 626 1
123 123 1
123 177 1
123 195 1
123 231 1
123 285 1
123 303 1
123 555 1
123 609 1
123 627 1
124 124 1
124 178 1
124 196 1
124 232 1
124 286 1
124 304 1
124 556 1
124 610 1
124 628 1
125 125 1
125 179 1
125 197 1
125 233 1
125 287 1
125 305 1
125 557 1
125 611 1
125 629 1
126 126 1
126 180 1
126 198 1
126 234 1
126 288 1
126 306 1
126 558 1
126 612 1
126 630 1
127 127 1
127 163 1
127 199 1
127 235 1
127 271 1
127 307 1
127 559 1
127 595 1
127 631 1
128 128 1
128 164 1
128 200 1
128 236 1
128 272 1
128 308 1
128 560 1
128 596 1
128 632 1
129 129 1
129 165 1
129 201 1
129 237 1
129 273 1
129 309 1
129 561 1
129 597 1
129 633 1
130 130 1
130 166 1
130 202 1
130 238 1
130 274 1
130 310 1
130 562 1
130 598 1
130 634 1
131 131 1
131 167 1
131 203 1
131 239 1
131 275 1
131 311 1
131 563 1
131 599 1
131 635 1
132 132 1
132 168 1
132 204 1
132 240 1
132 276 1
132 312 1
132 564 1
132 600 1
132 636 1
133 133 1
133 169 1
133 205 1
133 241 1
133 277 1
133 313 1
133 565 1
133 601 1
133 637 1
134 134 1
134 170 1
134 206 1
134 242 1
134 278 1
134 314 1
134 566 1
134 602 1
134 638 1
135 135 1
135 171 1
135 207 1
135 243 1
135 279 1
135 315 1
135 567 1
135 603 1
135 639 1
136 136 1
136 172 1
136 208 1
136 244 1
136 280 1
136 316 1
136 568 1
136 604 1
136 640 1
137 137 1
137 173 1
137 209 1
137 245 1
137 281 1
137 317 1
137 569 1
137 605 1
137 641 1
138 138 1
138 174 1
138 210 1
138 246 1
138 282 1
138 318 1
138 570 1
138 606 1
138 642 1
139 139 1
139 175 1
139 211 1
139 247 1
139 283 1
139 319 1
139 571 1
139 607 1
139 643 1
140 140 1
140 176 1
140 212 1
140 248 1
140 284 1
140 320 1
140 572 1
140 608 1
140 644 1
141 141 1
141 177 1
141 213 1
141 249 1
141 285 1
141 321 1
141 573 1
141 609 1
141 645 1
142 142 1
142 178 1
142 214 1
142 250 1
142 286 1
142 322 1
142 574 1
142 610 1
142 646 1
143 143 1
143 179 1
143 215 1
143 251 1
143 287 1
143 323 1
143 575 1
143 611 1
143 647 1
144 144 1
144 180 1
144 216 1
144 252 1
144 288 1
144 324 1
144 576 1
144 612 1
144 648 1
145 145 1
145 181 1
145 199 1
145 253 1
145 289 1
145 307 1
145 577 1
145 613 1
145 631 1
146 146 1
146 182 1
146 200 1
146 254 1
146 290 1
146 308 1
146 578 1
146 614 1
146 632 1
147 147 1
147 183 1
147 201 1
147 255 1
147 291 1
147 309 1
147 579 1
147 615 1
147 633 1
148 148 1
148 184 1
148 202 1
148 256 1
148 292 1
148 310 1
148 580 1
148 616 1
148 634 1
149 149 1
149 185 1
149 203 1
149 257 1
149 293 1
149 311 1
149 581 1
149 617 1
149 635 1
150 150 1
150 186 1
150 204 1
150 258 1
150 294 1
150 312 1
150 582 1
150 618 1
150 636 1
151 151 1
151 187 1
151 205 1
151 259 1
151 295 1
151 313 1
151 583 1
151 619 1
151 637 1
152 152 1
152 188 1
152 206 1
152 260 1
152 296 1
152 314 1
152 584 1
152 620 1
152 638 1
153 153 1
153 189 1
153 207 1
153 261 1
153 297 1
153 315 1
153 585 1
153 621 1
153 639 1
154 154 1
154 190 1
154 208 1
154 262 1
154 298 1
154 316 1
154 586 1
154 622 1
154 640 1
155 155 1
155 191 1
155 209 1
155 263 1
155 299 1
155 317 1
155 587 1
155 623 1
155 641 1
156 156 1
156 192 1
156 210 1
156 264 1
156 300 1
156 318 1
156 588 1
156 624 1
156 642 1
157 157 1
157 193 1
157 211 1
157 265 1
157 301 1
157 319 1
157 589 1
157 625 1
157 643 1
158 158 1
158 194 1
158 212 1
158 266 1
158 302 1
158 320 1
158 590 1
158 626 1
158 644 1
159 159 1
159 195 1
159 213 1
159 267 1
159 303 1
159 321 1
159 591 1
159 627 1
159 645 1
160 160 1
160 196 1
160 214 1
160 268 1
160 304 1
160 322 1
160 592 1
160 628 1
160 646 1
161 161 1
161 197 1
161 215 1
161 269 1
161 305 1
161 323 1
161 593 1
161 629 1
161 647 1
162 162 1
162 198 1
162 216 1
162 270 1
162 306 1
162 324 1
162 594 1
162 630 1
162 648 1
163 1 1
163 84 1
163 105 1
163 110 1
163 189 1
163 211 1
163 224 1
163 298 1
163 311 1
164 2 1
164 81 1
164 103 1
164 109 1
164 192 1
164 213 1
164 231 1
164 291 1
164 307 1
165 3 1
165 87 1
165 101 1
165 113 1
165 193 1
165 206 1
165 229 1
165 293 1
165 308 1
166 4 1
166 78 1
166 100 1
166 114 1
166 184 1
166 205 1
166 230 1
166 306 1
166 322 1
167 5 1
167 85 1
167 98 1
167 111 1
167 195 1
167 209 1
167 228 1
167 289 1
167 323 1
168 6 1
168 76 1
168 97 1
168 112 1
168 186 1
168 208 1
168 234 1
168 302 1
168 315 1
169 7 1
169 83 1
169 96 1
169 118 1
169 188 1
169 202 1
169 225 1
169 290 1
169 324 1
170 8 1
170 82 1
170 95 1
170 119 1
170 187 1
170 201 1
170 233 1
170 304 1
170 318 1
171 9 1
171 74 1
171 108 1
171 120 1
171 181 1
171 215 1
171 219 1
171 303 1
171 317 1
172 10 1
172 80 1
172 94 1
172 115 1
172 191 1
172 204 1
172 232 1
172 305 1
172 320 1
173 11 1
173 79 1
173 93 1
173 116 1
173 190 1
173 203 1
173 218 1
173 297 1
173 319 1
174 12 1
174 73 1
174 107 1
174 117 1
174 182 1
174 216 1
174 226 1
174 296 1
174 310 1
175 13 1
175 77 1
175 92 1
175 123 1
175 183 1
175 199 1
175 217 1
175 300 1
175 321 1
176 14 1
176 90 1
176 106 1
176 124 1
176 197 1
176 212 1
176 223 1
176 299 1
176 312 1
177 15 1
177 75 1
177 91 1
177 121 1
177 185 1
177 200 1
177 221 1
177 301 1
177 314 1
178 16 1
178 89 1
178 104 1
178 122 1
178 198 1
178 214 1
178 222 1
178 292 1
178 313 1
179 17 1
179 88 1
179 102 1
179 126 1
179 194 1
179 207 1
179 220 1
179 294 1
179 316 1
180 18 1
180 86 1
180 99 1
180 125 1
180 196 1
180 210 1
180 227 1
180 295 1
180 309 1
181 20 1
181 53 1
181 105 1
181 127 1
181 162 1
181 211 1
181 249 1
181 256 1
181 311 1
182 19 1
182 54 1
182 103 1
182 128 1
182 161 1
182 213 1
182 242 1
182 263 1
182 307 1
183 36 1
183 37 1
183 101 1
183 143 1
183 146 1
183 206 1
183 245 1
183 260 1
183 308 1
184 30 1
184 43 1
184 100 1
184 135 1
184 154 1
184 205 1
184 244 1
184 261 1
184 322 1
185 35 1
185 38 1
185 98 1
185 144 1
185 145 1
185 209 1
185 238 1
185 267 1
185 323 1
186 27 1
186 46 1
186 97 1
186 138 1
186 151 1
186 208 1
186 237 1
186 268 1
186 315 1
187 34 1
187 39 1
187 96 1
187 140 1
187 149 1
187 202 1
187 240 1
187 265 1
187 324 1
188 33 1
188 40 1
188 95 1
188 139 1
188 150 1
188 201 1
188 239 1
188 266 1
188 318 1
189 24 1
189 49 1
189 108 1
189 130 1
189 159 1
189 215 1
189 252 1
189 253 1
189 317 1
190 32 1
190 41 1
190 94 1
190 142 1
190 147 1
190 204 1
190 241 1
190 264 1
190 320 1
191 31 1
191 42 1
191 93 1
191 141 1
191 148 1
191 203 1
191 235 1
191 270 1
191 319 1
192 22 1
192 51 1
192 107 1
192 132 1
192 157 1
192 216 1
192 248 1
192 257 1
192 310 1
193 29 1
193 44 1
193 92 1
193 134 1
193 155 1
193 199 1
193 236 1
193 269 1
193 321 1
194 28 1
194 45 1
194 106 1
194 133 1
194 156 1
194 212 1
194 250 1
194 255 1
194 312 1
195 26 1
195 47 1
195 91 1
195 137 1
195 152 1
195 200 1
195 251 1
195 254 1
195 314 1
196 25 1
196 48 1
196 104 1
196 136 1
196 153 1
196 214 1
196 243 1
196 262 1
196 313 1
197 23 1
197 50 1
197 102 1
197 129 1
197 160 1
197 207 1
197 246 1
197 259 1
197 316 1
198 21 1
198 52 1
198 99 1
198 131 1
198 158 1
198 210 1
198 247 1
198 258 1
198 309 1
199 53 1
199 59 1
199 84 1
199 162 1
199 165 1
199 189 1
199 256 1
199 282 1
199 298 1
200 54 1
200 57 1
200 81 1
200 161 1
200 167 1
200 192 1
200 263 1
200 283 1
200 291 1
201 37 1
201 56 1
201 87 1
201 146 1
201 163 1
201 193 1
201 260 1
201 285 1
201 293 1
202 43 1
202 70 1
202 78 1
202 154 1
202 176 1
202 184 1
202 261 1
202 276 1
202 306 1
203 38 1
203 55 1
203 85 1
203 145 1
203 164 1
203 195 1
203 267 1
203 278 1
203 289 1
204 46 1
204 68 1
204 76 1
204 151 1
204 178 1
204 186 1
204 268 1
204 277 1
204 302 1
205 39 1
205 72 1
205 83 1
205 149 1
205 179 1
205 188 1
205 265 1
205 281 1
205 290 1
206 40 1
206 66 1
206 82 1
206 150 1
206 171 1
206 187 1
206 266 1
206 280 1
206 304 1
207 49 1
207 65 1
207 74 1
207 159 1
207 170 1
207 181 1
207 253 1
207 272 1
207 303 1
208 41 1
208 71 1
208 80 1
208 147 1
208 180 1
208 191 1
208 264 1
208 274 1
208 305 1
209 42 1
209 63 1
209 79 1
209 148 1
209 174 1
209 190 1
209 270 1
209 273 1
209 297 1
210 51 1
210 62 1
210 73 1
210 157 1
210 173 1
210 182 1
210 257 1
210 287 1
210 296 1
211 44 1
211 69 1
211 77 1
211 155 1
211 175 1
211 183 1
211 269 1
211 275 1
211 300 1
212 45 1
212 60 1
212 90 1
212 156 1
212 166 1
212 197 1
212 255 1
212 288 1
212 299 1
213 47 1
213 67 1
213 75 1
213 152 1
213 177 1
213 185 1
213 254 1
213 271 1
213 301 1
214 48 1
214 58 1
214 89 1
214 153 1
214 168 1
214 198 1
214 262 1
214 284 1
214 292 1
215 50 1
215 64 1
215 88 1
215 160 1
215 169 1
215 194 1
215 259 1
215 286 1
215 294 1
216 52 1
216 61 1
216 86 1
216 158 1
216 172 1
216 196 1
216 258 1
216 279 1
216 295 1
217 1 1
217 84 1
217 105 1
217 333 1
217 398 1
217 432 1
217 443 1
217 511 1
217 525 1
218 2 1
218 81 1
218 103 1
218 330 1
218 400 1
218 421 1
218 445 1
218 509 1
218 524 1
219 3 1
219 87 1
219 101 1
219 338 1
219 414 1
219 430 1
219 447 1
219 507 1
219 523 1
220 4 1
220 78 1
220 100 1
220 325 1
220 408 1
220 429 1
220 448 1
220 521 1
220 536 1
221 5 1
221 85 1
221 98 1
221 335 1
221 403 1
221 417 1
221 441 1
221 506 1
221 540 1
222 6 1
222 76 1
222 97 1
222 336 1
222 397 1
222 431 1
222 449 1
222 520 1
222 534 1
223 7 1
223 83 1
223 96 1
223 341 1
223 412 1
223 426 1
223 444 1
223 505 1
223 539 1
224 8 1
224 82 1
224 95 1
224 327 1
224 411 1
224 425 1
224 450 1
224 518 1
224 531 1
225 9 1
225 74 1
225 108 1
225 328 1
225 402 1
225 424 1
225 437 1
225 517 1
225 530 1
226 10 1
226 80 1
226 94 1
226 339 1
226 399 1
226 415 1
226 446 1
226 522 1
226 538 1
227 11 1
227 79 1
227 93 1
227 340 1
227 413 1
227 428 1
227 433 1
227 516 1
227 537 1
228 12 1
228 73 1
228 107 1
228 326 1
228 405 1
228 427 1
228 439 1
228 515 1
228 528 1
229 13 1
229 77 1
229 92 1
229 331 1
229 407 1
229 420 1
229 434 1
229 513 1
229 535 1
230 14 1
230 90 1
230 106 1
230 332 1
230 406 1
230 419 1
230 442 1
230 512 1
230 526 1
231 15 1
231 75 1
231 91 1
231 342 1
231 410 1
231 423 1
231 435 1
231 519 1
231 533 1
232 16 1
232 89 1
232 104 1
232 329 1
232 409 1
232 422 1
232 436 1
232 510 1
232 532 1
233 17 1
233 88 1
233 102 1
233 337 1
233 401 1
233 416 1
233 438 1
233 508 1
233 529 1
234 18 1
234 86 1
234 99 1
234 334 1
234 404 1
234 418 1
234 440 1
234 514 1
234 527 1
235 20 1
235 53 1
235 105 1
235 348 1
235 373 1
235 432 1
235 463 1
235 474 1
235 525 1
236 19 1
236 54 1
236 103 1
236 351 1
236 370 1
236 421 1
236 461 1
236 476 1
236 524 1
237 36 1
237 37 1
237 101 1
237 352 1
237 369 1
237 430 1
237 458 1
237 479 1
237 523 1
238 30 1
238 43 1
238 100 1
238 344 1
238 377 1
238 429 1
238 457 1
238 480 1
238 536 1
239 35 1
239 38 1
239 98 1
239 355 1
239 366 1
239 417 1
239 456 1
239 481 1
239 540 1
240 27 1
240 46 1
240 97 1
240 346 1
240 375 1
240 431 1
240 455 1
240 482 1
240 534 1
241 34 1
241 39 1
241 96 1
241 347 1
241 374 1
241 426 1
241 454 1
241 483 1
241 539 1
242 33 1
242 40 1
242 95 1
242 360 1
242 361 1
242 425 1
242 453 1
242 484 1
242 531 1
243 24 1
243 49 1
243 108 1
243 354 1
243 367 1
243 424 1
243 467 1
243 470 1
243 530 1
244 32 1
244 41 1
244 94 1
244 350 1
244 371 1
244 415 1
244 460 1
244 477 1
244 538 1
245 31 1
245 42 1
245 93 1
245 349 1
245 372 1
245 428 1
245 452 1
245 485 1
245 537 1
246 22 1
246 51 1
246 107 1
246 343 1
246 378 1
246 427 1
246 466 1
246 471 1
246 528 1
247 29 1
247 44 1
247 92 1
247 358 1
247 363 1
247 420 1
247 451 1
247 486 1
247 535 1
248 28 1
248 45 1
248 106 1
248 357 1
248 364 1
248 419 1
248 464 1
248 473 1
248 526 1
249 26 1
249 47 1
249 91 1
249 345 1
249 376 1
249 423 1
249 468 1
249 469 1
249 533 1
250 25 1
250 48 1
250 104 1
250 359 1
250 362 1
250 422 1
250 462 1
250 475 1
250 532 1
251 23 1
251 50 1
251 102 1
251 353 1
251 368 1
251 416 1
251 459 1
251 478 1
251 529 1
252 21 1
252 52 1
252 99 1
252 356 1
252 365 1
252 418 1
252 465 1
252 472 1
252 527 1
253 53 1
253 59 1
253 84 1
253 373 1
253 389 1
253 398 1
253 474 1
253 495 1
253 511 1
254 54 1
254 57 1
254 81 1
254 370 1
254 392 1
254 400 1
254 476 1
254 501 1
254 509 1
255 37 1
255 56 1
255 87 1
255 369 1
255 384 1
255 414 1
255 479 1
255 499 1
255 507 1
256 43 1
256 70 1
256 78 1
256 377 1
256 383 1
256 408 1
256 480 1
256 490 1
256 521 1
257 38 1
257 55 1
257 85 1
257 366 1
257 387 1
257 403 1
257 481 1
257 497 1
257 506 1
258 46 1
258 68 1
258 76 1
258 375 1
258 386 1
258 397 1
258 482 1
258 496 1
258 520 1
259 39 1
259 72 1
259 83 1
259 374 1
259 388 1
259 412 1
259 483 1
259 494 1
259 505 1
260 40 1
260 66 1
260 82 1
260 361 1
260 380 1
260 411 1
260 484 1
260 493 1
260 518 1
261 49 1
261 65 1
261 74 1
261 367 1
261 394 1
261 402 1
261 470 1
261 487 1
261 517 1
262 41 1
262 71 1
262 80 1
262 371 1
262 391 1
262 399 1
262 477 1
262 492 1
262 522 1
263 42 1
263 63 1
263 79 1
263 372 1
263 382 1
263 413 1
263 485 1
263 491 1
263 516 1
264 51 1
264 62 1
264 73 1
264 378 1
264 381 1
264 405 1
264 471 1
264 504 1
264 515 1
265 44 1
265 69 1
265 77 1
265 363 1
265 396 1
265 407 1
265 486 1
265 489 1
265 513 1
266 45 1
266 60 1
266 90 1
266 364 1
266 390 1
266 406 1
266 473 1
266 503 1
266 512 1
267 47 1
267 67 1
267 75 1
267 376 1
267 385 1
267 410 1
267 469 1
267 488 1
267 519 1
268 48 1
268 58 1
268 89 1
268 362 1
268 379 1
268 409 1
268 475 1
268 502 1
268 510 1
269 50 1
269 64 1
269 88 1
269 368 1
269 393 1
269 401 1
269 478 1
269 500 1
269 508 1
270 52 1
270 61 1
270 86 1
270 365 1
270 395 1
270 404 1
270 472 1
270 498 1
270 514 1
271 110 1
271 189 1
271 211 1
271 443 1
271 511 1
271 525 1
271 558 1
271 626 1
271 639 1
272 109 1
272 192 1
272 213 1
272 445 1
272 509 1
272 524 1
272 543 1
272 627 1
272 641 1
273 113 1
273 193 1
273 206 1
273 447 1
273 507 1
273 523 1
273 542 1
273 621 1
273 643 1
274 114 1
274 184 1
274 205 1
274 448 1
274 521 1
274 536 1
274 550 1
274 620 1
274 634 1
275 111 1
275 195 1
275 209 1
275 441 1
275 506 1
275 540 1
275 547 1
275 623 1
275 636 1
276 112 1
276 186 1
276 208 1
276 449 1
276 520 1
276 534 1
276 548 1
276 622 1
276 635 1
277 118 1
277 188 1
277 202 1
277 444 1
277 505 1
277 539 1
277 545 1
277 625 1
277 638 1
278 119 1
278 187 1
278 201 1
278 450 1
278 518 1
278 531 1
278 546 1
278 616 1
278 637 1
279 120 1
279 181 1
279 215 1
279 437 1
279 517 1
279 530 1
279 555 1
279 615 1
279 631 1
280 115 1
280 191 1
280 204 1
280 446 1
280 522 1
280 538 1
280 544 1
280 618 1
280 640 1
281 116 1
281 190 1
281 203 1
281 433 1
281 516 1
281 537 1
281 553 1
281 617 1
281 632 1
282 117 1
282 182 1
282 216 1
282 439 1
282 515 1
282 528 1
282 554 1
282 630 1
282 646 1
283 123 1
283 183 1
283 199 1
283 434 1
283 513 1
283 535 1
283 551 1
283 619 1
283 633 1
284 124 1
284 197 1
284 212 1
284 442 1
284 512 1
284 526 1
284 552 1
284 613 1
284 647 1
285 121 1
285 185 1
285 200 1
285 435 1
285 519 1
285 533 1
285 549 1
285 614 1
285 648 1
286 122 1
286 198 1
286 214 1
286 436 1
286 510 1
286 532 1
286 557 1
286 628 1
286 642 1
287 126 1
287 194 1
287 207 1
287 438 1
287 508 1
287 529 1
287 556 1
287 629 1
287 644 1
288 125 1
288 196 1
288 210 1
288 440 1
288 514 1
288 527 1
288 541 1
288 624 1
288 645 1
289 127 1
289 162 1
289 211 1
289 463 1
289 474 1
289 525 1
289 561 1
289 592 1
289 639 1
290 128 1
290 161 1
290 213 1
290 461 1
290 476 1
290 524 1
290 576 1
290 577 1
290 641 1
291 143 1
291 146 1
291 206 1
291 458 1
291 479 1
291 523 1
291 559 1
291 594 1
291 643 1
292 135 1
292 154 1
292 205 1
292 457 1
292 480 1
292 536 1
292 572 1
292 581 1
292 634 1
293 144 1
293 145 1
293 209 1
293 456 1
293 481 1
293 540 1
293 574 1
293 579 1
293 636 1
294 138 1
294 151 1
294 208 1
294 455 1
294 482 1
294 534 1
294 573 1
294 580 1
294 635 1
295 140 1
295 149 1
295 202 1
295 454 1
295 483 1
295 539 1
295 575 1
295 578 1
295 638 1
296 139 1
296 150 1
296 201 1
296 453 1
296 484 1
296 531 1
296 567 1
296 586 1
296 637 1
297 130 1
297 159 1
297 215 1
297 467 1
297 470 1
297 530 1
297 566 1
297 587 1
297 631 1
298 142 1
298 147 1
298 204 1
298 460 1
298 477 1
298 538 1
298 570 1
298 583 1
298 640 1
299 141 1
299 148 1
299 203 1
299 452 1
299 485 1
299 537 1
299 569 1
299 584 1
299 632 1
300 132 1
300 157 1
300 216 1
300 466 1
300 471 1
300 528 1
300 568 1
300 585 1
300 646 1
301 134 1
301 155 1
301 199 1
301 451 1
301 486 1
301 535 1
301 571 1
301 582 1
301 633 1
302 133 1
302 156 1
302 212 1
302 464 1
302 473 1
302 526 1
302 562 1
302 591 1
302 647 1
303 137 1
303 152 1
303 200 1
303 468 1
303 469 1
303 533 1
303 564 1
303 589 1
303 648 1
304 136 1
304 153 1
304 214 1
304 462 1
304 475 1
304 532 1
304 563 1
304 590 1
304 642 1
305 129 1
305 160 1
305 207 1
305 459 1
305 478 1
305 529 1
305 565 1
305 588 1
305 644 1
306 131 1
306 158 1
306 210 1
306 465 1
306 472 1
306 527 1
306 560 1
306 593 1
306 645 1
307 162 1
307 165 1
307 189 1
307 474 1
307 495 1
307 511 1
307 592 1
307 601 1
307 626 1
308 161 1
308 167 1
308 192 1
308 476 1
308 501 1
308 509 1
308 577 1
308 596 1
308 627 1
309 146 1
309 163 1
309 193 1
309 479 1
309 499 1
309 507 1
309 594 1
309 597 1
309 621 1
310 154 1
310 176 1
310 184 1
310 480 1
310 490 1
310 521 1
310 581 1
310 611 1
310 620 1
311 145 1
311 164 1
311 195 1
311 481 1
311 497 1
311 506 1
311 579 1
311 612 1
311 623 1
312 151 1
312 178 1
312 186 1
312 482 1
312 496 1
312 520 1
312 580 1
312 606 1
312 622 1
313 149 1
313 179 1
313 188 1
313 483 1
313 494 1
313 505 1
313 578 1
313 595 1
313 625 1
314 150 1
314 171 1
314 187 1
314 484 1
314 493 1
314 518 1
314 586 1
314 608 1
314 616 1
315 159 1
315 170 1
315 181 1
315 470 1
315 487 1
315 517 1
315 587 1
315 607 1
315 615 1
316 147 1
316 180 1
316 191 1
316 477 1
316 492 1
316 522 1
316 583 1
316 610 1
316 618 1
317 148 1
317 174 1
317 190 1
317 485 1
317 491 1
317 516 1
317 584 1
317 609 1
317 617 1
318 157 1
318 173 1
318 182 1
318 471 1
318 504 1
318 515 1
318 585 1
318 600 1
318 630 1
319 155 1
319 175 1
319 183 1
319 486 1
319 489 1
319 513 1
319 582 1
319 603 1
319 619 1
320 156 1
320 166 1
320 197 1
320 473 1
320 503 1
320 512 1
320 591 1
320 602 1
320 613 1
321 152 1
321 177 1
321 185 1
321 469 1
321 488 1
321 519 1
321 589 1
321 605 1
321 614 1
322 153 1
322 168 1
322 198 1
322 475 1
322 502 1
322 510 1
322 590 1
322 604 1
322 628 1
323 160 1
323 169 1
323 194 1
323 478 1
323 500 1
323 508 1
323 588 1
323 598 1
323 629 1
324 158 1
324 172 1
324 196 1
324 472 1
324 498 1
324 514 1
324 593 1
324 599 1
324 624 1
