%%MatrixMarket matrix coordinate integer general
192 384 3072
1 1 1
1 25 1
1 31 1
1 37 1
1 193 1
1 217 1
1 223 1
1 229 1
1 241 1
1 265 1
1 271 1
1 277 1
1 289 1
1 313 1
1 319 1
1 325 1
2 2 1
2 26 1
2 32 1
2 38 1
2 194 1
2 218 1
2 224 1
2 230 1
2 242 1
2 266 1
2 272 1
2 278 1
2 290 1
2 314 1
2 320 1
2 326 1
3 3 1
3 27 1
3 33 1
3 39 1
3 195 1
3 219 1
3 225 1
3 231 1
3 243 1
3 267 1
3 273 1
3 279 1
3 291 1
3 315 1
3 321 1
3 327 1
4 4 1
4 28 1
4 34 1
4 40 1
4 196 1
4 220 1
4 226 1
4 232 1
4 244 1
4 268 1
4 274 1
4 280 1
4 292 1
4 316 1
4 322 1
4 328 1
5 5 1
5 29 1
5 35 1
5 41 1
5 197 1
5 221 1
5 227 1
5 233 1
5 245 1
5 269 1
5 275 1
5 281 1
5 293 1
5 317 1
5 323 1
5 329 1
6 6 1
6 30 1
6 36 1
6 42 1
6 198 1
6 222 1
6 228 1
6 234 1
6 246 1
6 270 1
6 276 1
6 282 1
6 294 1
6 318 1
6 324 1
6 330 1
7 7 1
7 25 1
7 31 1
7 43 1
7 199 1
7 217 1
7 223 1
7 235 1
7 247 1
7 265 1
7 271 1
7 283 1
7 295 1
7 313 1
7 319 1
7 331 1
8 8 1
8 26 1
8 32 1
8 44 1
8 200 1
8 218 1
8 224 1
8 236 1
8 248 1
8 266 1
8 272 1
8 284 1
8 296 1
8 314 1
8 320 1
8 332 1
9 9 1
9 27 1
9 33 1
9 45 1
9 201 1
9 219 1
9 225 1
9 237 1
9 249 1
9 267 1
9 273 1
9 285 1
9 297 1
9 315 1
9 321 1
9 333 1
10 10 1
10 28 1
10 34 1
10 46 1
10 202 1
10 220 1
10 226 1
10 238 1
10 250 1
10 268 1
10 274 1
10 286 1
10 298 1
10 316 1
10 322 1
10 334 1
11 11 1
11 29 1
11 35 1
11 47 1
11 203 1
11 221 1
11 227 1
11 239 1
11 251 1
11 269 1
11 275 1
11 287 1
11 299 1
11 317 1
11 323 1
11 335 1
12 12 1
12 30 1
12 36 1
12 48 1
12 204 1
12 222 1
12 228 1
12 240 1
12 252 1
12 270 1
12 276 1
12 288 1
12 300 1
12 318 1
12 324 1
12 336 1
13 13 1
13 25 1
13 37 1
13 43 1
13 205 1
13 217 1
13 229 1
13 235 1
13 253 1
13 265 1
13 277 1
13 283 1
13 301 1
13 313 1
13 325 1
13 331 1
14 14 1
14 26 1
14 38 1
14 44 1
14 206 1
14 218 1
14 230 1
14 236 1
14 254 1
14 266 1
14 278 1
14 284 1
14 302 1
14 314 1
14 326 1
14 332 1
15 15 1
15 27 1
15 39 1
15 45 1
15 207 1
15 219 1
15 231 1
15 237 1
15 255 1
15 267 1
15 279 1
15 285 1
15 303 1
15 315 1
15 327 1
15 333 1
16 16 1
16 28 1
16 40 1
16 46 1
16 208 1
16 220 1
16 232 1
16 238 1
16 256 1
16 268 1
16 280 1
16 286 1
16 304 1
16 316 1
16 328 1
16 334 1
17 17 1
17 29 1
17 41 1
17 47 1
17 209 1
17 221 1
17 233 1
17 239 1
17 257 1
17 269 1
17 281 1
17 287 1
17 305 1
17 317 1
17 329 1
17 335 1
18 18 1
18 30 1
18 42 1
18 48 1
18 210 1
18 222 1
18 234 1
18 240 1
18 258 1
18 270 1
18 282 1
18 288 1
18 306 1
18 318 1
18 330 1
18 336 1
19 19 1
19 31 1
19 37 1
19 43 1
19 211 1
19 223 1
19 229 1
19 235 1
19 259 1
19 271 1
19 277 1
19 283 1
19 307 1
19 319 1
19 325 1
19 331 1
20 20 1
20 32 1
20 38 1
20 44 1
20 212 1
20 224 1
20 230 1
20 236 1
20 260 1
20 272 1
20 278 1
20 284 1
20 308 1
20 320 1
20 326 1
20 332 1
21 21 1
21 33 1
21 39 1
21 45 1
21 213 1
21 225 1
21 231 1
21 237 1
21 261 1
21 273 1
21 279 1
21 285 1
21 309 1
21 321 1
21 327 1
21 333 1
22 22 1
22 34 1
22 40 1
22 46 1
22 214 1
22 226 1
22 232 1
22 238 1
22 262 1
22 274 1
22 280 1
22 286 1
22 310 1
22 322 1
22 328 1
22 334 1
23 23 1
23 35 1
23 41 1
23 47 1
23 215 1
23 227 1
23 233 1
23 239 1
23 263 1
23 275 1
23 281 1
23 287 1
23 311 1
23 323 1
23 329 1
23 335 1
24 24 1
24 36 1
24 42 1
24 48 1
24 216 1
24 228 1
24 234 1
24 240 1
24 264 1
24 276 1
24 282 1
24 288 1
24 312 1
24 324 1
24 330 1
24 336 1
25 49 1
25 73 1
25 79 1
25 85 1
25 193 1
25 217 1
25 223 1
25 229 1
25 241 1
25 265 1
25 271 1
25 277 1
25 337 1
25 361 1
25 367 1
25 373 1
26 50 1
26 74 1
26 80 1
26 86 1
26 194 1
26 218 1
26 224 1
26 230 1
26 242 1
26 266 1
26 272 1
26 278 1
26 338 1
26 362 1
26 368 1
26 374 1
27 51 1
27 75 1
27 81 1
27 87 1
27 195 1
27 219 1
27 225 1
27 231 1
27 243 1
27 267 1
27 273 1
27 279 1
27 339 1
27 363 1
27 369 1
27 375 1
28 52 1
28 76 1
28 82 1
28 88 1
28 196 1
28 220 1
28 226 1
28 232 1
28 244 1
28 268 1
28 274 1
28 280 1
28 340 1
28 364 1
28 370 1
28 376 1
29 53 1
29 77 1
29 83 1
29 89 1
29 197 1
29 221 1
29 227 1
29 233 1
29 245 1
29 269 1
29 275 1
29 281 1
29 341 1
29 365 1
29 371 1
29 377 1
30 54 1
30 78 1
30 84 1
30 90 1
30 198 1
30 222 1
30 228 1
30 234 1
30 246 1
30 270 1
30 276 1
30 282 1
30 342 1
30 366 1
30 372 1
30 378 1
31 55 1
31 73 1
31 79 1
31 91 1
31 199 1
31 217 1
31 223 1
31 235 1
31 247 1
31 265 1
31 271 1
31 283 1
31 343 1
31 361 1
31 367 1
31 379 1
32 56 1
32 74 1
32 80 1
32 92 1
32 200 1
32 218 1
32 224 1
32 236 1
32 248 1
32 266 1
32 272 1
32 284 1
32 344 1
32 362 1
32 368 1
32 380 1
33 57 1
33 75 1
33 81 1
33 93 1
33 201 1
33 219 1
33 225 1
33 237 1
33 249 1
33 267 1
33 273 1
33 285 1
33 345 1
33 363 1
33 369 1
33 381 1
34 58 1
34 76 1
34 82 1
34 94 1
34 202 1
34 220 1
34 226 1
34 238 1
34 250 1
34 268 1
34 274 1
34 286 1
34 346 1
34 364 1
34 370 1
34 382 1
35 59 1
35 77 1
35 83 1
35 95 1
35 203 1
35 221 1
35 227 1
35 239 1
35 251 1
35 269 1
35 275 1
35 287 1
35 347 1
35 365 1
35 371 1
35 383 1
36 60 1
36 78 1
36 84 1
36 96 1
36 204 1
36 222 1
36 228 1
36 240 1
36 252 1
36 270 1
36 276 1
36 288 1
36 348 1
36 366 1
36 372 1
36 384 1
37 61 1
37 73 1
37 85 1
37 91 1
37 205 1
37 217 1
37 229 1
37 235 1
37 253 1
37 265 1
37 277 1
37 283 1
37 349 1
37 361 1
37 373 1
37 379 1
38 62 1
38 74 1
38 86 1
38 92 1
38 206 1
38 218 1
38 230 1
38 236 1
38 254 1
38 266 1
38 278 1
38 284 1
38 350 1
38 362 1
38 374 1
38 380 1
39 63 1
39 75 1
39 87 1
39 93 1
39 207 1
39 219 1
39 231 1
39 237 1
39 255 1
39 267 1
39 279 1
39 285 1
39 351 1
39 363 1
39 375 1
39 381 1
40 64 1
40 76 1
40 88 1
40 94 1
40 208 1
40 220 1
40 232 1
40 238 1
40 256 1
40 268 1
40 280 1
40 286 1
40 352 1
40 364 1
40 376 1
40 382 1
41 65 1
41 77 1
41 89 1
41 95 1
41 209 1
41 221 1
41 233 1
41 239 1
41 257 1
41 269 1
41 281 1
41 287 1
41 353 1
41 365 1
41 377 1
41 383 1
42 66 1
42 78 1
42 90 1
42 96 1
42 210 1
42 222 1
42 234 1
42 240 1
42 258 1
42 270 1
42 282 1
42 288 1
42 354 1
42 366 1
42 378 1
42 384 1
43 67 1
43 79 1
43 85 1
43 91 1
43 211 1
43 223 1
43 229 1
43 235 1
43 259 1
43 271 1
43 277 1
43 283 1
43 355 1
43 367 1
43 373 1
43 379 1
44 68 1
44 80 1
44 86 1
44 92 1
44 212 1
44 224 1
44 230 1
44 236 1
44 260 1
44 272 1
44 278 1
44 284 1
44 356 1
44 368 1
44 374 1
44 380 1
45 69 1
45 81 1
45 87 1
45 93 1
45 213 1
45 225 1
45 231 1
45 237 1
45 261 1
45 273 1
45 279 1
45 285 1
45 357 1
45 369 1
45 375 1
45 381 1
46 70 1
46 82 1
46 88 1
46 94 1
46 214 1
46 226 1
46 232 1
46 238 1
46 262 1
46 274 1
46 280 1
46 286 1
46 358 1
46 370 1
46 376 1
46 382 1
47 71 1
47 83 1
47 89 1
47 95 1
47 215 1
47 227 1
47 233 1
47 239 1
47 263 1
47 275 1
47 281 1
47 287 1
47 359 1
47 371 1
47 377 1
47 383 1
48 72 1
48 84 1
48 90 1
48 96 1
48 216 1
48 228 1
48 234 1
48 240 1
48 264 1
48 276 1
48 282 1
48 288 1
48 360 1
48 372 1
48 378 1
48 384 1
49 97 1
49 121 1
49 127 1
49 133 1
49 193 1
49 217 1
49 223 1
49 229 1
49 289 1
49 313 1
49 319 1
49 325 1
49 337 1
49 361 1
49 367 1
49 373 1
50 98 1
50 122 1
50 128 1
50 134 1
50 194 1
50 218 1
50 224 1
50 230 1
50 290 1
50 314 1
50 320 1
50 326 1
50 338 1
50 362 1
50 368 1
50 374 1
51 99 1
51 123 1
51 129 1
51 135 1
51 195 1
51 219 1
51 225 1
51 231 1
51 291 1
51 315 1
51 321 1
51 327 1
51 339 1
51 363 1
51 369 1
51 375 1
52 100 1
52 124 1
52 130 1
52 136 1
52 196 1
52 220 1
52 226 1
52 232 1
52 292 1
52 316 1
52 322 1
52 328 1
52 340 1
52 364 1
52 370 1
52 376 1
53 101 1
53 125 1
53 131 1
53 137 1
53 197 1
53 221 1
53 227 1
53 233 1
53 293 1
53 317 1
53 323 1
53 329 1
53 341 1
53 365 1
53 371 1
53 377 1
54 102 1
54 126 1
54 132 1
54 138 1
54 198 1
54 222 1
54 228 1
54 234 1
54 294 1
54 318 1
54 324 1
54 330 1
54 342 1
54 366 1
54 372 1
54 378 1
55 103 1
55 121 1
55 127 1
55 139 1
55 199 1
55 217 1
55 223 1
55 235 1
55 295 1
55 313 1
55 319 1
55 331 1
55 343 1
55 361 1
55 367 1
55 379 1
56 104 1
56 122 1
56 128 1
56 140 1
56 200 1
56 218 1
56 224 1
56 236 1
56 296 1
56 314 1
56 320 1
56 332 1
56 344 1
56 362 1
56 368 1
56 380 1
57 105 1
57 123 1
57 129 1
57 141 1
57 201 1
57 219 1
57 225 1
57 237 1
57 297 1
57 315 1
57 321 1
57 333 1
57 345 1
57 363 1
57 369 1
57 381 1
58 106 1
58 124 1
58 130 1
58 142 1
58 202 1
58 220 1
58 226 1
58 238 1
58 298 1
58 316 1
58 322 1
58 334 1
58 346 1
58 364 1
58 370 1
58 382 1
59 107 1
59 125 1
59 131 1
59 143 1
59 203 1
59 221 1
59 227 1
59 239 1
59 299 1
59 317 1
59 323 1
59 335 1
59 347 1
59 365 1
59 371 1
59 383 1
60 108 1
60 126 1
60 132 1
60 144 1
60 204 1
60 222 1
60 228 1
60 240 1
60 300 1
60 318 1
60 324 1
60 336 1
60 348 1
60 366 1
60 372 1
60 384 1
61 109 1
61 121 1
61 133 1
61 139 1
61 205 1
61 217 1
61 229 1
61 235 1
61 301 1
61 313 1
61 325 1
61 331 1
61 349 1
61 361 1
61 373 1
61 379 1
62 110 1
62 122 1
62 134 1
62 140 1
62 206 1
62 218 1
62 230 1
62 236 1
62 302 1
62 314 1
62 326 1
62 332 1
62 350 1
62 362 1
62 374 1
62 380 1
63 111 1
63 123 1
63 135 1
63 141 1
63 207 1
63 219 1
63 231 1
63 237 1
63 303 1
63 315 1
63 327 1
63 333 1
63 351 1
63 363 1
63 375 1
63 381 1
64 112 1
64 124 1
64 136 1
64 142 1
64 208 1
64 220 1
64 232 1
64 238 1
64 304 1
64 316 1
64 328 1
64 334 1
64 352 1
64 364 1
64 376 1
64 382 1
65 113 1
65 125 1
65 137 1
65 143 1
65 209 1
65 221 1
65 233 1
65 239 1
65 305 1
65 317 1
65 329 1
65 335 1
65 353 1
65 365 1
65 377 1
65 383 1
66 114 1
66 126 1
66 138 1
66 144 1
66 210 1
66 222 1
66 234 1
66 240 1
66 306 1
66 318 1
66 330 1
66 336 1
66 354 1
66 366 1
66 378 1
66 384 1
67 115 1
67 127 1
67 133 1
67 139 1
67 211 1
67 223 1
67 229 1
67 235 1
67 307 1
67 319 1
67 325 1
67 331 1
67 355 1
67 367 1
67 373 1
67 379 1
68 116 1
68 128 1
68 134 1
68 140 1
68 212 1
68 224 1
68 230 1
68 236 1
68 308 1
68 320 1
68 326 1
68 332 1
68 356 1
68 368 1
68 374 1
68 380 1
69 117 1
69 129 1
69 135 1
69 141 1
69 213 1
69 225 1
69 231 1
69 237 1
69 309 1
69 321 1
69 327 1
69 333 1
69 357 1
69 369 1
69 375 1
69 381 1
70 118 1
70 130 1
70 136 1
70 142 1
70 214 1
70 226 1
70 232 1
70 238 1
70 310 1
70 322 1
70 328 1
70 334 1
70 358 1
70 370 1
70 376 1
70 382 1
71 119 1
71 131 1
71 137 1
71 143 1
71 215 1
71 227 1
71 233 1
71 239 1
71 311 1
71 323 1
71 329 1
71 335 1
71 359 1
71 371 1
71 377 1
71 383 1
72 120 1
72 132 1
72 138 1
72 144 1
72 216 1
72 228 1
72 234 1
72 240 1
72 312 1
72 324 1
72 330 1
72 336 1
72 360 1
72 372 1
72 378 1
72 384 1
73 145 1
73 169 1
73 175 1
73 181 1
73 241 1
73 265 1
73 271 1
73 277 1
73 289 1
73 313 1
73 319 1
73 325 1
73 337 1
73 361 1
73 367 1
73 373 1
74 146 1
74 170 1
74 176 1
74 182 1
74 242 1
74 266 1
74 272 1
74 278 1
74 290 1
74 314 1
74 320 1
74 326 1
74 338 1
74 362 1
74 368 1
74 374 1
75 147 1
75 171 1
75 177 1
75 183 1
75 243 1
75 267 1
75 273 1
75 279 1
75 291 1
75 315 1
75 321 1
75 327 1
75 339 1
75 363 1
75 369 1
75 375 1
76 148 1
76 172 1
76 178 1
76 184 1
76 244 1
76 268 1
76 274 1
76 280 1
76 292 1
76 316 1
76 322 1
76 328 1
76 340 1
76 364 1
76 370 1
76 376 1
77 149 1
77 173 1
77 179 1
77 185 1
77 245 1
77 269 1
77 275 1
77 281 1
77 293 1
77 317 1
77 323 1
77 329 1
77 341 1
77 365 1
77 371 1
77 377 1
78 150 1
78 174 1
78 180 1
78 186 1
78 246 1
78 270 1
78 276 1
78 282 1
78 294 1
78 318 1
78 324 1
78 330 1
78 342 1
78 366 1
78 372 1
78 378 1
79 151 1
79 169 1
79 175 1
79 187 1
79 247 1
79 265 1
79 271 1
79 283 1
79 295 1
79 313 1
79 319 1
79 331 1
79 343 1
79 361 1
79 367 1
79 379 1
80 152 1
80 170 1
80 176 1
80 188 1
80 248 1
80 266 1
80 272 1
80 284 1
80 296 1
80 314 1
80 320 1
80 332 1
80 344 1
80 362 1
80 368 1
80 380 1
81 153 1
81 171 1
81 177 1
81 189 1
81 249 1
81 267 1
81 273 1
81 285 1
81 297 1
81 315 1
81 321 1
81 333 1
81 345 1
81 363 1
81 369 1
81 381 1
82 154 1
82 172 1
82 178 1
82 190 1
82 250 1
82 268 1
82 274 1
82 286 1
82 298 1
82 316 1
82 322 1
82 334 1
82 346 1
82 364 1
82 370 1
82 382 1
83 155 1
83 173 1
83 179 1
83 191 1
83 251 1
83 269 1
83 275 1
83 287 1
83 299 1
83 317 1
83 323 1
83 335 1
83 347 1
83 365 1
83 371 1
83 383 1
84 156 1
84 174 1
84 180 1
84 192 1
84 252 1
84 270 1
84 276 1
84 288 1
84 300 1
84 318 1
84 324 1
84 336 1
84 348 1
84 366 1
84 372 1
84 384 1
85 157 1
85 169 1
85 181 1
85 187 1
85 253 1
85 265 1
85 277 1
85 283 1
85 301 1
85 313 1
85 325 1
85 331 1
85 349 1
85 361 1
85 373 1
85 379 1
86 158 1
86 170 1
86 182 1
86 188 1
86 254 1
86 266 1
86 278 1
86 284 1
86 302 1
86 314 1
86 326 1
86 332 1
86 350 1
86 362 1
86 374 1
86 380 1
87 159 1
87 171 1
87 183 1
87 189 1
87 255 1
87 267 1
87 279 1
87 285 1
87 303 1
87 315 1
87 327 1
87 333 1
87 351 1
87 363 1
87 375 1
87 381 1
88 160 1
88 172 1
88 184 1
88 190 1
88 256 1
88 268 1
88 280 1
88 286 1
88 304 1
88 316 1
88 328 1
88 334 1
88 352 1
88 364 1
88 376 1
88 382 1
89 161 1
89 173 1
89 185 1
89 191 1
89 257 1
89 269 1
89 281 1
89 287 1
89 305 1
89 317 1
89 329 1
89 335 1
89 353 1
89 365 1
89 377 1
89 383 1
90 162 1
90 174 1
90 186 1
90 192 1
90 258 1
90 270 1
90 282 1
90 288 1
90 306 1
90 318 1
90 330 1
90 336 1
90 354 1
90 366 1
90 378 1
90 384 1
91 163 1
91 175 1
91 181 1
91 187 1
91 259 1
91 271 1
91 277 1
91 283 1
91 307 1
91 319 1
91 325 1
91 331 1
91 355 1
91 367 1
91 373 1
91 379 1
92 164 1
92 176 1
92 182 1
92 188 1
92 260 1
92 272 1
92 278 1
92 284 1
92 308 1
92 320 1
92 326 1
92 332 1
92 356 1
92 368 1
92 374 1
92 380 1
93 165 1
93 177 1
93 183 1
93 189 1
93 261 1
93 273 1
93 279 1
93 285 1
93 309 1
93 321 1
93 327 1
93 333 1
93 357 1
93 369 1
93 375 1
93 381 1
94 166 1
94 178 1
94 184 1
94 190 1
94 262 1
94 274 1
94 280 1
94 286 1
94 310 1
94 322 1
94 328 1
94 334 1
94 358 1
94 370 1
94 376 1
94 382 1
95 167 1
95 179 1
95 185 1
95 191 1
95 263 1
95 275 1
95 281 1
95 287 1
95 311 1
95 323 1
95 329 1
95 335 1
95 359 1
95 371 1
95 377 1
95 383 1
96 168 1
96 180 1
96 186 1
96 192 1
96 264 1
96 276 1
96 282 1
96 288 1
96 312 1
96 324 1
96 330 1
96 336 1
96 360 1
96 372 1
96 378 1
96 384 1
97 1 1
97 29 1
97 34 1
97 48 1
97 193 1
97 221 1
97 226 1
97 240 1
97 242 1
97 270 1
97 273 1
97 287 1
97 339 1
97 361 1
97 368 1
97 382 1
98 2 1
98 30 1
98 33 1
98 47 1
98 194 1
98 222 1
98 225 1
98 239 1
98 241 1
98 269 1
98 274 1
98 288 1
98 342 1
98 364 1
98 371 1
98 379 1
99 3 1
99 25 1
99 32 1
99 46 1
99 195 1
99 217 1
99 224 1
99 238 1
99 244 1
99 266 1
99 271 1
99 285 1
99 341 1
99 363 1
99 372 1
99 380 1
100 4 1
100 26 1
100 31 1
100 45 1
100 196 1
100 218 1
100 223 1
100 237 1
100 243 1
100 265 1
100 272 1
100 286 1
100 338 1
100 366 1
100 369 1
100 383 1
101 5 1
101 27 1
101 36 1
101 44 1
101 197 1
101 219 1
101 228 1
101 236 1
101 246 1
101 268 1
101 275 1
101 283 1
101 337 1
101 365 1
101 370 1
101 384 1
102 6 1
102 28 1
102 35 1
102 43 1
102 198 1
102 220 1
102 227 1
102 235 1
102 245 1
102 267 1
102 276 1
102 284 1
102 340 1
102 362 1
102 367 1
102 381 1
103 8 1
103 29 1
103 42 1
103 48 1
103 200 1
103 221 1
103 234 1
103 240 1
103 247 1
103 270 1
103 281 1
103 287 1
103 348 1
103 361 1
103 376 1
103 382 1
104 7 1
104 30 1
104 41 1
104 47 1
104 199 1
104 222 1
104 233 1
104 239 1
104 248 1
104 269 1
104 282 1
104 288 1
104 345 1
104 364 1
104 373 1
104 379 1
105 12 1
105 25 1
105 40 1
105 46 1
105 204 1
105 217 1
105 232 1
105 238 1
105 251 1
105 266 1
105 279 1
105 285 1
105 346 1
105 363 1
105 374 1
105 380 1
106 11 1
106 26 1
106 39 1
106 45 1
106 203 1
106 218 1
106 231 1
106 237 1
106 252 1
106 265 1
106 280 1
106 286 1
106 343 1
106 366 1
106 377 1
106 383 1
107 10 1
107 27 1
107 38 1
107 44 1
107 202 1
107 219 1
107 230 1
107 236 1
107 249 1
107 268 1
107 277 1
107 283 1
107 344 1
107 365 1
107 378 1
107 384 1
108 9 1
108 28 1
108 37 1
108 43 1
108 201 1
108 220 1
108 229 1
108 235 1
108 250 1
108 267 1
108 278 1
108 284 1
108 347 1
108 362 1
108 375 1
108 381 1
109 14 1
109 34 1
109 42 1
109 48 1
109 206 1
109 226 1
109 234 1
109 240 1
109 253 1
109 273 1
109 281 1
109 287 1
109 354 1
109 368 1
109 376 1
109 382 1
110 13 1
110 33 1
110 41 1
110 47 1
110 205 1
110 225 1
110 233 1
110 239 1
110 254 1
110 274 1
110 282 1
110 288 1
110 351 1
110 371 1
110 373 1
110 379 1
111 18 1
111 32 1
111 40 1
111 46 1
111 210 1
111 224 1
111 232 1
111 238 1
111 257 1
111 271 1
111 279 1
111 285 1
111 352 1
111 372 1
111 374 1
111 380 1
112 17 1
112 31 1
112 39 1
112 45 1
112 209 1
112 223 1
112 231 1
112 237 1
112 258 1
112 272 1
112 280 1
112 286 1
112 349 1
112 369 1
112 377 1
112 383 1
113 16 1
113 36 1
113 38 1
113 44 1
113 208 1
113 228 1
113 230 1
113 236 1
113 255 1
113 275 1
113 277 1
113 283 1
113 350 1
113 370 1
113 378 1
113 384 1
114 15 1
114 35 1
114 37 1
114 43 1
114 207 1
114 227 1
114 229 1
114 235 1
114 256 1
114 276 1
114 278 1
114 284 1
114 353 1
114 367 1
114 375 1
114 381 1
115 23 1
115 29 1
115 34 1
115 42 1
115 215 1
115 221 1
115 226 1
115 234 1
115 264 1
115 270 1
115 273 1
115 281 1
115 355 1
115 361 1
115 368 1
115 376 1
116 24 1
116 30 1
116 33 1
116 41 1
116 216 1
116 222 1
116 225 1
116 233 1
116 263 1
116 269 1
116 274 1
116 282 1
116 358 1
116 364 1
116 371 1
116 373 1
117 19 1
117 25 1
117 32 1
117 40 1
117 211 1
117 217 1
117 224 1
117 232 1
117 260 1
117 266 1
117 271 1
117 279 1
117 357 1
117 363 1
117 372 1
117 374 1
118 20 1
118 26 1
118 31 1
118 39 1
118 212 1
118 218 1
118 223 1
118 231 1
118 259 1
118 265 1
118 272 1
118 280 1
118 360 1
118 366 1
118 369 1
118 377 1
119 21 1
119 27 1
119 36 1
119 38 1
119 213 1
119 219 1
119 228 1
119 230 1
119 262 1
119 268 1
119 275 1
119 277 1
119 359 1
119 365 1
119 370 1
119 378 1
120 22 1
120 28 1
120 35 1
120 37 1
120 214 1
120 220 1
120 227 1
120 229 1
120 261 1
120 267 1
120 276 1
120 278 1
120 356 1
120 362 1
120 367 1
120 375 1
121 49 1
121 77 1
121 82 1
121 96 1
121 193 1
121 221 1
121 226 1
121 240 1
121 291 1
121 313 1
121 320 1
121 334 1
121 339 1
121 361 1
121 368 1
121 382 1
122 50 1
122 78 1
122 81 1
122 95 1
122 194 1
122 222 1
122 225 1
122 239 1
122 294 1
122 316 1
122 323 1
122 331 1
122 342 1
122 364 1
122 371 1
122 379 1
123 51 1
123 73 1
123 80 1
123 94 1
123 195 1
123 217 1
123 224 1
123 238 1
123 293 1
123 315 1
123 324 1
123 332 1
123 341 1
123 363 1
123 372 1
123 380 1
124 52 1
124 74 1
124 79 1
124 93 1
124 196 1
124 218 1
124 223 1
124 237 1
124 290 1
124 318 1
124 321 1
124 335 1
124 338 1
124 366 1
124 369 1
124 383 1
125 53 1
125 75 1
125 84 1
125 92 1
125 197 1
125 219 1
125 228 1
125 236 1
125 289 1
125 317 1
125 322 1
125 336 1
125 337 1
125 365 1
125 370 1
125 384 1
126 54 1
126 76 1
126 83 1
126 91 1
126 198 1
126 220 1
126 227 1
126 235 1
126 292 1
126 314 1
126 319 1
126 333 1
126 340 1
126 362 1
126 367 1
126 381 1
127 56 1
127 77 1
127 90 1
127 96 1
127 200 1
127 221 1
127 234 1
127 240 1
127 300 1
127 313 1
127 328 1
127 334 1
127 348 1
127 361 1
127 376 1
127 382 1
128 55 1
128 78 1
128 89 1
128 95 1
128 199 1
128 222 1
128 233 1
128 239 1
128 297 1
128 316 1
128 325 1
128 331 1
128 345 1
128 364 1
128 373 1
128 379 1
129 60 1
129 73 1
129 88 1
129 94 1
129 204 1
129 217 1
129 232 1
129 238 1
129 298 1
129 315 1
129 326 1
129 332 1
129 346 1
129 363 1
129 374 1
129 380 1
130 59 1
130 74 1
130 87 1
130 93 1
130 203 1
130 218 1
130 231 1
130 237 1
130 295 1
130 318 1
130 329 1
130 335 1
130 343 1
130 366 1
130 377 1
130 383 1
131 58 1
131 75 1
131 86 1
131 92 1
131 202 1
131 219 1
131 230 1
131 236 1
131 296 1
131 317 1
131 330 1
131 336 1
131 344 1
131 365 1
131 378 1
131 384 1
132 57 1
132 76 1
132 85 1
132 91 1
132 201 1
132 220 1
132 229 1
132 235 1
132 299 1
132 314 1
132 327 1
132 333 1
132 347 1
132 362 1
132 375 1
132 381 1
133 62 1
133 82 1
133 90 1
133 96 1
133 206 1
133 226 1
133 234 1
133 240 1
133 306 1
133 320 1
133 328 1
133 334 1
133 354 1
133 368 1
133 376 1
133 382 1
134 61 1
134 81 1
134 89 1
134 95 1
134 205 1
134 225 1
134 233 1
134 239 1
134 303 1
134 323 1
134 325 1
134 331 1
134 351 1
134 371 1
134 373 1
134 379 1
135 66 1
135 80 1
135 88 1
135 94 1
135 210 1
135 224 1
135 232 1
135 238 1
135 304 1
135 324 1
135 326 1
135 332 1
135 352 1
135 372 1
135 374 1
135 380 1
136 65 1
136 79 1
136 87 1
136 93 1
136 209 1
136 223 1
136 231 1
136 237 1
136 301 1
136 321 1
136 329 1
136 335 1
136 349 1
136 369 1
136 377 1
136 383 1
137 64 1
137 84 1
137 86 1
137 92 1
137 208 1
137 228 1
137 230 1
137 236 1
137 302 1
137 322 1
137 330 1
137 336 1
137 350 1
137 370 1
137 378 1
137 384 1
138 63 1
138 83 1
138 85 1
138 91 1
138 207 1
138 227 1
138 229 1
138 235 1
138 305 1
138 319 1
138 327 1
138 333 1
138 353 1
138 367 1
138 375 1
138 381 1
139 71 1
139 77 1
139 82 1
139 90 1
139 215 1
139 221 1
139 226 1
139 234 1
139 307 1
139 313 1
139 320 1
139 328 1
139 355 1
139 361 1
139 368 1
139 376 1
140 72 1
140 78 1
140 81 1
140 89 1
140 216 1
140 222 1
140 225 1
140 233 1
140 310 1
140 316 1
140 323 1
140 325 1
140 358 1
140 364 1
140 371 1
140 373 1
141 67 1
141 73 1
141 80 1
141 88 1
141 211 1
141 217 1
141 224 1
141 232 1
141 309 1
141 315 1
141 324 1
141 326 1
141 357 1
141 363 1
141 372 1
141 374 1
142 68 1
142 74 1
142 79 1
142 87 1
142 212 1
142 218 1
142 223 1
142 231 1
142 312 1
142 318 1
142 321 1
142 329 1
142 360 1
142 366 1
142 369 1
142 377 1
143 69 1
143 75 1
143 84 1
143 86 1
143 213 1
143 219 1
143 228 1
143 230 1
143 311 1
143 317 1
143 322 1
143 330 1
143 359 1
143 365 1
143 370 1
143 378 1
144 70 1
144 76 1
144 83 1
144 85 1
144 214 1
144 220 1
144 227 1
144 229 1
144 308 1
144 314 1
144 319 1
144 327 1
144 356 1
144 362 1
144 367 1
144 375 1
145 97 1
145 125 1
145 130 1
145 144 1
145 242 1
145 270 1
145 273 1
145 287 1
145 291 1
145 313 1
145 320 1
145 334 1
145 339 1
145 361 1
145 368 1
145 382 1
146 98 1
146 126 1
146 129 1
146 143 1
146 241 1
146 269 1
146 274 1
146 288 1
146 294 1
146 316 1
146 323 1
146 331 1
146 342 1
146 364 1
146 371 1
146 379 1
147 99 1
147 121 1
147 128 1
147 142 1
147 244 1
147 266 1
147 271 1
147 285 1
147 293 1
147 315 1
147 324 1
147 332 1
147 341 1
147 363 1
147 372 1
147 380 1
148 100 1
148 122 1
148 127 1
148 141 1
148 243 1
148 265 1
148 272 1
148 286 1
148 290 1
148 318 1
148 321 1
148 335 1
148 338 1
148 366 1
148 369 1
148 383 1
149 101 1
149 123 1
149 132 1
149 140 1
149 246 1
149 268 1
149 275 1
149 283 1
149 289 1
149 317 1
149 322 1
149 336 1
149 337 1
149 365 1
149 370 1
149 384 1
150 102 1
150 124 1
150 131 1
150 139 1
150 245 1
150 267 1
150 276 1
150 284 1
150 292 1
150 314 1
150 319 1
150 333 1
150 340 1
150 362 1
150 367 1
150 381 1
151 104 1
151 125 1
151 138 1
151 144 1
151 247 1
151 270 1
151 281 1
151 287 1
151 300 1
151 313 1
151 328 1
151 334 1
151 348 1
151 361 1
151 376 1
151 382 1
152 103 1
152 126 1
152 137 1
152 143 1
152 248 1
152 269 1
152 282 1
152 288 1
152 297 1
152 316 1
152 325 1
152 331 1
152 345 1
152 364 1
152 373 1
152 379 1
153 108 1
153 121 1
153 136 1
153 142 1
153 251 1
153 266 1
153 279 1
153 285 1
153 298 1
153 315 1
153 326 1
153 332 1
153 346 1
153 363 1
153 374 1
153 380 1
154 107 1
154 122 1
154 135 1
154 141 1
154 252 1
154 265 1
154 280 1
154 286 1
154 295 1
154 318 1
154 329 1
154 335 1
154 343 1
154 366 1
154 377 1
154 383 1
155 106 1
155 123 1
155 134 1
155 140 1
155 249 1
155 268 1
155 277 1
155 283 1
155 296 1
155 317 1
155 330 1
155 336 1
155 344 1
155 365 1
155 378 1
155 384 1
156 105 1
156 124 1
156 133 1
156 139 1
156 250 1
156 267 1
156 278 1
156 284 1
156 299 1
156 314 1
156 327 1
156 333 1
156 347 1
156 362 1
156 375 1
156 381 1
157 110 1
157 130 1
157 138 1
157 144 1
157 253 1
157 273 1
157 281 1
157 287 1
157 306 1
157 320 1
157 328 1
157 334 1
157 354 1
157 368 1
157 376 1
157 382 1
158 109 1
158 129 1
158 137 1
158 143 1
158 254 1
158 274 1
158 282 1
158 288 1
158 303 1
158 323 1
158 325 1
158 331 1
158 351 1
158 371 1
158 373 1
158 379 1
159 114 1
159 128 1
159 136 1
159 142 1
159 257 1
159 271 1
159 279 1
159 285 1
159 304 1
159 324 1
159 326 1
159 332 1
159 352 1
159 372 1
159 374 1
159 380 1
160 113 1
160 127 1
160 135 1
160 141 1
160 258 1
160 272 1
160 280 1
160 286 1
160 301 1
160 321 1
160 329 1
160 335 1
160 349 1
160 369 1
160 377 1
160 383 1
161 112 1
161 132 1
161 134 1
161 140 1
161 255 1
161 275 1
161 277 1
161 283 1
161 302 1
161 322 1
161 330 1
161 336 1
161 350 1
161 370 1
161 378 1
161 384 1
162 111 1
162 131 1
162 133 1
162 139 1
162 256 1
162 276 1
162 278 1
162 284 1
162 305 1
162 319 1
162 327 1
162 333 1
162 353 1
162 367 1
162 375 1
162 381 1
163 119 1
163 125 1
163 130 1
163 138 1
163 264 1
163 270 1
163 273 1
163 281 1
163 307 1
163 313 1
163 320 1
163 328 1
163 355 1
163 361 1
163 368 1
163 376 1
164 120 1
164 126 1
164 129 1
164 137 1
164 263 1
164 269 1
164 274 1
164 282 1
164 310 1
164 316 1
164 323 1
164 325 1
164 358 1
164 364 1
164 371 1
164 373 1
165 115 1
165 121 1
165 128 1
165 136 1
165 260 1
165 266 1
165 271 1
165 279 1
165 309 1
165 315 1
165 324 1
165 326 1
165 357 1
165 363 1
165 372 1
165 374 1
166 116 1
166 122 1
166 127 1
166 135 1
166 259 1
166 265 1
166 272 1
166 280 1
166 312 1
166 318 1
166 321 1
166 329 1
166 360 1
166 366 1
166 369 1
166 377 1
167 117 1
167 123 1
167 132 1
167 134 1
167 262 1
167 268 1
167 275 1
167 277 1
167 311 1
167 317 1
167 322 1
167 330 1
167 359 1
167 365 1
167 370 1
167 378 1
168 118 1
168 124 1
168 131 1
168 133 1
168 261 1
168 267 1
168 276 1
168 278 1
168 308 1
168 314 1
168 319 1
168 327 1
168 356 1
168 362 1
168 367 1
168 375 1
169 145 1
169 173 1
169 178 1
169 192 1
169 193 1
169 221 1
169 226 1
169 240 1
169 242 1
169 270 1
169 273 1
169 287 1
169 291 1
169 313 1
169 320 1
169 334 1
170 146 1
170 174 1
170 177 1
170 191 1
170 194 1
170 222 1
170 225 1
170 239 1
170 241 1
170 269 1
170 274 1
170 288 1
170 294 1
170 316 1
170 323 1
170 331 1
171 147 1
171 169 1
171 176 1
171 190 1
171 195 1
171 217 1
171 224 1
171 238 1
171 244 1
171 266 1
171 271 1
171 285 1
171 293 1
171 315 1
171 324 1
171 332 1
172 148 1
172 170 1
172 175 1
172 189 1
172 196 1
172 218 1
172 223 1
172 237 1
172 243 1
172 265 1
172 272 1
172 286 1
172 290 1
172 318 1
172 321 1
172 335 1
173 149 1
173 171 1
173 180 1
173 188 1
173 197 1
173 219 1
173 228 1
173 236 1
173 246 1
173 268 1
173 275 1
173 283 1
173 289 1
173 317 1
173 322 1
173 336 1
174 150 1
174 172 1
174 179 1
174 187 1
174 198 1
174 220 1
174 227 1
174 235 1
174 245 1
174 267 1
174 276 1
174 284 1
174 292 1
174 314 1
174 319 1
174 333 1
175 152 1
175 173 1
175 186 1
175 192 1
175 200 1
175 221 1
175 234 1
175 240 1
175 247 1
175 270 1
175 281 1
175 287 1
175 300 1
175 313 1
175 328 1
175 334 1
176 151 1
176 174 1
176 185 1
176 191 1
176 199 1
176 222 1
176 233 1
176 239 1
176 248 1
176 269 1
176 282 1
176 288 1
176 297 1
176 316 1
176 325 1
176 331 1
177 156 1
177 169 1
177 184 1
177 190 1
177 204 1
177 217 1
177 232 1
177 238 1
177 251 1
177 266 1
177 279 1
177 285 1
177 298 1
177 315 1
177 326 1
177 332 1
178 155 1
178 170 1
178 183 1
178 189 1
178 203 1
178 218 1
178 231 1
178 237 1
178 252 1
178 265 1
178 280 1
178 286 1
178 295 1
178 318 1
178 329 1
178 335 1
179 154 1
179 171 1
179 182 1
179 188 1
179 202 1
179 219 1
179 230 1
179 236 1
179 249 1
179 268 1
179 277 1
179 283 1
179 296 1
179 317 1
179 330 1
179 336 1
180 153 1
180 172 1
180 181 1
180 187 1
180 201 1
180 220 1
180 229 1
180 235 1
180 250 1
180 267 1
180 278 1
180 284 1
180 299 1
180 314 1
180 327 1
180 333 1
181 158 1
181 178 1
181 186 1
181 192 1
181 206 1
181 226 1
181 234 1
181 240 1
181 253 1
181 273 1
181 281 1
181 287 1
181 306 1
181 320 1
181 328 1
181 334 1
182 157 1
182 177 1
182 185 1
182 191 1
182 205 1
182 225 1
182 233 1
182 239 1
182 254 1
182 274 1
182 282 1
182 288 1
182 303 1
182 323 1
182 325 1
182 331 1
183 162 1
183 176 1
183 184 1
183 190 1
183 210 1
183 224 1
183 232 1
183 238 1
183 257 1
183 271 1
183 279 1
183 285 1
183 304 1
183 324 1
183 326 1
183 332 1
184 161 1
184 175 1
184 183 1
184 189 1
184 209 1
184 223 1
184 231 1
184 237 1
184 258 1
184 272 1
184 280 1
184 286 1
184 301 1
184 321 1
184 329 1
184 335 1
185 160 1
185 180 1
185 182 1
185 188 1
185 208 1
185 228 1
185 230 1
185 236 1
185 255 1
185 275 1
185 277 1
185 283 1
185 302 1
185 322 1
185 330 1
185 336 1
186 159 1
186 179 1
186 181 1
186 187 1
186 207 1
186 227 1
186 229 1
186 235 1
186 256 1
186 276 1
186 278 1
186 284 1
186 305 1
186 319 1
186 327 1
186 333 1
187 167 1
187 173 1
187 178 1
187 186 1
187 215 1
187 221 1
187 226 1
187 234 1
187 264 1
187 270 1
187 273 1
187 281 1
187 307 1
187 313 1
187 320 1
187 328 1
188 168 1
188 174 1
188 177 1
188 185 1
188 216 1
188 222 1
188 225 1
188 233 1
188 263 1
188 269 1
188 274 1
188 282 1
188 310 1
188 316 1
188 323 1
188 325 1
189 163 1
189 169 1
189 176 1
189 184 1
189 211 1
189 217 1
189 224 1
189 232 1
189 260 1
189 266 1
189 271 1
189 279 1
189 309 1
189 315 1
189 324 1
189 326 1
190 164 1
190 170 1
190 175 1
190 183 1
190 212 1
190 218 1
190 223 1
190 231 1
190 259 1
190 265 1
190 272 1
190 280 1
190 312 1
190 318 1
190 321 1
190 329 1
191 165 1
191 171 1
191 180 1
191 182 1
191 213 1
191 219 1
191 228 1
191 230 1
191 262 1
191 268 1
191 275 1
191 277 1
191 311 1
191 317 1
191 322 1
191 330 1
192 166 1
192 172 1
192 179 1
192 181 1
192 214 1
192 220 1
192 227 1
192 229 1
192 261 1
192 267 1
192 276 1
192 278 1
192 308 1
192 314 1
192 319 1
192 327 1
