%%MatrixMarket matrix coordinate integer general
252 504 2268
1 1 1
1 15 1
1 53 1
1 253 1
1 267 1
1 305 1
1 337 1
1 351 1
1 389 1
2 2 1
2 16 1
2 54 1
2 254 1
2 268 1
2 306 1
2 338 1
2 352 1
2 390 1
3 3 1
3 17 1
3 55 1
3 255 1
3 269 1
3 307 1
3 339 1
3 353 1
3 391 1
4 4 1
4 18 1
4 56 1
4 256 1
4 270 1
4 308 1
4 340 1
4 354 1
4 392 1
5 5 1
5 19 1
5 43 1
5 257 1
5 271 1
5 295 1
5 341 1
5 355 1
5 379 1
6 6 1
6 20 1
6 44 1
6 258 1
6 272 1
6 296 1
6 342 1
6 356 1
6 380 1
7 7 1
7 21 1
7 45 1
7 259 1
7 273 1
7 297 1
7 343 1
7 357 1
7 381 1
8 8 1
8 22 1
8 46 1
8 260 1
8 274 1
8 298 1
8 344 1
8 358 1
8 382 1
9 9 1
9 23 1
9 47 1
9 261 1
9 275 1
9 299 1
9 345 1
9 359 1
9 383 1
10 10 1
10 24 1
10 48 1
10 262 1
10 276 1
10 300 1
10 346 1
10 360 1
10 384 1
11 11 1
11 25 1
11 49 1
11 263 1
11 277 1
11 301 1
11 347 1
11 361 1
11 385 1
12 12 1
12 26 1
12 50 1
12 264 1
12 278 1
12 302 1
12 348 1
12 362 1
12 386 1
13 13 1
13 27 1
13 51 1
13 265 1
13 279 1
13 303 1
13 349 1
13 363 1
13 387 1
14 14 1
14 28 1
14 52 1
14 266 1
14 280 1
14 304 1
14 350 1
14 364 1
14 388 1
15 1 1
15 39 1
15 59 1
15 253 1
15 291 1
15 311 1
15 337 1
15 375 1
15 395 1
16 2 1
16 40 1
16 60 1
16 254 1
16 292 1
16 312 1
16 338 1
16 376 1
16 396 1
17 3 1
17 41 1
17 61 1
17 255 1
17 293 1
17 313 1
17 339 1
17 377 1
17 397 1
18 4 1
18 42 1
18 62 1
18 256 1
18 294 1
18 314 1
18 340 1
18 378 1
18 398 1
19 5 1
19 29 1
19 63 1
19 257 1
19 281 1
19 315 1
19 341 1
19 365 1
19 399 1
20 6 1
20 30 1
20 64 1
20 258 1
20 282 1
20 316 1
20 342 1
20 366 1
20 400 1
21 7 1
21 31 1
21 65 1
21 259 1
21 283 1
21 317 1
21 343 1
21 367 1
21 401 1
22 8 1
22 32 1
22 66 1
22 260 1
22 284 1
22 318 1
22 344 1
22 368 1
22 402 1
23 9 1
23 33 1
23 67 1
23 261 1
23 285 1
23 319 1
23 345 1
23 369 1
23 403 1
24 10 1
24 34 1
24 68 1
24 262 1
24 286 1
24 320 1
24 346 1
24 370 1
24 404 1
25 11 1
25 35 1
25 69 1
25 263 1
25 287 1
25 321 1
25 347 1
25 371 1
25 405 1
26 12 1
26 36 1
26 70 1
26 264 1
26 288 1
26 322 1
26 348 1
26 372 1
26 406 1
27 13 1
27 37 1
27 57 1
27 265 1
27 289 1
27 309 1
27 349 1
27 373 1
27 393 1
28 14 1
28 38 1
28 58 1
28 266 1
28 290 1
28 310 1
28 350 1
28 374 1
28 394 1
29 15 1
29 39 1
29 73 1
29 267 1
29 291 1
29 325 1
29 351 1
29 375 1
29 409 1
30 16 1
30 40 1
30 74 1
30 268 1
30 292 1
30 326 1
30 352 1
30 376 1
30 410 1
31 17 1
31 41 1
31 75 1
31 269 1
31 293 1
31 327 1
31 353 1
31 377 1
31 411 1
32 18 1
32 42 1
32 76 1
32 270 1
32 294 1
32 328 1
32 354 1
32 378 1
32 412 1
33 19 1
33 29 1
33 77 1
33 271 1
33 281 1
33 329 1
33 355 1
33 365 1
33 413 1
34 20 1
34 30 1
34 78 1
34 272 1
34 282 1
34 330 1
34 356 1
34 366 1
34 414 1
35 21 1
35 31 1
35 79 1
35 273 1
35 283 1
35 331 1
35 357 1
35 367 1
35 415 1
36 22 1
36 32 1
36 80 1
36 274 1
36 284 1
36 332 1
36 358 1
36 368 1
36 416 1
37 23 1
37 33 1
37 81 1
37 275 1
37 285 1
37 333 1
37 359 1
37 369 1
37 417 1
38 24 1
38 34 1
38 82 1
38 276 1
38 286 1
38 334 1
38 360 1
38 370 1
38 418 1
39 25 1
39 35 1
39 83 1
39 277 1
39 287 1
39 335 1
39 361 1
39 371 1
39 419 1
40 26 1
40 36 1
40 84 1
40 278 1
40 288 1
40 336 1
40 362 1
40 372 1
40 420 1
41 27 1
41 37 1
41 71 1
41 279 1
41 289 1
41 323 1
41 363 1
41 373 1
41 407 1
42 28 1
42 38 1
42 72 1
42 280 1
42 290 1
42 324 1
42 364 1
42 374 1
42 408 1
43 85 1
43 99 1
43 137 1
43 253 1
43 267 1
43 305 1
43 421 1
43 435 1
43 473 1
44 86 1
44 100 1
44 138 1
44 254 1
44 268 1
44 306 1
44 422 1
44 436 1
44 474 1
45 87 1
45 101 1
45 139 1
45 255 1
45 269 1
45 307 1
45 423 1
45 437 1
45 475 1
46 88 1
46 102 1
46 140 1
46 256 1
46 270 1
46 308 1
46 424 1
46 438 1
46 476 1
47 89 1
47 103 1
47 127 1
47 257 1
47 271 1
47 295 1
47 425 1
47 439 1
47 463 1
48 90 1
48 104 1
48 128 1
48 258 1
48 272 1
48 296 1
48 426 1
48 440 1
48 464 1
49 91 1
49 105 1
49 129 1
49 259 1
49 273 1
49 297 1
49 427 1
49 441 1
49 465 1
50 92 1
50 106 1
50 130 1
50 260 1
50 274 1
50 298 1
50 428 1
50 442 1
50 466 1
51 93 1
51 107 1
51 131 1
51 261 1
51 275 1
51 299 1
51 429 1
51 443 1
51 467 1
52 94 1
52 108 1
52 132 1
52 262 1
52 276 1
52 300 1
52 430 1
52 444 1
52 468 1
53 95 1
53 109 1
53 133 1
53 263 1
53 277 1
53 301 1
53 431 1
53 445 1
53 469 1
54 96 1
54 110 1
54 134 1
54 264 1
54 278 1
54 302 1
54 432 1
54 446 1
54 470 1
55 97 1
55 111 1
55 135 1
55 265 1
55 279 1
55 303 1
55 433 1
55 447 1
55 471 1
56 98 1
56 112 1
56 136 1
56 266 1
56 280 1
56 304 1
56 434 1
56 448 1
56 472 1
57 85 1
57 123 1
57 143 1
57 253 1
57 291 1
57 311 1
57 421 1
57 459 1
57 479 1
58 86 1
58 124 1
58 144 1
58 254 1
58 292 1
58 312 1
58 422 1
58 460 1
58 480 1
59 87 1
59 125 1
59 145 1
59 255 1
59 293 1
59 313 1
59 423 1
59 461 1
59 481 1
60 88 1
60 126 1
60 146 1
60 256 1
60 294 1
60 314 1
60 424 1
60 462 1
60 482 1
61 89 1
61 113 1
61 147 1
61 257 1
61 281 1
61 315 1
61 425 1
61 449 1
61 483 1
62 90 1
62 114 1
62 148 1
62 258 1
62 282 1
62 316 1
62 426 1
62 450 1
62 484 1
63 91 1
63 115 1
63 149 1
63 259 1
63 283 1
63 317 1
63 427 1
63 451 1
63 485 1
64 92 1
64 116 1
64 150 1
64 260 1
64 284 1
64 318 1
64 428 1
64 452 1
64 486 1
65 93 1
65 117 1
65 151 1
65 261 1
65 285 1
65 319 1
65 429 1
65 453 1
65 487 1
66 94 1
66 118 1
66 152 1
66 262 1
66 286 1
66 320 1
66 430 1
66 454 1
66 488 1
67 95 1
67 119 1
67 153 1
67 263 1
67 287 1
67 321 1
67 431 1
67 455 1
67 489 1
68 96 1
68 120 1
68 154 1
68 264 1
68 288 1
68 322 1
68 432 1
68 456 1
68 490 1
69 97 1
69 121 1
69 141 1
69 265 1
69 289 1
69 309 1
69 433 1
69 457 1
69 477 1
70 98 1
70 122 1
70 142 1
70 266 1
70 290 1
70 310 1
70 434 1
70 458 1
70 478 1
71 99 1
71 123 1
71 157 1
71 267 1
71 291 1
71 325 1
71 435 1
71 459 1
71 493 1
72 100 1
72 124 1
72 158 1
72 268 1
72 292 1
72 326 1
72 436 1
72 460 1
72 494 1
73 101 1
73 125 1
73 159 1
73 269 1
73 293 1
73 327 1
73 437 1
73 461 1
73 495 1
74 102 1
74 126 1
74 160 1
74 270 1
74 294 1
74 328 1
74 438 1
74 462 1
74 496 1
75 103 1
75 113 1
75 161 1
75 271 1
75 281 1
75 329 1
75 439 1
75 449 1
75 497 1
76 104 1
76 114 1
76 162 1
76 272 1
76 282 1
76 330 1
76 440 1
76 450 1
76 498 1
77 105 1
77 115 1
77 163 1
77 273 1
77 283 1
77 331 1
77 441 1
77 451 1
77 499 1
78 106 1
78 116 1
78 164 1
78 274 1
78 284 1
78 332 1
78 442 1
78 452 1
78 500 1
79 107 1
79 117 1
79 165 1
79 275 1
79 285 1
79 333 1
79 443 1
79 453 1
79 501 1
80 108 1
80 118 1
80 166 1
80 276 1
80 286 1
80 334 1
80 444 1
80 454 1
80 502 1
81 109 1
81 119 1
81 167 1
81 277 1
81 287 1
81 335 1
81 445 1
81 455 1
81 503 1
82 110 1
82 120 1
82 168 1
82 278 1
82 288 1
82 336 1
82 446 1
82 456 1
82 504 1
83 111 1
83 121 1
83 155 1
83 279 1
83 289 1
83 323 1
83 447 1
83 457 1
83 491 1
84 112 1
84 122 1
84 156 1
84 280 1
84 290 1
84 324 1
84 448 1
84 458 1
84 492 1
85 169 1
85 183 1
85 221 1
85 337 1
85 351 1
85 389 1
85 421 1
85 435 1
85 473 1
86 170 1
86 184 1
86 222 1
86 338 1
86 352 1
86 390 1
86 422 1
86 436 1
86 474 1
87 171 1
87 185 1
87 223 1
87 339 1
87 353 1
87 391 1
87 423 1
87 437 1
87 475 1
88 172 1
88 186 1
88 224 1
88 340 1
88 354 1
88 392 1
88 424 1
88 438 1
88 476 1
89 173 1
89 187 1
89 211 1
89 341 1
89 355 1
89 379 1
89 425 1
89 439 1
89 463 1
90 174 1
90 188 1
90 212 1
90 342 1
90 356 1
90 380 1
90 426 1
90 440 1
90 464 1
91 175 1
91 189 1
91 213 1
91 343 1
91 357 1
91 381 1
91 427 1
91 441 1
91 465 1
92 176 1
92 190 1
92 214 1
92 344 1
92 358 1
92 382 1
92 428 1
92 442 1
92 466 1
93 177 1
93 191 1
93 215 1
93 345 1
93 359 1
93 383 1
93 429 1
93 443 1
93 467 1
94 178 1
94 192 1
94 216 1
94 346 1
94 360 1
94 384 1
94 430 1
94 444 1
94 468 1
95 179 1
95 193 1
95 217 1
95 347 1
95 361 1
95 385 1
95 431 1
95 445 1
95 469 1
96 180 1
96 194 1
96 218 1
96 348 1
96 362 1
96 386 1
96 432 1
96 446 1
96 470 1
97 181 1
97 195 1
97 219 1
97 349 1
97 363 1
97 387 1
97 433 1
97 447 1
97 471 1
98 182 1
98 196 1
98 220 1
98 350 1
98 364 1
98 388 1
98 434 1
98 448 1
98 472 1
99 169 1
99 207 1
99 227 1
99 337 1
99 375 1
99 395 1
99 421 1
99 459 1
99 479 1
100 170 1
100 208 1
100 228 1
100 338 1
100 376 1
100 396 1
100 422 1
100 460 1
100 480 1
101 171 1
101 209 1
101 229 1
101 339 1
101 377 1
101 397 1
101 423 1
101 461 1
101 481 1
102 172 1
102 210 1
102 230 1
102 340 1
102 378 1
102 398 1
102 424 1
102 462 1
102 482 1
103 173 1
103 197 1
103 231 1
103 341 1
103 365 1
103 399 1
103 425 1
103 449 1
103 483 1
104 174 1
104 198 1
104 232 1
104 342 1
104 366 1
104 400 1
104 426 1
104 450 1
104 484 1
105 175 1
105 199 1
105 233 1
105 343 1
105 367 1
105 401 1
105 427 1
105 451 1
105 485 1
106 176 1
106 200 1
106 234 1
106 344 1
106 368 1
106 402 1
106 428 1
106 452 1
106 486 1
107 177 1
107 201 1
107 235 1
107 345 1
107 369 1
107 403 1
107 429 1
107 453 1
107 487 1
108 178 1
108 202 1
108 236 1
108 346 1
108 370 1
108 404 1
108 430 1
108 454 1
108 488 1
109 179 1
109 203 1
109 237 1
109 347 1
109 371 1
109 405 1
109 431 1
109 455 1
109 489 1
110 180 1
110 204 1
110 238 1
110 348 1
110 372 1
110 406 1
110 432 1
110 456 1
110 490 1
111 181 1
111 205 1
111 225 1
111 349 1
111 373 1
111 393 1
111 433 1
111 457 1
111 477 1
112 182 1
112 206 1
112 226 1
112 350 1
112 374 1
112 394 1
112 434 1
112 458 1
112 478 1
113 183 1
113 207 1
113 241 1
113 351 1
113 375 1
113 409 1
113 435 1
113 459 1
113 493 1
114 184 1
114 208 1
114 242 1
114 352 1
114 376 1
114 410 1
114 436 1
114 460 1
114 494 1
115 185 1
115 209 1
115 243 1
115 353 1
115 377 1
115 411 1
115 437 1
115 461 1
115 495 1
116 186 1
116 210 1
116 244 1
116 354 1
116 378 1
116 412 1
116 438 1
116 462 1
116 496 1
117 187 1
117 197 1
117 245 1
117 355 1
117 365 1
117 413 1
117 439 1
117 449 1
117 497 1
118 188 1
118 198 1
118 246 1
118 356 1
118 366 1
118 414 1
118 440 1
118 450 1
118 498 1
119 189 1
119 199 1
119 247 1
119 357 1
119 367 1
119 415 1
119 441 1
119 451 1
119 499 1
120 190 1
120 200 1
120 248 1
120 358 1
120 368 1
120 416 1
120 442 1
120 452 1
120 500 1
121 191 1
121 201 1
121 249 1
121 359 1
121 369 1
121 417 1
121 443 1
121 453 1
121 501 1
122 192 1
122 202 1
122 250 1
122 360 1
122 370 1
122 418 1
122 444 1
122 454 1
122 502 1
123 193 1
123 203 1
123 251 1
123 361 1
123 371 1
123 419 1
123 445 1
123 455 1
123 503 1
124 194 1
124 204 1
124 252 1
124 362 1
124 372 1
124 420 1
124 446 1
124 456 1
124 504 1
125 195 1
125 205 1
125 239 1
125 363 1
125 373 1
125 407 1
125 447 1
125 457 1
125 491 1
126 196 1
126 206 1
126 240 1
126 364 1
126 374 1
126 408 1
126 448 1
126 458 1
126 492 1
127 1 1
127 15 1
127 43 1
127 261 1
127 275 1
127 303 1
127 348 1
127 362 1
127 390 1
128 2 1
128 16 1
128 44 1
128 262 1
128 276 1
128 304 1
128 347 1
128 361 1
128 389 1
129 3 1
129 17 1
129 45 1
129 263 1
129 277 1
129 305 1
129 350 1
129 364 1
129 392 1
130 4 1
130 18 1
130 46 1
130 264 1
130 278 1
130 306 1
130 349 1
130 363 1
130 391 1
131 5 1
131 19 1
131 47 1
131 265 1
131 279 1
131 307 1
131 338 1
131 352 1
131 380 1
132 6 1
132 20 1
132 48 1
132 266 1
132 280 1
132 308 1
132 337 1
132 351 1
132 379 1
133 7 1
133 21 1
133 49 1
133 253 1
133 267 1
133 295 1
133 340 1
133 354 1
133 382 1
134 8 1
134 22 1
134 50 1
134 254 1
134 268 1
134 296 1
134 339 1
134 353 1
134 381 1
135 9 1
135 23 1
135 51 1
135 255 1
135 269 1
135 297 1
135 342 1
135 356 1
135 384 1
136 10 1
136 24 1
136 52 1
136 256 1
136 270 1
136 298 1
136 341 1
136 355 1
136 383 1
137 11 1
137 25 1
137 53 1
137 257 1
137 271 1
137 299 1
137 344 1
137 358 1
137 386 1
138 12 1
138 26 1
138 54 1
138 258 1
138 272 1
138 300 1
138 343 1
138 357 1
138 385 1
139 13 1
139 27 1
139 55 1
139 259 1
139 273 1
139 301 1
139 346 1
139 360 1
139 388 1
140 14 1
140 28 1
140 56 1
140 260 1
140 274 1
140 302 1
140 345 1
140 359 1
140 387 1
141 1 1
141 29 1
141 57 1
141 261 1
141 289 1
141 317 1
141 348 1
141 376 1
141 404 1
142 2 1
142 30 1
142 58 1
142 262 1
142 290 1
142 318 1
142 347 1
142 375 1
142 403 1
143 3 1
143 31 1
143 59 1
143 263 1
143 291 1
143 319 1
143 350 1
143 378 1
143 406 1
144 4 1
144 32 1
144 60 1
144 264 1
144 292 1
144 320 1
144 349 1
144 377 1
144 405 1
145 5 1
145 33 1
145 61 1
145 265 1
145 293 1
145 321 1
145 338 1
145 366 1
145 394 1
146 6 1
146 34 1
146 62 1
146 266 1
146 294 1
146 322 1
146 337 1
146 365 1
146 393 1
147 7 1
147 35 1
147 63 1
147 253 1
147 281 1
147 309 1
147 340 1
147 368 1
147 396 1
148 8 1
148 36 1
148 64 1
148 254 1
148 282 1
148 310 1
148 339 1
148 367 1
148 395 1
149 9 1
149 37 1
149 65 1
149 255 1
149 283 1
149 311 1
149 342 1
149 370 1
149 398 1
150 10 1
150 38 1
150 66 1
150 256 1
150 284 1
150 312 1
150 341 1
150 369 1
150 397 1
151 11 1
151 39 1
151 67 1
151 257 1
151 285 1
151 313 1
151 344 1
151 372 1
151 400 1
152 12 1
152 40 1
152 68 1
152 258 1
152 286 1
152 314 1
152 343 1
152 371 1
152 399 1
153 13 1
153 41 1
153 69 1
153 259 1
153 287 1
153 315 1
153 346 1
153 374 1
153 402 1
154 14 1
154 42 1
154 70 1
154 260 1
154 288 1
154 316 1
154 345 1
154 373 1
154 401 1
155 15 1
155 29 1
155 71 1
155 275 1
155 289 1
155 331 1
155 362 1
155 376 1
155 418 1
156 16 1
156 30 1
156 72 1
156 276 1
156 290 1
156 332 1
156 361 1
156 375 1
156 417 1
157 17 1
157 31 1
157 73 1
157 277 1
157 291 1
157 333 1
157 364 1
157 378 1
157 420 1
158 18 1
158 32 1
158 74 1
158 278 1
158 292 1
158 334 1
158 363 1
158 377 1
158 419 1
159 19 1
159 33 1
159 75 1
159 279 1
159 293 1
159 335 1
159 352 1
159 366 1
159 408 1
160 20 1
160 34 1
160 76 1
160 280 1
160 294 1
160 336 1
160 351 1
160 365 1
160 407 1
161 21 1
161 35 1
161 77 1
161 267 1
161 281 1
161 323 1
161 354 1
161 368 1
161 410 1
162 22 1
162 36 1
162 78 1
162 268 1
162 282 1
162 324 1
162 353 1
162 367 1
162 409 1
163 23 1
163 37 1
163 79 1
163 269 1
163 283 1
163 325 1
163 356 1
163 370 1
163 412 1
164 24 1
164 38 1
164 80 1
164 270 1
164 284 1
164 326 1
164 355 1
164 369 1
164 411 1
165 25 1
165 39 1
165 81 1
165 271 1
165 285 1
165 327 1
165 358 1
165 372 1
165 414 1
166 26 1
166 40 1
166 82 1
166 272 1
166 286 1
166 328 1
166 357 1
166 371 1
166 413 1
167 27 1
167 41 1
167 83 1
167 273 1
167 287 1
167 329 1
167 360 1
167 374 1
167 416 1
168 28 1
168 42 1
168 84 1
168 274 1
168 288 1
168 330 1
168 359 1
168 373 1
168 415 1
169 88 1
169 102 1
169 130 1
169 261 1
169 275 1
169 303 1
169 433 1
169 447 1
169 475 1
170 87 1
170 101 1
170 129 1
170 262 1
170 276 1
170 304 1
170 434 1
170 448 1
170 476 1
171 90 1
171 104 1
171 132 1
171 263 1
171 277 1
171 305 1
171 421 1
171 435 1
171 463 1
172 89 1
172 103 1
172 131 1
172 264 1
172 278 1
172 306 1
172 422 1
172 436 1
172 464 1
173 92 1
173 106 1
173 134 1
173 265 1
173 279 1
173 307 1
173 423 1
173 437 1
173 465 1
174 91 1
174 105 1
174 133 1
174 266 1
174 280 1
174 308 1
174 424 1
174 438 1
174 466 1
175 94 1
175 108 1
175 136 1
175 253 1
175 267 1
175 295 1
175 425 1
175 439 1
175 467 1
176 93 1
176 107 1
176 135 1
176 254 1
176 268 1
176 296 1
176 426 1
176 440 1
176 468 1
177 96 1
177 110 1
177 138 1
177 255 1
177 269 1
177 297 1
177 427 1
177 441 1
177 469 1
178 95 1
178 109 1
178 137 1
178 256 1
178 270 1
178 298 1
178 428 1
178 442 1
178 470 1
179 98 1
179 112 1
179 140 1
179 257 1
179 271 1
179 299 1
179 429 1
179 443 1
179 471 1
180 97 1
180 111 1
180 139 1
180 258 1
180 272 1
180 300 1
180 430 1
180 444 1
180 472 1
181 86 1
181 100 1
181 128 1
181 259 1
181 273 1
181 301 1
181 431 1
181 445 1
181 473 1
182 85 1
182 99 1
182 127 1
182 260 1
182 274 1
182 302 1
182 432 1
182 446 1
182 474 1
183 88 1
183 116 1
183 144 1
183 261 1
183 289 1
183 317 1
183 433 1
183 461 1
183 489 1
184 87 1
184 115 1
184 143 1
184 262 1
184 290 1
184 318 1
184 434 1
184 462 1
184 490 1
185 90 1
185 118 1
185 146 1
185 263 1
185 291 1
185 319 1
185 421 1
185 449 1
185 477 1
186 89 1
186 117 1
186 145 1
186 264 1
186 292 1
186 320 1
186 422 1
186 450 1
186 478 1
187 92 1
187 120 1
187 148 1
187 265 1
187 293 1
187 321 1
187 423 1
187 451 1
187 479 1
188 91 1
188 119 1
188 147 1
188 266 1
188 294 1
188 322 1
188 424 1
188 452 1
188 480 1
189 94 1
189 122 1
189 150 1
189 253 1
189 281 1
189 309 1
189 425 1
189 453 1
189 481 1
190 93 1
190 121 1
190 149 1
190 254 1
190 282 1
190 310 1
190 426 1
190 454 1
190 482 1
191 96 1
191 124 1
191 152 1
191 255 1
191 283 1
191 311 1
191 427 1
191 455 1
191 483 1
192 95 1
192 123 1
192 151 1
192 256 1
192 284 1
192 312 1
192 428 1
192 456 1
192 484 1
193 98 1
193 126 1
193 154 1
193 257 1
193 285 1
193 313 1
193 429 1
193 457 1
193 485 1
194 97 1
194 125 1
194 153 1
194 258 1
194 286 1
194 314 1
194 430 1
194 458 1
194 486 1
195 86 1
195 114 1
195 142 1
195 259 1
195 287 1
195 315 1
195 431 1
195 459 1
195 487 1
196 85 1
196 113 1
196 141 1
196 260 1
196 288 1
196 316 1
196 432 1
196 460 1
196 488 1
197 102 1
197 116 1
197 158 1
197 275 1
197 289 1
197 331 1
197 447 1
197 461 1
197 503 1
198 101 1
198 115 1
198 157 1
198 276 1
198 290 1
198 332 1
198 448 1
198 462 1
198 504 1
199 104 1
199 118 1
199 160 1
199 277 1
199 291 1
199 333 1
199 435 1
199 449 1
199 491 1
200 103 1
200 117 1
200 159 1
200 278 1
200 292 1
200 334 1
200 436 1
200 450 1
200 492 1
201 106 1
201 120 1
201 162 1
201 279 1
201 293 1
201 335 1
201 437 1
201 451 1
201 493 1
202 105 1
202 119 1
202 161 1
202 280 1
202 294 1
202 336 1
202 438 1
202 452 1
202 494 1
203 108 1
203 122 1
203 164 1
203 267 1
203 281 1
203 323 1
203 439 1
203 453 1
203 495 1
204 107 1
204 121 1
204 163 1
204 268 1
204 282 1
204 324 1
204 440 1
204 454 1
204 496 1
205 110 1
205 124 1
205 166 1
205 269 1
205 283 1
205 325 1
205 441 1
205 455 1
205 497 1
206 109 1
206 123 1
206 165 1
206 270 1
206 284 1
206 326 1
206 442 1
206 456 1
206 498 1
207 112 1
207 126 1
207 168 1
207 271 1
207 285 1
207 327 1
207 443 1
207 457 1
207 499 1
208 111 1
208 125 1
208 167 1
208 272 1
208 286 1
208 328 1
208 444 1
208 458 1
208 500 1
209 100 1
209 114 1
209 156 1
209 273 1
209 287 1
209 329 1
209 445 1
209 459 1
209 501 1
210 99 1
210 113 1
210 155 1
210 274 1
210 288 1
210 330 1
210 446 1
210 460 1
210 502 1
211 173 1
211 187 1
211 215 1
211 348 1
211 362 1
211 390 1
211 433 1
211 447 1
211 475 1
212 174 1
212 188 1
212 216 1
212 347 1
212 361 1
212 389 1
212 434 1
212 448 1
212 476 1
213 175 1
213 189 1
213 217 1
213 350 1
213 364 1
213 392 1
213 421 1
213 435 1
213 463 1
214 176 1
214 190 1
214 218 1
214 349 1
214 363 1
214 391 1
214 422 1
214 436 1
214 464 1
215 177 1
215 191 1
215 219 1
215 338 1
215 352 1
215 380 1
215 423 1
215 437 1
215 465 1
216 178 1
216 192 1
216 220 1
216 337 1
216 351 1
216 379 1
216 424 1
216 438 1
216 466 1
217 179 1
217 193 1
217 221 1
217 340 1
217 354 1
217 382 1
217 425 1
217 439 1
217 467 1
218 180 1
218 194 1
218 222 1
218 339 1
218 353 1
218 381 1
218 426 1
218 440 1
218 468 1
219 181 1
219 195 1
219 223 1
219 342 1
219 356 1
219 384 1
219 427 1
219 441 1
219 469 1
220 182 1
220 196 1
220 224 1
220 341 1
220 355 1
220 383 1
220 428 1
220 442 1
220 470 1
221 169 1
221 183 1
221 211 1
221 344 1
221 358 1
221 386 1
221 429 1
221 443 1
221 471 1
222 170 1
222 184 1
222 212 1
222 343 1
222 357 1
222 385 1
222 430 1
222 444 1
222 472 1
223 171 1
223 185 1
223 213 1
223 346 1
223 360 1
223 388 1
223 431 1
223 445 1
223 473 1
224 172 1
224 186 1
224 214 1
224 345 1
224 359 1
224 387 1
224 432 1
224 446 1
224 474 1
225 173 1
225 201 1
225 229 1
225 348 1
225 376 1
225 404 1
225 433 1
225 461 1
225 489 1
226 174 1
226 202 1
226 230 1
226 347 1
226 375 1
226 403 1
226 434 1
226 462 1
226 490 1
227 175 1
227 203 1
227 231 1
227 350 1
227 378 1
227 406 1
227 421 1
227 449 1
227 477 1
228 176 1
228 204 1
228 232 1
228 349 1
228 377 1
228 405 1
228 422 1
228 450 1
228 478 1
229 177 1
229 205 1
229 233 1
229 338 1
229 366 1
229 394 1
229 423 1
229 451 1
229 479 1
230 178 1
230 206 1
230 234 1
230 337 1
230 365 1
230 393 1
230 424 1
230 452 1
230 480 1
231 179 1
231 207 1
231 235 1
231 340 1
231 368 1
231 396 1
231 425 1
231 453 1
231 481 1
232 180 1
232 208 1
232 236 1
232 339 1
232 367 1
232 395 1
232 426 1
232 454 1
232 482 1
233 181 1
233 209 1
233 237 1
233 342 1
233 370 1
233 398 1
233 427 1
233 455 1
233 483 1
234 182 1
234 210 1
234 238 1
234 341 1
234 369 1
234 397 1
234 428 1
234 456 1
234 484 1
235 169 1
235 197 1
235 225 1
235 344 1
235 372 1
235 400 1
235 429 1
235 457 1
235 485 1
236 170 1
236 198 1
236 226 1
236 343 1
236 371 1
236 399 1
236 430 1
236 458 1
236 486 1
237 171 1
237 199 1
237 227 1
237 346 1
237 374 1
237 402 1
237 431 1
237 459 1
237 487 1
238 172 1
238 200 1
238 228 1
238 345 1
238 373 1
238 401 1
238 432 1
238 460 1
238 488 1
239 187 1
239 201 1
239 243 1
239 362 1
239 376 1
239 418 1
239 447 1
239 461 1
239 503 1
240 188 1
240 202 1
240 244 1
240 361 1
240 375 1
240 417 1
240 448 1
240 462 1
240 504 1
241 189 1
241 203 1
241 245 1
241 364 1
241 378 1
241 420 1
241 435 1
241 449 1
241 491 1
242 190 1
242 204 1
242 246 1
242 363 1
242 377 1
242 419 1
242 436 1
242 450 1
242 492 1
243 191 1
243 205 1
243 247 1
243 352 1
243 366 1
243 408 1
243 437 1
243 451 1
243 493 1
244 192 1
244 206 1
244 248 1
244 351 1
244 365 1
244 407 1
244 438 1
244 452 1
244 494 1
245 193 1
245 207 1
245 249 1
245 354 1
245 368 1
245 410 1
245 439 1
245 453 1
245 495 1
246 194 1
246 208 1
246 250 1
246 353 1
246 367 1
246 409 1
246 440 1
246 454 1
246 496 1
247 195 1
247 209 1
247 251 1
247 356 1
247 370 1
247 412 1
247 441 1
247 455 1
247 497 1
248 196 1
248 210 1
248 252 1
248 355 1
248 369 1
248 411 1
248 442 1
248 456 1
248 498 1
249 183 1
249 197 1
249 239 1
249 358 1
249 372 1
249 414 1
249 443 1
249 457 1
249 499 1
250 184 1
250 198 1
250 240 1
250 357 1
250 371 1
250 413 1
250 444 1
250 458 1
250 500 1
251 185 1
251 199 1
251 241 1
251 360 1
251 374 1
251 416 1
251 445 1
251 459 1
251 501 1
252 186 1
252 200 1
252 242 1
252 359 1
252 373 1
252 415 1
252 446 1
252 460 1
252 502 1
