%%MatrixMarket matrix coordinate integer general
288 576 2592
1 1 1
1 49 1
1 65 1
1 97 1
1 145 1
1 161 1
1 289 1
1 337 1
1 353 1
2 2 1
2 50 1
2 66 1
2 98 1
2 146 1
2 162 1
2 290 1
2 338 1
2 354 1
3 3 1
3 51 1
3 67 1
3 99 1
3 147 1
3 163 1
3 291 1
3 339 1
3 355 1
4 4 1
4 52 1
4 68 1
4 100 1
4 148 1
4 164 1
4 292 1
4 340 1
4 356 1
5 5 1
5 53 1
5 69 1
5 101 1
5 149 1
5 165 1
5 293 1
5 341 1
5 357 1
6 6 1
6 54 1
6 70 1
6 102 1
6 150 1
6 166 1
6 294 1
6 342 1
6 358 1
7 7 1
7 55 1
7 71 1
7 103 1
7 151 1
7 167 1
7 295 1
7 343 1
7 359 1
8 8 1
8 56 1
8 72 1
8 104 1
8 152 1
8 168 1
8 296 1
8 344 1
8 360 1
9 9 1
9 57 1
9 73 1
9 105 1
9 153 1
9 169 1
9 297 1
9 345 1
9 361 1
10 10 1
10 58 1
10 74 1
10 106 1
10 154 1
10 170 1
10 298 1
10 346 1
10 362 1
11 11 1
11 59 1
11 75 1
11 107 1
11 155 1
11 171 1
11 299 1
11 347 1
11 363 1
12 12 1
12 60 1
12 76 1
12 108 1
12 156 1
12 172 1
12 300 1
12 348 1
12 364 1
13 13 1
13 61 1
13 77 1
13 109 1
13 157 1
13 173 1
13 301 1
13 349 1
13 365 1
14 14 1
14 62 1
14 78 1
14 110 1
14 158 1
14 174 1
14 302 1
14 350 1
14 366 1
15 15 1
15 63 1
15 79 1
15 111 1
15 159 1
15 175 1
15 303 1
15 351 1
15 367 1
16 16 1
16 64 1
16 80 1
16 112 1
16 160 1
16 176 1
16 304 1
16 352 1
16 368 1
17 17 1
17 49 1
17 81 1
17 113 1
17 145 1
17 177 1
17 305 1
17 337 1
17 369 1
18 18 1
18 50 1
18 82 1
18 114 1
18 146 1
18 178 1
18 306 1
18 338 1
18 370 1
19 19 1
19 51 1
19 83 1
19 115 1
19 147 1
19 179 1
19 307 1
19 339 1
19 371 1
20 20 1
20 52 1
20 84 1
20 116 1
20 148 1
20 180 1
20 308 1
20 340 1
20 372 1
21 21 1
21 53 1
21 85 1
21 117 1
21 149 1
21 181 1
21 309 1
21 341 1
21 373 1
22 22 1
22 54 1
22 86 1
22 118 1
22 150 1
22 182 1
22 310 1
22 342 1
22 374 1
23 23 1
23 55 1
23 87 1
23 119 1
23 151 1
23 183 1
23 311 1
23 343 1
23 375 1
24 24 1
24 56 1
24 88 1
24 120 1
24 152 1
24 184 1
24 312 1
24 344 1
24 376 1
25 25 1
25 57 1
25 89 1
25 121 1
25 153 1
25 185 1
25 313 1
25 345 1
25 377 1
26 26 1
26 58 1
26 90 1
26 122 1
26 154 1
26 186 1
26 314 1
26 346 1
26 378 1
27 27 1
27 59 1
27 91 1
27 123 1
27 155 1
27 187 1
27 315 1
27 347 1
27 379 1
28 28 1
28 60 1
28 92 1
28 124 1
28 156 1
28 188 1
28 316 1
28 348 1
28 380 1
29 29 1
29 61 1
29 93 1
29 125 1
29 157 1
29 189 1
29 317 1
29 349 1
29 381 1
30 30 1
30 62 1
30 94 1
30 126 1
30 158 1
30 190 1
30 318 1
30 350 1
30 382 1
31 31 1
31 63 1
31 95 1
31 127 1
31 159 1
31 191 1
31 319 1
31 351 1
31 383 1
32 32 1
32 64 1
32 96 1
32 128 1
32 160 1
32 192 1
32 320 1
32 352 1
32 384 1
33 33 1
33 65 1
33 81 1
33 129 1
33 161 1
33 177 1
33 321 1
33 353 1
33 369 1
34 34 1
34 66 1
34 82 1
34 130 1
34 162 1
34 178 1
34 322 1
34 354 1
34 370 1
35 35 1
35 67 1
35 83 1
35 131 1
35 163 1
35 179 1
35 323 1
35 355 1
35 371 1
36 36 1
36 68 1
36 84 1
36 132 1
36 164 1
36 180 1
36 324 1
36 356 1
36 372 1
37 37 1
37 69 1
37 85 1
37 133 1
37 165 1
37 181 1
37 325 1
37 357 1
37 373 1
38 38 1
38 70 1
38 86 1
38 134 1
38 166 1
38 182 1
38 326 1
38 358 1
38 374 1
39 39 1
39 71 1
39 87 1
39 135 1
39 167 1
39 183 1
39 327 1
39 359 1
39 375 1
40 40 1
40 72 1
40 88 1
40 136 1
40 168 1
40 184 1
40 328 1
40 360 1
40 376 1
41 41 1
41 73 1
41 89 1
41 137 1
41 169 1
41 185 1
41 329 1
41 361 1
41 377 1
42 42 1
42 74 1
42 90 1
42 138 1
42 170 1
42 186 1
42 330 1
42 362 1
42 378 1
43 43 1
43 75 1
43 91 1
43 139 1
43 171 1
43 187 1
43 331 1
43 363 1
43 379 1
44 44 1
44 76 1
44 92 1
44 140 1
44 172 1
44 188 1
44 332 1
44 364 1
44 380 1
45 45 1
45 77 1
45 93 1
45 141 1
45 173 1
45 189 1
45 333 1
45 365 1
45 381 1
46 46 1
46 78 1
46 94 1
46 142 1
46 174 1
46 190 1
46 334 1
46 366 1
46 382 1
47 47 1
47 79 1
47 95 1
47 143 1
47 175 1
47 191 1
47 335 1
47 367 1
47 383 1
48 48 1
48 80 1
48 96 1
48 144 1
48 176 1
48 192 1
48 336 1
48 368 1
48 384 1
49 1 1
49 49 1
49 65 1
49 193 1
49 241 1
49 257 1
49 385 1
49 433 1
49 449 1
50 2 1
50 50 1
50 66 1
50 194 1
50 242 1
50 258 1
50 386 1
50 434 1
50 450 1
51 3 1
51 51 1
51 67 1
51 195 1
51 243 1
51 259 1
51 387 1
51 435 1
51 451 1
52 4 1
52 52 1
52 68 1
52 196 1
52 244 1
52 260 1
52 388 1
52 436 1
52 452 1
53 5 1
53 53 1
53 69 1
53 197 1
53 245 1
53 261 1
53 389 1
53 437 1
53 453 1
54 6 1
54 54 1
54 70 1
54 198 1
54 246 1
54 262 1
54 390 1
54 438 1
54 454 1
55 7 1
55 55 1
55 71 1
55 199 1
55 247 1
55 263 1
55 391 1
55 439 1
55 455 1
56 8 1
56 56 1
56 72 1
56 200 1
56 248 1
56 264 1
56 392 1
56 440 1
56 456 1
57 9 1
57 57 1
57 73 1
57 201 1
57 249 1
57 265 1
57 393 1
57 441 1
57 457 1
58 10 1
58 58 1
58 74 1
58 202 1
58 250 1
58 266 1
58 394 1
58 442 1
58 458 1
59 11 1
59 59 1
59 75 1
59 203 1
59 251 1
59 267 1
59 395 1
59 443 1
59 459 1
60 12 1
60 60 1
60 76 1
60 204 1
60 252 1
60 268 1
60 396 1
60 444 1
60 460 1
61 13 1
61 61 1
61 77 1
61 205 1
61 253 1
61 269 1
61 397 1
61 445 1
61 461 1
62 14 1
62 62 1
62 78 1
62 206 1
62 254 1
62 270 1
62 398 1
62 446 1
62 462 1
63 15 1
63 63 1
63 79 1
63 207 1
63 255 1
63 271 1
63 399 1
63 447 1
63 463 1
64 16 1
64 64 1
64 80 1
64 208 1
64 256 1
64 272 1
64 400 1
64 448 1
64 464 1
65 17 1
65 49 1
65 81 1
65 209 1
65 241 1
65 273 1
65 401 1
65 433 1
65 465 1
66 18 1
66 50 1
66 82 1
66 210 1
66 242 1
66 274 1
66 402 1
66 434 1
66 466 1
67 19 1
67 51 1
67 83 1
67 211 1
67 243 1
67 275 1
67 403 1
67 435 1
67 467 1
68 20 1
68 52 1
68 84 1
68 212 1
68 244 1
68 276 1
68 404 1
68 436 1
68 468 1
69 21 1
69 53 1
69 85 1
69 213 1
69 245 1
69 277 1
69 405 1
69 437 1
69 469 1
70 22 1
70 54 1
70 86 1
70 214 1
70 246 1
70 278 1
70 406 1
70 438 1
70 470 1
71 23 1
71 55 1
71 87 1
71 215 1
71 247 1
71 279 1
71 407 1
71 439 1
71 471 1
72 24 1
72 56 1
72 88 1
72 216 1
72 248 1
72 280 1
72 408 1
72 440 1
72 472 1
73 25 1
73 57 1
73 89 1
73 217 1
73 249 1
73 281 1
73 409 1
73 441 1
73 473 1
74 26 1
74 58 1
74 90 1
74 218 1
74 250 1
74 282 1
74 410 1
74 442 1
74 474 1
75 27 1
75 59 1
75 91 1
75 219 1
75 251 1
75 283 1
75 411 1
75 443 1
75 475 1
76 28 1
76 60 1
76 92 1
76 220 1
76 252 1
76 284 1
76 412 1
76 444 1
76 476 1
77 29 1
77 61 1
77 93 1
77 221 1
77 253 1
77 285 1
77 413 1
77 445 1
77 477 1
78 30 1
78 62 1
78 94 1
78 222 1
78 254 1
78 286 1
78 414 1
78 446 1
78 478 1
79 31 1
79 63 1
79 95 1
79 223 1
79 255 1
79 287 1
79 415 1
79 447 1
79 479 1
80 32 1
80 64 1
80 96 1
80 224 1
80 256 1
80 288 1
80 416 1
80 448 1
80 480 1
81 33 1
81 65 1
81 81 1
81 225 1
81 257 1
81 273 1
81 417 1
81 449 1
81 465 1
82 34 1
82 66 1
82 82 1
82 226 1
82 258 1
82 274 1
82 418 1
82 450 1
82 466 1
83 35 1
83 67 1
83 83 1
83 227 1
83 259 1
83 275 1
83 419 1
83 451 1
83 467 1
84 36 1
84 68 1
84 84 1
84 228 1
84 260 1
84 276 1
84 420 1
84 452 1
84 468 1
85 37 1
85 69 1
85 85 1
85 229 1
85 261 1
85 277 1
85 421 1
85 453 1
85 469 1
86 38 1
86 70 1
86 86 1
86 230 1
86 262 1
86 278 1
86 422 1
86 454 1
86 470 1
87 39 1
87 71 1
87 87 1
87 231 1
87 263 1
87 279 1
87 423 1
87 455 1
87 471 1
88 40 1
88 72 1
88 88 1
88 232 1
88 264 1
88 280 1
88 424 1
88 456 1
88 472 1
89 41 1
89 73 1
89 89 1
89 233 1
89 265 1
89 281 1
89 425 1
89 457 1
89 473 1
90 42 1
90 74 1
90 90 1
90 234 1
90 266 1
90 282 1
90 426 1
90 458 1
90 474 1
91 43 1
91 75 1
91 91 1
91 235 1
91 267 1
91 283 1
91 427 1
91 459 1
91 475 1
92 44 1
92 76 1
92 92 1
92 236 1
92 268 1
92 284 1
92 428 1
92 460 1
92 476 1
93 45 1
93 77 1
93 93 1
93 237 1
93 269 1
93 285 1
93 429 1
93 461 1
93 477 1
94 46 1
94 78 1
94 94 1
94 238 1
94 270 1
94 286 1
94 430 1
94 462 1
94 478 1
95 47 1
95 79 1
95 95 1
95 239 1
95 271 1
95 287 1
95 431 1
95 463 1
95 479 1
96 48 1
96 80 1
96 96 1
96 240 1
96 272 1
96 288 1
96 432 1
96 464 1
96 480 1
97 97 1
97 145 1
97 161 1
97 193 1
97 241 1
97 257 1
97 481 1
97 529 1
97 545 1
98 98 1
98 146 1
98 162 1
98 194 1
98 242 1
98 258 1
98 482 1
98 530 1
98 546 1
99 99 1
99 147 1
99 163 1
99 195 1
99 243 1
99 259 1
99 483 1
99 531 1
99 547 1
100 100 1
100 148 1
100 164 1
100 196 1
100 244 1
100 260 1
100 484 1
100 532 1
100 548 1
101 101 1
101 149 1
101 165 1
101 197 1
101 245 1
101 261 1
101 485 1
101 533 1
101 549 1
102 102 1
102 150 1
102 166 1
102 198 1
102 246 1
102 262 1
102 486 1
102 534 1
102 550 1
103 103 1
103 151 1
103 167 1
103 199 1
103 247 1
103 263 1
103 487 1
103 535 1
103 551 1
104 104 1
104 152 1
104 168 1
104 200 1
104 248 1
104 264 1
104 488 1
104 536 1
104 552 1
105 105 1
105 153 1
105 169 1
105 201 1
105 249 1
105 265 1
105 489 1
105 537 1
105 553 1
106 106 1
106 154 1
106 170 1
106 202 1
106 250 1
106 266 1
106 490 1
106 538 1
106 554 1
107 107 1
107 155 1
107 171 1
107 203 1
107 251 1
107 267 1
107 491 1
107 539 1
107 555 1
108 108 1
108 156 1
108 172 1
108 204 1
108 252 1
108 268 1
108 492 1
108 540 1
108 556 1
109 109 1
109 157 1
109 173 1
109 205 1
109 253 1
109 269 1
109 493 1
109 541 1
109 557 1
110 110 1
110 158 1
110 174 1
110 206 1
110 254 1
110 270 1
110 494 1
110 542 1
110 558 1
111 111 1
111 159 1
111 175 1
111 207 1
111 255 1
111 271 1
111 495 1
111 543 1
111 559 1
112 112 1
112 160 1
112 176 1
112 208 1
112 256 1
112 272 1
112 496 1
112 544 1
112 560 1
113 113 1
113 145 1
113 177 1
113 209 1
113 241 1
113 273 1
113 497 1
113 529 1
113 561 1
114 114 1
114 146 1
114 178 1
114 210 1
114 242 1
114 274 1
114 498 1
114 530 1
114 562 1
115 115 1
115 147 1
115 179 1
115 211 1
115 243 1
115 275 1
115 499 1
115 531 1
115 563 1
116 116 1
116 148 1
116 180 1
116 212 1
116 244 1
116 276 1
116 500 1
116 532 1
116 564 1
117 117 1
117 149 1
117 181 1
117 213 1
117 245 1
117 277 1
117 501 1
117 533 1
117 565 1
118 118 1
118 150 1
118 182 1
118 214 1
118 246 1
118 278 1
118 502 1
118 534 1
118 566 1
119 119 1
119 151 1
119 183 1
119 215 1
119 247 1
119 279 1
119 503 1
119 535 1
119 567 1
120 120 1
120 152 1
120 184 1
120 216 1
120 248 1
120 280 1
120 504 1
120 536 1
120 568 1
121 121 1
121 153 1
121 185 1
121 217 1
121 249 1
121 281 1
121 505 1
121 537 1
121 569 1
122 122 1
122 154 1
122 186 1
122 218 1
122 250 1
122 282 1
122 506 1
122 538 1
122 570 1
123 123 1
123 155 1
123 187 1
123 219 1
123 251 1
123 283 1
123 507 1
123 539 1
123 571 1
124 124 1
124 156 1
124 188 1
124 220 1
124 252 1
124 284 1
124 508 1
124 540 1
124 572 1
125 125 1
125 157 1
125 189 1
125 221 1
125 253 1
125 285 1
125 509 1
125 541 1
125 573 1
126 126 1
126 158 1
126 190 1
126 222 1
126 254 1
126 286 1
126 510 1
126 542 1
126 574 1
127 127 1
127 159 1
127 191 1
127 223 1
127 255 1
127 287 1
127 511 1
127 543 1
127 575 1
128 128 1
128 160 1
128 192 1
128 224 1
128 256 1
128 288 1
128 512 1
128 544 1
128 576 1
129 129 1
129 161 1
129 177 1
129 225 1
129 257 1
129 273 1
129 513 1
129 545 1
129 561 1
130 130 1
130 162 1
130 178 1
130 226 1
130 258 1
130 274 1
130 514 1
130 546 1
130 562 1
131 131 1
131 163 1
131 179 1
131 227 1
131 259 1
131 275 1
131 515 1
131 547 1
131 563 1
132 132 1
132 164 1
132 180 1
132 228 1
132 260 1
132 276 1
132 516 1
132 548 1
132 564 1
133 133 1
133 165 1
133 181 1
133 229 1
133 261 1
133 277 1
133 517 1
133 549 1
133 565 1
134 134 1
134 166 1
134 182 1
134 230 1
134 262 1
134 278 1
134 518 1
134 550 1
134 566 1
135 135 1
135 167 1
135 183 1
135 231 1
135 263 1
135 279 1
135 519 1
135 551 1
135 567 1
136 136 1
136 168 1
136 184 1
136 232 1
136 264 1
136 280 1
136 520 1
136 552 1
136 568 1
137 137 1
137 169 1
137 185 1
137 233 1
137 265 1
137 281 1
137 521 1
137 553 1
137 569 1
138 138 1
138 170 1
138 186 1
138 234 1
138 266 1
138 282 1
138 522 1
138 554 1
138 570 1
139 139 1
139 171 1
139 187 1
139 235 1
139 267 1
139 283 1
139 523 1
139 555 1
139 571 1
140 140 1
140 172 1
140 188 1
140 236 1
140 268 1
140 284 1
140 524 1
140 556 1
140 572 1
141 141 1
141 173 1
141 189 1
141 237 1
141 269 1
141 285 1
141 525 1
141 557 1
141 573 1
142 142 1
142 174 1
142 190 1
142 238 1
142 270 1
142 286 1
142 526 1
142 558 1
142 574 1
143 143 1
143 175 1
143 191 1
143 239 1
143 271 1
143 287 1
143 527 1
143 559 1
143 575 1
144 144 1
144 176 1
144 192 1
144 240 1
144 272 1
144 288 1
144 528 1
144 560 1
144 576 1
145 1 1
145 77 1
145 88 1
145 97 1
145 173 1
145 184 1
145 492 1
145 545 1
145 570 1
146 2 1
146 79 1
146 91 1
146 98 1
146 175 1
146 187 1
146 483 1
146 546 1
146 573 1
147 3 1
147 66 1
147 93 1
147 99 1
147 162 1
147 189 1
147 494 1
147 547 1
147 561 1
148 4 1
148 80 1
148 94 1
148 100 1
148 176 1
148 190 1
148 486 1
148 548 1
148 575 1
149 5 1
149 70 1
149 82 1
149 101 1
149 166 1
149 178 1
149 496 1
149 549 1
149 563 1
150 6 1
150 68 1
150 95 1
150 102 1
150 164 1
150 191 1
150 485 1
150 550 1
150 562 1
151 7 1
151 74 1
151 85 1
151 103 1
151 170 1
151 181 1
151 489 1
151 551 1
151 576 1
152 8 1
152 73 1
152 84 1
152 104 1
152 169 1
152 180 1
152 490 1
152 552 1
152 566 1
153 9 1
153 71 1
153 96 1
153 105 1
153 167 1
153 192 1
153 488 1
153 553 1
153 564 1
154 10 1
154 72 1
154 86 1
154 106 1
154 168 1
154 182 1
154 487 1
154 554 1
154 565 1
155 11 1
155 76 1
155 87 1
155 107 1
155 172 1
155 183 1
155 493 1
155 555 1
155 569 1
156 12 1
156 65 1
156 90 1
156 108 1
156 161 1
156 186 1
156 491 1
156 556 1
156 567 1
157 13 1
157 75 1
157 89 1
157 109 1
157 171 1
157 185 1
157 481 1
157 557 1
157 568 1
158 14 1
158 67 1
158 81 1
158 110 1
158 163 1
158 177 1
158 495 1
158 558 1
158 572 1
159 15 1
159 78 1
159 92 1
159 111 1
159 174 1
159 188 1
159 482 1
159 559 1
159 571 1
160 16 1
160 69 1
160 83 1
160 112 1
160 165 1
160 179 1
160 484 1
160 560 1
160 574 1
161 23 1
161 34 1
161 88 1
161 119 1
161 130 1
161 184 1
161 505 1
161 515 1
161 570 1
162 17 1
162 36 1
162 91 1
162 113 1
162 132 1
162 187 1
162 508 1
162 518 1
162 573 1
163 28 1
163 38 1
163 93 1
163 124 1
163 134 1
163 189 1
163 507 1
163 517 1
163 561 1
164 18 1
164 39 1
164 94 1
164 114 1
164 135 1
164 190 1
164 499 1
164 521 1
164 575 1
165 30 1
165 40 1
165 82 1
165 126 1
165 136 1
165 178 1
165 511 1
165 522 1
165 563 1
166 19 1
166 41 1
166 95 1
166 115 1
166 137 1
166 191 1
166 510 1
166 520 1
166 562 1
167 20 1
167 33 1
167 85 1
167 116 1
167 129 1
167 181 1
167 502 1
167 524 1
167 576 1
168 21 1
168 43 1
168 84 1
168 117 1
168 139 1
168 180 1
168 512 1
168 525 1
168 566 1
169 22 1
169 44 1
169 96 1
169 118 1
169 140 1
169 192 1
169 501 1
169 523 1
169 564 1
170 32 1
170 45 1
170 86 1
170 128 1
170 141 1
170 182 1
170 500 1
170 513 1
170 565 1
171 24 1
171 46 1
171 87 1
171 120 1
171 142 1
171 183 1
171 506 1
171 527 1
171 569 1
172 25 1
172 35 1
172 90 1
172 121 1
172 131 1
172 186 1
172 504 1
172 526 1
172 567 1
173 26 1
173 47 1
173 89 1
173 122 1
173 143 1
173 185 1
173 503 1
173 514 1
173 568 1
174 27 1
174 37 1
174 81 1
174 123 1
174 133 1
174 177 1
174 509 1
174 528 1
174 572 1
175 29 1
175 48 1
175 92 1
175 125 1
175 144 1
175 188 1
175 497 1
175 516 1
175 571 1
176 31 1
176 42 1
176 83 1
176 127 1
176 138 1
176 179 1
176 498 1
176 519 1
176 574 1
177 34 1
177 51 1
177 77 1
177 130 1
177 147 1
177 173 1
177 515 1
177 542 1
177 545 1
178 36 1
178 54 1
178 79 1
178 132 1
178 150 1
178 175 1
178 518 1
178 533 1
178 546 1
179 38 1
179 53 1
179 66 1
179 134 1
179 149 1
179 162 1
179 517 1
179 544 1
179 547 1
180 39 1
180 57 1
180 80 1
180 135 1
180 153 1
180 176 1
180 521 1
180 536 1
180 548 1
181 40 1
181 58 1
181 70 1
181 136 1
181 154 1
181 166 1
181 522 1
181 535 1
181 549 1
182 41 1
182 56 1
182 68 1
182 137 1
182 152 1
182 164 1
182 520 1
182 538 1
182 550 1
183 33 1
183 60 1
183 74 1
183 129 1
183 156 1
183 170 1
183 524 1
183 539 1
183 551 1
184 43 1
184 61 1
184 73 1
184 139 1
184 157 1
184 169 1
184 525 1
184 529 1
184 552 1
185 44 1
185 59 1
185 71 1
185 140 1
185 155 1
185 167 1
185 523 1
185 541 1
185 553 1
186 45 1
186 49 1
186 72 1
186 141 1
186 145 1
186 168 1
186 513 1
186 540 1
186 554 1
187 46 1
187 63 1
187 76 1
187 142 1
187 159 1
187 172 1
187 527 1
187 530 1
187 555 1
188 35 1
188 62 1
188 65 1
188 131 1
188 158 1
188 161 1
188 526 1
188 543 1
188 556 1
189 47 1
189 50 1
189 75 1
189 143 1
189 146 1
189 171 1
189 514 1
189 531 1
189 557 1
190 37 1
190 64 1
190 67 1
190 133 1
190 160 1
190 163 1
190 528 1
190 532 1
190 558 1
191 48 1
191 52 1
191 78 1
191 144 1
191 148 1
191 174 1
191 516 1
191 534 1
191 559 1
192 42 1
192 55 1
192 69 1
192 138 1
192 151 1
192 165 1
192 519 1
192 537 1
192 560 1
193 1 1
193 77 1
193 88 1
193 299 1
193 364 1
193 375 1
193 396 1
193 449 1
193 474 1
194 2 1
194 79 1
194 91 1
194 302 1
194 355 1
194 369 1
194 387 1
194 450 1
194 477 1
195 3 1
195 66 1
195 93 1
195 303 1
195 366 1
195 380 1
195 398 1
195 451 1
195 465 1
196 4 1
196 80 1
196 94 1
196 293 1
196 358 1
196 370 1
196 390 1
196 452 1
196 479 1
197 5 1
197 70 1
197 82 1
197 292 1
197 368 1
197 382 1
197 400 1
197 453 1
197 467 1
198 6 1
198 68 1
198 95 1
198 304 1
198 357 1
198 371 1
198 389 1
198 454 1
198 466 1
199 7 1
199 74 1
199 85 1
199 296 1
199 361 1
199 372 1
199 393 1
199 455 1
199 480 1
200 8 1
200 73 1
200 84 1
200 295 1
200 362 1
200 373 1
200 394 1
200 456 1
200 470 1
201 9 1
201 71 1
201 96 1
201 298 1
201 360 1
201 374 1
201 392 1
201 457 1
201 468 1
202 10 1
202 72 1
202 86 1
202 297 1
202 359 1
202 384 1
202 391 1
202 458 1
202 469 1
203 11 1
203 76 1
203 87 1
203 289 1
203 365 1
203 376 1
203 397 1
203 459 1
203 473 1
204 12 1
204 65 1
204 90 1
204 301 1
204 363 1
204 377 1
204 395 1
204 460 1
204 471 1
205 13 1
205 75 1
205 89 1
205 300 1
205 353 1
205 378 1
205 385 1
205 461 1
205 472 1
206 14 1
206 67 1
206 81 1
206 290 1
206 367 1
206 379 1
206 399 1
206 462 1
206 476 1
207 15 1
207 78 1
207 92 1
207 291 1
207 354 1
207 381 1
207 386 1
207 463 1
207 475 1
208 16 1
208 69 1
208 83 1
208 294 1
208 356 1
208 383 1
208 388 1
208 464 1
208 478 1
209 23 1
209 34 1
209 88 1
209 312 1
209 334 1
209 375 1
209 409 1
209 419 1
209 474 1
210 17 1
210 36 1
210 91 1
210 315 1
210 325 1
210 369 1
210 412 1
210 422 1
210 477 1
211 28 1
211 38 1
211 93 1
211 317 1
211 336 1
211 380 1
211 411 1
211 421 1
211 465 1
212 18 1
212 39 1
212 94 1
212 318 1
212 328 1
212 370 1
212 403 1
212 425 1
212 479 1
213 30 1
213 40 1
213 82 1
213 306 1
213 327 1
213 382 1
213 415 1
213 426 1
213 467 1
214 19 1
214 41 1
214 95 1
214 319 1
214 330 1
214 371 1
214 414 1
214 424 1
214 466 1
215 20 1
215 33 1
215 85 1
215 309 1
215 331 1
215 372 1
215 406 1
215 428 1
215 480 1
216 21 1
216 43 1
216 84 1
216 308 1
216 321 1
216 373 1
216 416 1
216 429 1
216 470 1
217 22 1
217 44 1
217 96 1
217 320 1
217 333 1
217 374 1
217 405 1
217 427 1
217 468 1
218 32 1
218 45 1
218 86 1
218 310 1
218 332 1
218 384 1
218 404 1
218 417 1
218 469 1
219 24 1
219 46 1
219 87 1
219 311 1
219 322 1
219 376 1
219 410 1
219 431 1
219 473 1
220 25 1
220 35 1
220 90 1
220 314 1
220 335 1
220 377 1
220 408 1
220 430 1
220 471 1
221 26 1
221 47 1
221 89 1
221 313 1
221 323 1
221 378 1
221 407 1
221 418 1
221 472 1
222 27 1
222 37 1
222 81 1
222 305 1
222 324 1
222 379 1
222 413 1
222 432 1
222 476 1
223 29 1
223 48 1
223 92 1
223 316 1
223 326 1
223 381 1
223 401 1
223 420 1
223 475 1
224 31 1
224 42 1
224 83 1
224 307 1
224 329 1
224 383 1
224 402 1
224 423 1
224 478 1
225 34 1
225 51 1
225 77 1
225 334 1
225 351 1
225 364 1
225 419 1
225 446 1
225 449 1
226 36 1
226 54 1
226 79 1
226 325 1
226 352 1
226 355 1
226 422 1
226 437 1
226 450 1
227 38 1
227 53 1
227 66 1
227 336 1
227 340 1
227 366 1
227 421 1
227 448 1
227 451 1
228 39 1
228 57 1
228 80 1
228 328 1
228 346 1
228 358 1
228 425 1
228 440 1
228 452 1
229 40 1
229 58 1
229 70 1
229 327 1
229 345 1
229 368 1
229 426 1
229 439 1
229 453 1
230 41 1
230 56 1
230 68 1
230 330 1
230 343 1
230 357 1
230 424 1
230 442 1
230 454 1
231 33 1
231 60 1
231 74 1
231 331 1
231 349 1
231 361 1
231 428 1
231 443 1
231 455 1
232 43 1
232 61 1
232 73 1
232 321 1
232 348 1
232 362 1
232 429 1
232 433 1
232 456 1
233 44 1
233 59 1
233 71 1
233 333 1
233 337 1
233 360 1
233 427 1
233 445 1
233 457 1
234 45 1
234 49 1
234 72 1
234 332 1
234 347 1
234 359 1
234 417 1
234 444 1
234 458 1
235 46 1
235 63 1
235 76 1
235 322 1
235 339 1
235 365 1
235 431 1
235 434 1
235 459 1
236 35 1
236 62 1
236 65 1
236 335 1
236 338 1
236 363 1
236 430 1
236 447 1
236 460 1
237 47 1
237 50 1
237 75 1
237 323 1
237 350 1
237 353 1
237 418 1
237 435 1
237 461 1
238 37 1
238 64 1
238 67 1
238 324 1
238 342 1
238 367 1
238 432 1
238 436 1
238 462 1
239 48 1
239 52 1
239 78 1
239 326 1
239 341 1
239 354 1
239 420 1
239 438 1
239 463 1
240 42 1
240 55 1
240 69 1
240 329 1
240 344 1
240 356 1
240 423 1
240 441 1
240 464 1
241 97 1
241 173 1
241 184 1
241 194 1
241 271 1
241 283 1
241 299 1
241 364 1
241 375 1
242 98 1
242 175 1
242 187 1
242 196 1
242 272 1
242 286 1
242 302 1
242 355 1
242 369 1
243 99 1
243 162 1
243 189 1
243 198 1
243 260 1
243 287 1
243 303 1
243 366 1
243 380 1
244 100 1
244 176 1
244 190 1
244 199 1
244 266 1
244 277 1
244 293 1
244 358 1
244 370 1
245 101 1
245 166 1
245 178 1
245 200 1
245 265 1
245 276 1
245 292 1
245 368 1
245 382 1
246 102 1
246 164 1
246 191 1
246 201 1
246 263 1
246 288 1
246 304 1
246 357 1
246 371 1
247 103 1
247 170 1
247 181 1
247 193 1
247 269 1
247 280 1
247 296 1
247 361 1
247 372 1
248 104 1
248 169 1
248 180 1
248 203 1
248 268 1
248 279 1
248 295 1
248 362 1
248 373 1
249 105 1
249 167 1
249 192 1
249 204 1
249 257 1
249 282 1
249 298 1
249 360 1
249 374 1
250 106 1
250 168 1
250 182 1
250 205 1
250 267 1
250 281 1
250 297 1
250 359 1
250 384 1
251 107 1
251 172 1
251 183 1
251 206 1
251 259 1
251 273 1
251 289 1
251 365 1
251 376 1
252 108 1
252 161 1
252 186 1
252 195 1
252 258 1
252 285 1
252 301 1
252 363 1
252 377 1
253 109 1
253 171 1
253 185 1
253 207 1
253 270 1
253 284 1
253 300 1
253 353 1
253 378 1
254 110 1
254 163 1
254 177 1
254 197 1
254 262 1
254 274 1
254 290 1
254 367 1
254 379 1
255 111 1
255 174 1
255 188 1
255 208 1
255 261 1
255 275 1
255 291 1
255 354 1
255 381 1
256 112 1
256 165 1
256 179 1
256 202 1
256 264 1
256 278 1
256 294 1
256 356 1
256 383 1
257 119 1
257 130 1
257 184 1
257 209 1
257 228 1
257 283 1
257 312 1
257 334 1
257 375 1
258 113 1
258 132 1
258 187 1
258 210 1
258 231 1
258 286 1
258 315 1
258 325 1
258 369 1
259 124 1
259 134 1
259 189 1
259 211 1
259 233 1
259 287 1
259 317 1
259 336 1
259 380 1
260 114 1
260 135 1
260 190 1
260 212 1
260 225 1
260 277 1
260 318 1
260 328 1
260 370 1
261 126 1
261 136 1
261 178 1
261 213 1
261 235 1
261 276 1
261 306 1
261 327 1
261 382 1
262 115 1
262 137 1
262 191 1
262 214 1
262 236 1
262 288 1
262 319 1
262 330 1
262 371 1
263 116 1
263 129 1
263 181 1
263 215 1
263 226 1
263 280 1
263 309 1
263 331 1
263 372 1
264 117 1
264 139 1
264 180 1
264 216 1
264 238 1
264 279 1
264 308 1
264 321 1
264 373 1
265 118 1
265 140 1
265 192 1
265 217 1
265 227 1
265 282 1
265 320 1
265 333 1
265 374 1
266 128 1
266 141 1
266 182 1
266 218 1
266 239 1
266 281 1
266 310 1
266 332 1
266 384 1
267 120 1
267 142 1
267 183 1
267 219 1
267 229 1
267 273 1
267 311 1
267 322 1
267 376 1
268 121 1
268 131 1
268 186 1
268 220 1
268 230 1
268 285 1
268 314 1
268 335 1
268 377 1
269 122 1
269 143 1
269 185 1
269 221 1
269 240 1
269 284 1
269 313 1
269 323 1
269 378 1
270 123 1
270 133 1
270 177 1
270 222 1
270 232 1
270 274 1
270 305 1
270 324 1
270 379 1
271 125 1
271 144 1
271 188 1
271 223 1
271 234 1
271 275 1
271 316 1
271 326 1
271 381 1
272 127 1
272 138 1
272 179 1
272 224 1
272 237 1
272 278 1
272 307 1
272 329 1
272 383 1
273 130 1
273 147 1
273 173 1
273 228 1
273 246 1
273 271 1
273 334 1
273 351 1
273 364 1
274 132 1
274 150 1
274 175 1
274 231 1
274 249 1
274 272 1
274 325 1
274 352 1
274 355 1
275 134 1
275 149 1
275 162 1
275 233 1
275 248 1
275 260 1
275 336 1
275 340 1
275 366 1
276 135 1
276 153 1
276 176 1
276 225 1
276 252 1
276 266 1
276 328 1
276 346 1
276 358 1
277 136 1
277 154 1
277 166 1
277 235 1
277 253 1
277 265 1
277 327 1
277 345 1
277 368 1
278 137 1
278 152 1
278 164 1
278 236 1
278 251 1
278 263 1
278 330 1
278 343 1
278 357 1
279 129 1
279 156 1
279 170 1
279 226 1
279 243 1
279 269 1
279 331 1
279 349 1
279 361 1
280 139 1
280 157 1
280 169 1
280 238 1
280 255 1
280 268 1
280 321 1
280 348 1
280 362 1
281 140 1
281 155 1
281 167 1
281 227 1
281 254 1
281 257 1
281 333 1
281 337 1
281 360 1
282 141 1
282 145 1
282 168 1
282 239 1
282 242 1
282 267 1
282 332 1
282 347 1
282 359 1
283 142 1
283 159 1
283 172 1
283 229 1
283 256 1
283 259 1
283 322 1
283 339 1
283 365 1
284 131 1
284 158 1
284 161 1
284 230 1
284 245 1
284 258 1
284 335 1
284 338 1
284 363 1
285 143 1
285 146 1
285 171 1
285 240 1
285 244 1
285 270 1
285 323 1
285 350 1
285 353 1
286 133 1
286 160 1
286 163 1
286 232 1
286 250 1
286 262 1
286 324 1
286 342 1
286 367 1
287 144 1
287 148 1
287 174 1
287 234 1
287 247 1
287 261 1
287 326 1
287 341 1
287 354 1
288 138 1
288 151 1
288 165 1
288 237 1
288 241 1
288 264 1
288 329 1
288 344 1
288 356 1
