%%MatrixMarket matrix coordinate integer general
234 468 2106
1 1 1
1 40 1
1 53 1
1 79 1
1 118 1
1 131 1
1 235 1
1 274 1
1 287 1
2 2 1
2 41 1
2 54 1
2 80 1
2 119 1
2 132 1
2 236 1
2 275 1
2 288 1
3 3 1
3 42 1
3 55 1
3 81 1
3 120 1
3 133 1
3 237 1
3 276 1
3 289 1
4 4 1
4 43 1
4 56 1
4 82 1
4 121 1
4 134 1
4 238 1
4 277 1
4 290 1
5 5 1
5 44 1
5 57 1
5 83 1
5 122 1
5 135 1
5 239 1
5 278 1
5 291 1
6 6 1
6 45 1
6 58 1
6 84 1
6 123 1
6 136 1
6 240 1
6 279 1
6 292 1
7 7 1
7 46 1
7 59 1
7 85 1
7 124 1
7 137 1
7 241 1
7 280 1
7 293 1
8 8 1
8 47 1
8 60 1
8 86 1
8 125 1
8 138 1
8 242 1
8 281 1
8 294 1
9 9 1
9 48 1
9 61 1
9 87 1
9 126 1
9 139 1
9 243 1
9 282 1
9 295 1
10 10 1
10 49 1
10 62 1
10 88 1
10 127 1
10 140 1
10 244 1
10 283 1
10 296 1
11 11 1
11 50 1
11 63 1
11 89 1
11 128 1
11 141 1
11 245 1
11 284 1
11 297 1
12 12 1
12 51 1
12 64 1
12 90 1
12 129 1
12 142 1
12 246 1
12 285 1
12 298 1
13 13 1
13 52 1
13 65 1
13 91 1
13 130 1
13 143 1
13 247 1
13 286 1
13 299 1
14 14 1
14 40 1
14 66 1
14 92 1
14 118 1
14 144 1
14 248 1
14 274 1
14 300 1
15 15 1
15 41 1
15 67 1
15 93 1
15 119 1
15 145 1
15 249 1
15 275 1
15 301 1
16 16 1
16 42 1
16 68 1
16 94 1
16 120 1
16 146 1
16 250 1
16 276 1
16 302 1
17 17 1
17 43 1
17 69 1
17 95 1
17 121 1
17 147 1
17 251 1
17 277 1
17 303 1
18 18 1
18 44 1
18 70 1
18 96 1
18 122 1
18 148 1
18 252 1
18 278 1
18 304 1
19 19 1
19 45 1
19 71 1
19 97 1
19 123 1
19 149 1
19 253 1
19 279 1
19 305 1
20 20 1
20 46 1
20 72 1
20 98 1
20 124 1
20 150 1
20 254 1
20 280 1
20 306 1
21 21 1
21 47 1
21 73 1
21 99 1
21 125 1
21 151 1
21 255 1
21 281 1
21 307 1
22 22 1
22 48 1
22 74 1
22 100 1
22 126 1
22 152 1
22 256 1
22 282 1
22 308 1
23 23 1
23 49 1
23 75 1
23 101 1
23 127 1
23 153 1
23 257 1
23 283 1
23 309 1
24 24 1
24 50 1
24 76 1
24 102 1
24 128 1
24 154 1
24 258 1
24 284 1
24 310 1
25 25 1
25 51 1
25 77 1
25 103 1
25 129 1
25 155 1
25 259 1
25 285 1
25 311 1
26 26 1
26 52 1
26 78 1
26 104 1
26 130 1
26 156 1
26 260 1
26 286 1
26 312 1
27 27 1
27 53 1
27 66 1
27 105 1
27 131 1
27 144 1
27 261 1
27 287 1
27 300 1
28 28 1
28 54 1
28 67 1
28 106 1
28 132 1
28 145 1
28 262 1
28 288 1
28 301 1
29 29 1
29 55 1
29 68 1
29 107 1
29 133 1
29 146 1
29 263 1
29 289 1
29 302 1
30 30 1
30 56 1
30 69 1
30 108 1
30 134 1
30 147 1
30 264 1
30 290 1
30 303 1
31 31 1
31 57 1
31 70 1
31 109 1
31 135 1
31 148 1
31 265 1
31 291 1
31 304 1
32 32 1
32 58 1
32 71 1
32 110 1
32 136 1
32 149 1
32 266 1
32 292 1
32 305 1
33 33 1
33 59 1
33 72 1
33 111 1
33 137 1
33 150 1
33 267 1
33 293 1
33 306 1
34 34 1
34 60 1
34 73 1
34 112 1
34 138 1
34 151 1
34 268 1
34 294 1
34 307 1
35 35 1
35 61 1
35 74 1
35 113 1
35 139 1
35 152 1
35 269 1
35 295 1
35 308 1
36 36 1
36 62 1
36 75 1
36 114 1
36 140 1
36 153 1
36 270 1
36 296 1
36 309 1
37 37 1
37 63 1
37 76 1
37 115 1
37 141 1
37 154 1
37 271 1
37 297 1
37 310 1
38 38 1
38 64 1
38 77 1
38 116 1
38 142 1
38 155 1
38 272 1
38 298 1
38 311 1
39 39 1
39 65 1
39 78 1
39 117 1
39 143 1
39 156 1
39 273 1
39 299 1
39 312 1
40 1 1
40 40 1
40 53 1
40 157 1
40 196 1
40 209 1
40 313 1
40 352 1
40 365 1
41 2 1
41 41 1
41 54 1
41 158 1
41 197 1
41 210 1
41 314 1
41 353 1
41 366 1
42 3 1
42 42 1
42 55 1
42 159 1
42 198 1
42 211 1
42 315 1
42 354 1
42 367 1
43 4 1
43 43 1
43 56 1
43 160 1
43 199 1
43 212 1
43 316 1
43 355 1
43 368 1
44 5 1
44 44 1
44 57 1
44 161 1
44 200 1
44 213 1
44 317 1
44 356 1
44 369 1
45 6 1
45 45 1
45 58 1
45 162 1
45 201 1
45 214 1
45 318 1
45 357 1
45 370 1
46 7 1
46 46 1
46 59 1
46 163 1
46 202 1
46 215 1
46 319 1
46 358 1
46 371 1
47 8 1
47 47 1
47 60 1
47 164 1
47 203 1
47 216 1
47 320 1
47 359 1
47 372 1
48 9 1
48 48 1
48 61 1
48 165 1
48 204 1
48 217 1
48 321 1
48 360 1
48 373 1
49 10 1
49 49 1
49 62 1
49 166 1
49 205 1
49 218 1
49 322 1
49 361 1
49 374 1
50 11 1
50 50 1
50 63 1
50 167 1
50 206 1
50 219 1
50 323 1
50 362 1
50 375 1
51 12 1
51 51 1
51 64 1
51 168 1
51 207 1
51 220 1
51 324 1
51 363 1
51 376 1
52 13 1
52 52 1
52 65 1
52 169 1
52 208 1
52 221 1
52 325 1
52 364 1
52 377 1
53 14 1
53 40 1
53 66 1
53 170 1
53 196 1
53 222 1
53 326 1
53 352 1
53 378 1
54 15 1
54 41 1
54 67 1
54 171 1
54 197 1
54 223 1
54 327 1
54 353 1
54 379 1
55 16 1
55 42 1
55 68 1
55 172 1
55 198 1
55 224 1
55 328 1
55 354 1
55 380 1
56 17 1
56 43 1
56 69 1
56 173 1
56 199 1
56 225 1
56 329 1
56 355 1
56 381 1
57 18 1
57 44 1
57 70 1
57 174 1
57 200 1
57 226 1
57 330 1
57 356 1
57 382 1
58 19 1
58 45 1
58 71 1
58 175 1
58 201 1
58 227 1
58 331 1
58 357 1
58 383 1
59 20 1
59 46 1
59 72 1
59 176 1
59 202 1
59 228 1
59 332 1
59 358 1
59 384 1
60 21 1
60 47 1
60 73 1
60 177 1
60 203 1
60 229 1
60 333 1
60 359 1
60 385 1
61 22 1
61 48 1
61 74 1
61 178 1
61 204 1
61 230 1
61 334 1
61 360 1
61 386 1
62 23 1
62 49 1
62 75 1
62 179 1
62 205 1
62 231 1
62 335 1
62 361 1
62 387 1
63 24 1
63 50 1
63 76 1
63 180 1
63 206 1
63 232 1
63 336 1
63 362 1
63 388 1
64 25 1
64 51 1
64 77 1
64 181 1
64 207 1
64 233 1
64 337 1
64 363 1
64 389 1
65 26 1
65 52 1
65 78 1
65 182 1
65 208 1
65 234 1
65 338 1
65 364 1
65 390 1
66 27 1
66 53 1
66 66 1
66 183 1
66 209 1
66 222 1
66 339 1
66 365 1
66 378 1
67 28 1
67 54 1
67 67 1
67 184 1
67 210 1
67 223 1
67 340 1
67 366 1
67 379 1
68 29 1
68 55 1
68 68 1
68 185 1
68 211 1
68 224 1
68 341 1
68 367 1
68 380 1
69 30 1
69 56 1
69 69 1
69 186 1
69 212 1
69 225 1
69 342 1
69 368 1
69 381 1
70 31 1
70 57 1
70 70 1
70 187 1
70 213 1
70 226 1
70 343 1
70 369 1
70 382 1
71 32 1
71 58 1
71 71 1
71 188 1
71 214 1
71 227 1
71 344 1
71 370 1
71 383 1
72 33 1
72 59 1
72 72 1
72 189 1
72 215 1
72 228 1
72 345 1
72 371 1
72 384 1
73 34 1
73 60 1
73 73 1
73 190 1
73 216 1
73 229 1
73 346 1
73 372 1
73 385 1
74 35 1
74 61 1
74 74 1
74 191 1
74 217 1
74 230 1
74 347 1
74 373 1
74 386 1
75 36 1
75 62 1
75 75 1
75 192 1
75 218 1
75 231 1
75 348 1
75 374 1
75 387 1
76 37 1
76 63 1
76 76 1
76 193 1
76 219 1
76 232 1
76 349 1
76 375 1
76 388 1
77 38 1
77 64 1
77 77 1
77 194 1
77 220 1
77 233 1
77 350 1
77 376 1
77 389 1
78 39 1
78 65 1
78 78 1
78 195 1
78 221 1
78 234 1
78 351 1
78 377 1
78 390 1
79 79 1
79 118 1
79 131 1
79 157 1
79 196 1
79 209 1
79 391 1
79 430 1
79 443 1
80 80 1
80 119 1
80 132 1
80 158 1
80 197 1
80 210 1
80 392 1
80 431 1
80 444 1
81 81 1
81 120 1
81 133 1
81 159 1
81 198 1
81 211 1
81 393 1
81 432 1
81 445 1
82 82 1
82 121 1
82 134 1
82 160 1
82 199 1
82 212 1
82 394 1
82 433 1
82 446 1
83 83 1
83 122 1
83 135 1
83 161 1
83 200 1
83 213 1
83 395 1
83 434 1
83 447 1
84 84 1
84 123 1
84 136 1
84 162 1
84 201 1
84 214 1
84 396 1
84 435 1
84 448 1
85 85 1
85 124 1
85 137 1
85 163 1
85 202 1
85 215 1
85 397 1
85 436 1
85 449 1
86 86 1
86 125 1
86 138 1
86 164 1
86 203 1
86 216 1
86 398 1
86 437 1
86 450 1
87 87 1
87 126 1
87 139 1
87 165 1
87 204 1
87 217 1
87 399 1
87 438 1
87 451 1
88 88 1
88 127 1
88 140 1
88 166 1
88 205 1
88 218 1
88 400 1
88 439 1
88 452 1
89 89 1
89 128 1
89 141 1
89 167 1
89 206 1
89 219 1
89 401 1
89 440 1
89 453 1
90 90 1
90 129 1
90 142 1
90 168 1
90 207 1
90 220 1
90 402 1
90 441 1
90 454 1
91 91 1
91 130 1
91 143 1
91 169 1
91 208 1
91 221 1
91 403 1
91 442 1
91 455 1
92 92 1
92 118 1
92 144 1
92 170 1
92 196 1
92 222 1
92 404 1
92 430 1
92 456 1
93 93 1
93 119 1
93 145 1
93 171 1
93 197 1
93 223 1
93 405 1
93 431 1
93 457 1
94 94 1
94 120 1
94 146 1
94 172 1
94 198 1
94 224 1
94 406 1
94 432 1
94 458 1
95 95 1
95 121 1
95 147 1
95 173 1
95 199 1
95 225 1
95 407 1
95 433 1
95 459 1
96 96 1
96 122 1
96 148 1
96 174 1
96 200 1
96 226 1
96 408 1
96 434 1
96 460 1
97 97 1
97 123 1
97 149 1
97 175 1
97 201 1
97 227 1
97 409 1
97 435 1
97 461 1
98 98 1
98 124 1
98 150 1
98 176 1
98 202 1
98 228 1
98 410 1
98 436 1
98 462 1
99 99 1
99 125 1
99 151 1
99 177 1
99 203 1
99 229 1
99 411 1
99 437 1
99 463 1
100 100 1
100 126 1
100 152 1
100 178 1
100 204 1
100 230 1
100 412 1
100 438 1
100 464 1
101 101 1
101 127 1
101 153 1
101 179 1
101 205 1
101 231 1
101 413 1
101 439 1
101 465 1
102 102 1
102 128 1
102 154 1
102 180 1
102 206 1
102 232 1
102 414 1
102 440 1
102 466 1
103 103 1
103 129 1
103 155 1
103 181 1
103 207 1
103 233 1
103 415 1
103 441 1
103 467 1
104 104 1
104 130 1
104 156 1
104 182 1
104 208 1
104 234 1
104 416 1
104 442 1
104 468 1
105 105 1
105 131 1
105 144 1
105 183 1
105 209 1
105 222 1
105 417 1
105 443 1
105 456 1
106 106 1
106 132 1
106 145 1
106 184 1
106 210 1
106 223 1
106 418 1
106 444 1
106 457 1
107 107 1
107 133 1
107 146 1
107 185 1
107 211 1
107 224 1
107 419 1
107 445 1
107 458 1
108 108 1
108 134 1
108 147 1
108 186 1
108 212 1
108 225 1
108 420 1
108 446 1
108 459 1
109 109 1
109 135 1
109 148 1
109 187 1
109 213 1
109 226 1
109 421 1
109 447 1
109 460 1
110 110 1
110 136 1
110 149 1
110 188 1
110 214 1
110 227 1
110 422 1
110 448 1
110 461 1
111 111 1
111 137 1
111 150 1
111 189 1
111 215 1
111 228 1
111 423 1
111 449 1
111 462 1
112 112 1
112 138 1
112 151 1
112 190 1
112 216 1
112 229 1
112 424 1
112 450 1
112 463 1
113 113 1
113 139 1
113 152 1
113 191 1
113 217 1
113 230 1
113 425 1
113 451 1
113 464 1
114 114 1
114 140 1
114 153 1
114 192 1
114 218 1
114 231 1
114 426 1
114 452 1
114 465 1
115 115 1
115 141 1
115 154 1
115 193 1
115 219 1
115 232 1
115 427 1
115 453 1
115 466 1
116 116 1
116 142 1
116 155 1
116 194 1
116 220 1
116 233 1
116 428 1
116 454 1
116 467 1
117 117 1
117 143 1
117 156 1
117 195 1
117 221 1
117 234 1
117 429 1
117 455 1
117 468 1
118 1 1
118 45 1
118 55 1
118 79 1
118 123 1
118 133 1
118 157 1
118 201 1
118 211 1
119 2 1
119 46 1
119 56 1
119 80 1
119 124 1
119 134 1
119 158 1
119 202 1
119 212 1
120 3 1
120 47 1
120 57 1
120 81 1
120 125 1
120 135 1
120 159 1
120 203 1
120 213 1
121 4 1
121 48 1
121 58 1
121 82 1
121 126 1
121 136 1
121 160 1
121 204 1
121 214 1
122 5 1
122 49 1
122 59 1
122 83 1
122 127 1
122 137 1
122 161 1
122 205 1
122 215 1
123 6 1
123 50 1
123 60 1
123 84 1
123 128 1
123 138 1
123 162 1
123 206 1
123 216 1
124 7 1
124 51 1
124 61 1
124 85 1
124 129 1
124 139 1
124 163 1
124 207 1
124 217 1
125 8 1
125 52 1
125 62 1
125 86 1
125 130 1
125 140 1
125 164 1
125 208 1
125 218 1
126 9 1
126 40 1
126 63 1
126 87 1
126 118 1
126 141 1
126 165 1
126 196 1
126 219 1
127 10 1
127 41 1
127 64 1
127 88 1
127 119 1
127 142 1
127 166 1
127 197 1
127 220 1
128 11 1
128 42 1
128 65 1
128 89 1
128 120 1
128 143 1
128 167 1
128 198 1
128 221 1
129 12 1
129 43 1
129 53 1
129 90 1
129 121 1
129 131 1
129 168 1
129 199 1
129 209 1
130 13 1
130 44 1
130 54 1
130 91 1
130 122 1
130 132 1
130 169 1
130 200 1
130 210 1
131 21 1
131 45 1
131 67 1
131 99 1
131 123 1
131 145 1
131 177 1
131 201 1
131 223 1
132 22 1
132 46 1
132 68 1
132 100 1
132 124 1
132 146 1
132 178 1
132 202 1
132 224 1
133 23 1
133 47 1
133 69 1
133 101 1
133 125 1
133 147 1
133 179 1
133 203 1
133 225 1
134 24 1
134 48 1
134 70 1
134 102 1
134 126 1
134 148 1
134 180 1
134 204 1
134 226 1
135 25 1
135 49 1
135 71 1
135 103 1
135 127 1
135 149 1
135 181 1
135 205 1
135 227 1
136 26 1
136 50 1
136 72 1
136 104 1
136 128 1
136 150 1
136 182 1
136 206 1
136 228 1
137 14 1
137 51 1
137 73 1
137 92 1
137 129 1
137 151 1
137 170 1
137 207 1
137 229 1
138 15 1
138 52 1
138 74 1
138 93 1
138 130 1
138 152 1
138 171 1
138 208 1
138 230 1
139 16 1
139 40 1
139 75 1
139 94 1
139 118 1
139 153 1
139 172 1
139 196 1
139 231 1
140 17 1
140 41 1
140 76 1
140 95 1
140 119 1
140 154 1
140 173 1
140 197 1
140 232 1
141 18 1
141 42 1
141 77 1
141 96 1
141 120 1
141 155 1
141 174 1
141 198 1
141 233 1
142 19 1
142 43 1
142 78 1
142 97 1
142 121 1
142 156 1
142 175 1
142 199 1
142 234 1
143 20 1
143 44 1
143 66 1
143 98 1
143 122 1
143 144 1
143 176 1
143 200 1
143 222 1
144 33 1
144 55 1
144 67 1
144 111 1
144 133 1
144 145 1
144 189 1
144 211 1
144 223 1
145 34 1
145 56 1
145 68 1
145 112 1
145 134 1
145 146 1
145 190 1
145 212 1
145 224 1
146 35 1
146 57 1
146 69 1
146 113 1
146 135 1
146 147 1
146 191 1
146 213 1
146 225 1
147 36 1
147 58 1
147 70 1
147 114 1
147 136 1
147 148 1
147 192 1
147 214 1
147 226 1
148 37 1
148 59 1
148 71 1
148 115 1
148 137 1
148 149 1
148 193 1
148 215 1
148 227 1
149 38 1
149 60 1
149 72 1
149 116 1
149 138 1
149 150 1
149 194 1
149 216 1
149 228 1
150 39 1
150 61 1
150 73 1
150 117 1
150 139 1
150 151 1
150 195 1
150 217 1
150 229 1
151 27 1
151 62 1
151 74 1
151 105 1
151 140 1
151 152 1
151 183 1
151 218 1
151 230 1
152 28 1
152 63 1
152 75 1
152 106 1
152 141 1
152 153 1
152 184 1
152 219 1
152 231 1
153 29 1
153 64 1
153 76 1
153 107 1
153 142 1
153 154 1
153 185 1
153 220 1
153 232 1
154 30 1
154 65 1
154 77 1
154 108 1
154 143 1
154 155 1
154 186 1
154 221 1
154 233 1
155 31 1
155 53 1
155 78 1
155 109 1
155 131 1
155 156 1
155 187 1
155 209 1
155 234 1
156 32 1
156 54 1
156 66 1
156 110 1
156 132 1
156 144 1
156 188 1
156 210 1
156 222 1
157 1 1
157 45 1
157 55 1
157 236 1
157 280 1
157 290 1
157 323 1
157 354 1
157 377 1
158 2 1
158 46 1
158 56 1
158 237 1
158 281 1
158 291 1
158 324 1
158 355 1
158 365 1
159 3 1
159 47 1
159 57 1
159 238 1
159 282 1
159 292 1
159 325 1
159 356 1
159 366 1
160 4 1
160 48 1
160 58 1
160 239 1
160 283 1
160 293 1
160 313 1
160 357 1
160 367 1
161 5 1
161 49 1
161 59 1
161 240 1
161 284 1
161 294 1
161 314 1
161 358 1
161 368 1
162 6 1
162 50 1
162 60 1
162 241 1
162 285 1
162 295 1
162 315 1
162 359 1
162 369 1
163 7 1
163 51 1
163 61 1
163 242 1
163 286 1
163 296 1
163 316 1
163 360 1
163 370 1
164 8 1
164 52 1
164 62 1
164 243 1
164 274 1
164 297 1
164 317 1
164 361 1
164 371 1
165 9 1
165 40 1
165 63 1
165 244 1
165 275 1
165 298 1
165 318 1
165 362 1
165 372 1
166 10 1
166 41 1
166 64 1
166 245 1
166 276 1
166 299 1
166 319 1
166 363 1
166 373 1
167 11 1
167 42 1
167 65 1
167 246 1
167 277 1
167 287 1
167 320 1
167 364 1
167 374 1
168 12 1
168 43 1
168 53 1
168 247 1
168 278 1
168 288 1
168 321 1
168 352 1
168 375 1
169 13 1
169 44 1
169 54 1
169 235 1
169 279 1
169 289 1
169 322 1
169 353 1
169 376 1
170 21 1
170 45 1
170 67 1
170 256 1
170 280 1
170 302 1
170 330 1
170 354 1
170 389 1
171 22 1
171 46 1
171 68 1
171 257 1
171 281 1
171 303 1
171 331 1
171 355 1
171 390 1
172 23 1
172 47 1
172 69 1
172 258 1
172 282 1
172 304 1
172 332 1
172 356 1
172 378 1
173 24 1
173 48 1
173 70 1
173 259 1
173 283 1
173 305 1
173 333 1
173 357 1
173 379 1
174 25 1
174 49 1
174 71 1
174 260 1
174 284 1
174 306 1
174 334 1
174 358 1
174 380 1
175 26 1
175 50 1
175 72 1
175 248 1
175 285 1
175 307 1
175 335 1
175 359 1
175 381 1
176 14 1
176 51 1
176 73 1
176 249 1
176 286 1
176 308 1
176 336 1
176 360 1
176 382 1
177 15 1
177 52 1
177 74 1
177 250 1
177 274 1
177 309 1
177 337 1
177 361 1
177 383 1
178 16 1
178 40 1
178 75 1
178 251 1
178 275 1
178 310 1
178 338 1
178 362 1
178 384 1
179 17 1
179 41 1
179 76 1
179 252 1
179 276 1
179 311 1
179 326 1
179 363 1
179 385 1
180 18 1
180 42 1
180 77 1
180 253 1
180 277 1
180 312 1
180 327 1
180 364 1
180 386 1
181 19 1
181 43 1
181 78 1
181 254 1
181 278 1
181 300 1
181 328 1
181 352 1
181 387 1
182 20 1
182 44 1
182 66 1
182 255 1
182 279 1
182 301 1
182 329 1
182 353 1
182 388 1
183 33 1
183 55 1
183 67 1
183 268 1
183 290 1
183 302 1
183 342 1
183 377 1
183 389 1
184 34 1
184 56 1
184 68 1
184 269 1
184 291 1
184 303 1
184 343 1
184 365 1
184 390 1
185 35 1
185 57 1
185 69 1
185 270 1
185 292 1
185 304 1
185 344 1
185 366 1
185 378 1
186 36 1
186 58 1
186 70 1
186 271 1
186 293 1
186 305 1
186 345 1
186 367 1
186 379 1
187 37 1
187 59 1
187 71 1
187 272 1
187 294 1
187 306 1
187 346 1
187 368 1
187 380 1
188 38 1
188 60 1
188 72 1
188 273 1
188 295 1
188 307 1
188 347 1
188 369 1
188 381 1
189 39 1
189 61 1
189 73 1
189 261 1
189 296 1
189 308 1
189 348 1
189 370 1
189 382 1
190 27 1
190 62 1
190 74 1
190 262 1
190 297 1
190 309 1
190 349 1
190 371 1
190 383 1
191 28 1
191 63 1
191 75 1
191 263 1
191 298 1
191 310 1
191 350 1
191 372 1
191 384 1
192 29 1
192 64 1
192 76 1
192 264 1
192 299 1
192 311 1
192 351 1
192 373 1
192 385 1
193 30 1
193 65 1
193 77 1
193 265 1
193 287 1
193 312 1
193 339 1
193 374 1
193 386 1
194 31 1
194 53 1
194 78 1
194 266 1
194 288 1
194 300 1
194 340 1
194 375 1
194 387 1
195 32 1
195 54 1
195 66 1
195 267 1
195 289 1
195 301 1
195 341 1
195 376 1
195 388 1
196 79 1
196 123 1
196 133 1
196 236 1
196 280 1
196 290 1
196 402 1
196 433 1
196 443 1
197 80 1
197 124 1
197 134 1
197 237 1
197 281 1
197 291 1
197 403 1
197 434 1
197 444 1
198 81 1
198 125 1
198 135 1
198 238 1
198 282 1
198 292 1
198 391 1
198 435 1
198 445 1
199 82 1
199 126 1
199 136 1
199 239 1
199 283 1
199 293 1
199 392 1
199 436 1
199 446 1
200 83 1
200 127 1
200 137 1
200 240 1
200 284 1
200 294 1
200 393 1
200 437 1
200 447 1
201 84 1
201 128 1
201 138 1
201 241 1
201 285 1
201 295 1
201 394 1
201 438 1
201 448 1
202 85 1
202 129 1
202 139 1
202 242 1
202 286 1
202 296 1
202 395 1
202 439 1
202 449 1
203 86 1
203 130 1
203 140 1
203 243 1
203 274 1
203 297 1
203 396 1
203 440 1
203 450 1
204 87 1
204 118 1
204 141 1
204 244 1
204 275 1
204 298 1
204 397 1
204 441 1
204 451 1
205 88 1
205 119 1
205 142 1
205 245 1
205 276 1
205 299 1
205 398 1
205 442 1
205 452 1
206 89 1
206 120 1
206 143 1
206 246 1
206 277 1
206 287 1
206 399 1
206 430 1
206 453 1
207 90 1
207 121 1
207 131 1
207 247 1
207 278 1
207 288 1
207 400 1
207 431 1
207 454 1
208 91 1
208 122 1
208 132 1
208 235 1
208 279 1
208 289 1
208 401 1
208 432 1
208 455 1
209 99 1
209 123 1
209 145 1
209 256 1
209 280 1
209 302 1
209 409 1
209 433 1
209 468 1
210 100 1
210 124 1
210 146 1
210 257 1
210 281 1
210 303 1
210 410 1
210 434 1
210 456 1
211 101 1
211 125 1
211 147 1
211 258 1
211 282 1
211 304 1
211 411 1
211 435 1
211 457 1
212 102 1
212 126 1
212 148 1
212 259 1
212 283 1
212 305 1
212 412 1
212 436 1
212 458 1
213 103 1
213 127 1
213 149 1
213 260 1
213 284 1
213 306 1
213 413 1
213 437 1
213 459 1
214 104 1
214 128 1
214 150 1
214 248 1
214 285 1
214 307 1
214 414 1
214 438 1
214 460 1
215 92 1
215 129 1
215 151 1
215 249 1
215 286 1
215 308 1
215 415 1
215 439 1
215 461 1
216 93 1
216 130 1
216 152 1
216 250 1
216 274 1
216 309 1
216 416 1
216 440 1
216 462 1
217 94 1
217 118 1
217 153 1
217 251 1
217 275 1
217 310 1
217 404 1
217 441 1
217 463 1
218 95 1
218 119 1
218 154 1
218 252 1
218 276 1
218 311 1
218 405 1
218 442 1
218 464 1
219 96 1
219 120 1
219 155 1
219 253 1
219 277 1
219 312 1
219 406 1
219 430 1
219 465 1
220 97 1
220 121 1
220 156 1
220 254 1
220 278 1
220 300 1
220 407 1
220 431 1
220 466 1
221 98 1
221 122 1
221 144 1
221 255 1
221 279 1
221 301 1
221 408 1
221 432 1
221 467 1
222 111 1
222 133 1
222 145 1
222 268 1
222 290 1
222 302 1
222 421 1
222 443 1
222 468 1
223 112 1
223 134 1
223 146 1
223 269 1
223 291 1
223 303 1
223 422 1
223 444 1
223 456 1
224 113 1
224 135 1
224 147 1
224 270 1
224 292 1
224 304 1
224 423 1
224 445 1
224 457 1
225 114 1
225 136 1
225 148 1
225 271 1
225 293 1
225 305 1
225 424 1
225 446 1
225 458 1
226 115 1
226 137 1
226 149 1
226 272 1
226 294 1
226 306 1
226 425 1
226 447 1
226 459 1
227 116 1
227 138 1
227 150 1
227 273 1
227 295 1
227 307 1
227 426 1
227 448 1
227 460 1
228 117 1
228 139 1
228 151 1
228 261 1
228 296 1
228 308 1
228 427 1
228 449 1
228 461 1
229 105 1
229 140 1
229 152 1
229 262 1
229 297 1
229 309 1
229 428 1
229 450 1
229 462 1
230 106 1
230 141 1
230 153 1
230 263 1
230 298 1
230 310 1
230 429 1
230 451 1
230 463 1
231 107 1
231 142 1
231 154 1
231 264 1
231 299 1
231 311 1
231 417 1
231 452 1
231 464 1
232 108 1
232 143 1
232 155 1
232 265 1
232 287 1
232 312 1
232 418 1
232 453 1
232 465 1
233 109 1
233 131 1
233 156 1
233 266 1
233 288 1
233 300 1
233 419 1
233 454 1
233 466 1
234 110 1
234 132 1
234 144 1
234 267 1
234 289 1
234 301 1
234 420 1
234 455 1
234 467 1
