%%MatrixMarket matrix coordinate integer general
256 512 4096
1 1 1
1 27 1
1 46 1
1 56 1
1 257 1
1 283 1
1 302 1
1 312 1
1 321 1
1 347 1
1 366 1
1 376 1
1 385 1
1 411 1
1 430 1
1 440 1
2 2 1
2 29 1
2 44 1
2 55 1
2 258 1
2 285 1
2 300 1
2 311 1
2 322 1
2 349 1
2 364 1
2 375 1
2 386 1
2 413 1
2 428 1
2 439 1
3 3 1
3 25 1
3 48 1
3 54 1
3 259 1
3 281 1
3 304 1
3 310 1
3 323 1
3 345 1
3 368 1
3 374 1
3 387 1
3 409 1
3 432 1
3 438 1
4 4 1
4 31 1
4 42 1
4 53 1
4 260 1
4 287 1
4 298 1
4 309 1
4 324 1
4 351 1
4 362 1
4 373 1
4 388 1
4 415 1
4 426 1
4 437 1
5 5 1
5 26 1
5 47 1
5 52 1
5 261 1
5 282 1
5 303 1
5 308 1
5 325 1
5 346 1
5 367 1
5 372 1
5 389 1
5 410 1
5 431 1
5 436 1
6 6 1
6 32 1
6 41 1
6 51 1
6 262 1
6 288 1
6 297 1
6 307 1
6 326 1
6 352 1
6 361 1
6 371 1
6 390 1
6 416 1
6 425 1
6 435 1
7 7 1
7 28 1
7 45 1
7 50 1
7 263 1
7 284 1
7 301 1
7 306 1
7 327 1
7 348 1
7 365 1
7 370 1
7 391 1
7 412 1
7 429 1
7 434 1
8 8 1
8 30 1
8 43 1
8 49 1
8 264 1
8 286 1
8 299 1
8 305 1
8 328 1
8 350 1
8 363 1
8 369 1
8 392 1
8 414 1
8 427 1
8 433 1
9 9 1
9 27 1
9 46 1
9 64 1
9 265 1
9 283 1
9 302 1
9 320 1
9 329 1
9 347 1
9 366 1
9 384 1
9 393 1
9 411 1
9 430 1
9 448 1
10 10 1
10 29 1
10 44 1
10 63 1
10 266 1
10 285 1
10 300 1
10 319 1
10 330 1
10 349 1
10 364 1
10 383 1
10 394 1
10 413 1
10 428 1
10 447 1
11 11 1
11 25 1
11 48 1
11 62 1
11 267 1
11 281 1
11 304 1
11 318 1
11 331 1
11 345 1
11 368 1
11 382 1
11 395 1
11 409 1
11 432 1
11 446 1
12 12 1
12 31 1
12 42 1
12 61 1
12 268 1
12 287 1
12 298 1
12 317 1
12 332 1
12 351 1
12 362 1
12 381 1
12 396 1
12 415 1
12 426 1
12 445 1
13 13 1
13 26 1
13 47 1
13 60 1
13 269 1
13 282 1
13 303 1
13 316 1
13 333 1
13 346 1
13 367 1
13 380 1
13 397 1
13 410 1
13 431 1
13 444 1
14 14 1
14 32 1
14 41 1
14 59 1
14 270 1
14 288 1
14 297 1
14 315 1
14 334 1
14 352 1
14 361 1
14 379 1
14 398 1
14 416 1
14 425 1
14 443 1
15 15 1
15 28 1
15 45 1
15 58 1
15 271 1
15 284 1
15 301 1
15 314 1
15 335 1
15 348 1
15 365 1
15 378 1
15 399 1
15 412 1
15 429 1
15 442 1
16 16 1
16 30 1
16 43 1
16 57 1
16 272 1
16 286 1
16 299 1
16 313 1
16 336 1
16 350 1
16 363 1
16 377 1
16 400 1
16 414 1
16 427 1
16 441 1
17 19 1
17 27 1
17 56 1
17 64 1
17 275 1
17 283 1
17 312 1
17 320 1
17 339 1
17 347 1
17 376 1
17 384 1
17 403 1
17 411 1
17 440 1
17 448 1
18 21 1
18 29 1
18 55 1
18 63 1
18 277 1
18 285 1
18 311 1
18 319 1
18 341 1
18 349 1
18 375 1
18 383 1
18 405 1
18 413 1
18 439 1
18 447 1
19 17 1
19 25 1
19 54 1
19 62 1
19 273 1
19 281 1
19 310 1
19 318 1
19 337 1
19 345 1
19 374 1
19 382 1
19 401 1
19 409 1
19 438 1
19 446 1
20 23 1
20 31 1
20 53 1
20 61 1
20 279 1
20 287 1
20 309 1
20 317 1
20 343 1
20 351 1
20 373 1
20 381 1
20 407 1
20 415 1
20 437 1
20 445 1
21 18 1
21 26 1
21 52 1
21 60 1
21 274 1
21 282 1
21 308 1
21 316 1
21 338 1
21 346 1
21 372 1
21 380 1
21 402 1
21 410 1
21 436 1
21 444 1
22 24 1
22 32 1
22 51 1
22 59 1
22 280 1
22 288 1
22 307 1
22 315 1
22 344 1
22 352 1
22 371 1
22 379 1
22 408 1
22 416 1
22 435 1
22 443 1
23 20 1
23 28 1
23 50 1
23 58 1
23 276 1
23 284 1
23 306 1
23 314 1
23 340 1
23 348 1
23 370 1
23 378 1
23 404 1
23 412 1
23 434 1
23 442 1
24 22 1
24 30 1
24 49 1
24 57 1
24 278 1
24 286 1
24 305 1
24 313 1
24 342 1
24 350 1
24 369 1
24 377 1
24 406 1
24 414 1
24 433 1
24 441 1
25 38 1
25 46 1
25 56 1
25 64 1
25 294 1
25 302 1
25 312 1
25 320 1
25 358 1
25 366 1
25 376 1
25 384 1
25 422 1
25 430 1
25 440 1
25 448 1
26 36 1
26 44 1
26 55 1
26 63 1
26 292 1
26 300 1
26 311 1
26 319 1
26 356 1
26 364 1
26 375 1
26 383 1
26 420 1
26 428 1
26 439 1
26 447 1
27 40 1
27 48 1
27 54 1
27 62 1
27 296 1
27 304 1
27 310 1
27 318 1
27 360 1
27 368 1
27 374 1
27 382 1
27 424 1
27 432 1
27 438 1
27 446 1
28 34 1
28 42 1
28 53 1
28 61 1
28 290 1
28 298 1
28 309 1
28 317 1
28 354 1
28 362 1
28 373 1
28 381 1
28 418 1
28 426 1
28 437 1
28 445 1
29 39 1
29 47 1
29 52 1
29 60 1
29 295 1
29 303 1
29 308 1
29 316 1
29 359 1
29 367 1
29 372 1
29 380 1
29 423 1
29 431 1
29 436 1
29 444 1
30 33 1
30 41 1
30 51 1
30 59 1
30 289 1
30 297 1
30 307 1
30 315 1
30 353 1
30 361 1
30 371 1
30 379 1
30 417 1
30 425 1
30 435 1
30 443 1
31 37 1
31 45 1
31 50 1
31 58 1
31 293 1
31 301 1
31 306 1
31 314 1
31 357 1
31 365 1
31 370 1
31 378 1
31 421 1
31 429 1
31 434 1
31 442 1
32 35 1
32 43 1
32 49 1
32 57 1
32 291 1
32 299 1
32 305 1
32 313 1
32 355 1
32 363 1
32 369 1
32 377 1
32 419 1
32 427 1
32 433 1
32 441 1
33 65 1
33 91 1
33 110 1
33 120 1
33 257 1
33 283 1
33 302 1
33 312 1
33 321 1
33 347 1
33 366 1
33 376 1
33 449 1
33 475 1
33 494 1
33 504 1
34 66 1
34 93 1
34 108 1
34 119 1
34 258 1
34 285 1
34 300 1
34 311 1
34 322 1
34 349 1
34 364 1
34 375 1
34 450 1
34 477 1
34 492 1
34 503 1
35 67 1
35 89 1
35 112 1
35 118 1
35 259 1
35 281 1
35 304 1
35 310 1
35 323 1
35 345 1
35 368 1
35 374 1
35 451 1
35 473 1
35 496 1
35 502 1
36 68 1
36 95 1
36 106 1
36 117 1
36 260 1
36 287 1
36 298 1
36 309 1
36 324 1
36 351 1
36 362 1
36 373 1
36 452 1
36 479 1
36 490 1
36 501 1
37 69 1
37 90 1
37 111 1
37 116 1
37 261 1
37 282 1
37 303 1
37 308 1
37 325 1
37 346 1
37 367 1
37 372 1
37 453 1
37 474 1
37 495 1
37 500 1
38 70 1
38 96 1
38 105 1
38 115 1
38 262 1
38 288 1
38 297 1
38 307 1
38 326 1
38 352 1
38 361 1
38 371 1
38 454 1
38 480 1
38 489 1
38 499 1
39 71 1
39 92 1
39 109 1
39 114 1
39 263 1
39 284 1
39 301 1
39 306 1
39 327 1
39 348 1
39 365 1
39 370 1
39 455 1
39 476 1
39 493 1
39 498 1
40 72 1
40 94 1
40 107 1
40 113 1
40 264 1
40 286 1
40 299 1
40 305 1
40 328 1
40 350 1
40 363 1
40 369 1
40 456 1
40 478 1
40 491 1
40 497 1
41 73 1
41 91 1
41 110 1
41 128 1
41 265 1
41 283 1
41 302 1
41 320 1
41 329 1
41 347 1
41 366 1
41 384 1
41 457 1
41 475 1
41 494 1
41 512 1
42 74 1
42 93 1
42 108 1
42 127 1
42 266 1
42 285 1
42 300 1
42 319 1
42 330 1
42 349 1
42 364 1
42 383 1
42 458 1
42 477 1
42 492 1
42 511 1
43 75 1
43 89 1
43 112 1
43 126 1
43 267 1
43 281 1
43 304 1
43 318 1
43 331 1
43 345 1
43 368 1
43 382 1
43 459 1
43 473 1
43 496 1
43 510 1
44 76 1
44 95 1
44 106 1
44 125 1
44 268 1
44 287 1
44 298 1
44 317 1
44 332 1
44 351 1
44 362 1
44 381 1
44 460 1
44 479 1
44 490 1
44 509 1
45 77 1
45 90 1
45 111 1
45 124 1
45 269 1
45 282 1
45 303 1
45 316 1
45 333 1
45 346 1
45 367 1
45 380 1
45 461 1
45 474 1
45 495 1
45 508 1
46 78 1
46 96 1
46 105 1
46 123 1
46 270 1
46 288 1
46 297 1
46 315 1
46 334 1
46 352 1
46 361 1
46 379 1
46 462 1
46 480 1
46 489 1
46 507 1
47 79 1
47 92 1
47 109 1
47 122 1
47 271 1
47 284 1
47 301 1
47 314 1
47 335 1
47 348 1
47 365 1
47 378 1
47 463 1
47 476 1
47 493 1
47 506 1
48 80 1
48 94 1
48 107 1
48 121 1
48 272 1
48 286 1
48 299 1
48 313 1
48 336 1
48 350 1
48 363 1
48 377 1
48 464 1
48 478 1
48 491 1
48 505 1
49 83 1
49 91 1
49 120 1
49 128 1
49 275 1
49 283 1
49 312 1
49 320 1
49 339 1
49 347 1
49 376 1
49 384 1
49 467 1
49 475 1
49 504 1
49 512 1
50 85 1
50 93 1
50 119 1
50 127 1
50 277 1
50 285 1
50 311 1
50 319 1
50 341 1
50 349 1
50 375 1
50 383 1
50 469 1
50 477 1
50 503 1
50 511 1
51 81 1
51 89 1
51 118 1
51 126 1
51 273 1
51 281 1
51 310 1
51 318 1
51 337 1
51 345 1
51 374 1
51 382 1
51 465 1
51 473 1
51 502 1
51 510 1
52 87 1
52 95 1
52 117 1
52 125 1
52 279 1
52 287 1
52 309 1
52 317 1
52 343 1
52 351 1
52 373 1
52 381 1
52 471 1
52 479 1
52 501 1
52 509 1
53 82 1
53 90 1
53 116 1
53 124 1
53 274 1
53 282 1
53 308 1
53 316 1
53 338 1
53 346 1
53 372 1
53 380 1
53 466 1
53 474 1
53 500 1
53 508 1
54 88 1
54 96 1
54 115 1
54 123 1
54 280 1
54 288 1
54 307 1
54 315 1
54 344 1
54 352 1
54 371 1
54 379 1
54 472 1
54 480 1
54 499 1
54 507 1
55 84 1
55 92 1
55 114 1
55 122 1
55 276 1
55 284 1
55 306 1
55 314 1
55 340 1
55 348 1
55 370 1
55 378 1
55 468 1
55 476 1
55 498 1
55 506 1
56 86 1
56 94 1
56 113 1
56 121 1
56 278 1
56 286 1
56 305 1
56 313 1
56 342 1
56 350 1
56 369 1
56 377 1
56 470 1
56 478 1
56 497 1
56 505 1
57 102 1
57 110 1
57 120 1
57 128 1
57 294 1
57 302 1
57 312 1
57 320 1
57 358 1
57 366 1
57 376 1
57 384 1
57 486 1
57 494 1
57 504 1
57 512 1
58 100 1
58 108 1
58 119 1
58 127 1
58 292 1
58 300 1
58 311 1
58 319 1
58 356 1
58 364 1
58 375 1
58 383 1
58 484 1
58 492 1
58 503 1
58 511 1
59 104 1
59 112 1
59 118 1
59 126 1
59 296 1
59 304 1
59 310 1
59 318 1
59 360 1
59 368 1
59 374 1
59 382 1
59 488 1
59 496 1
59 502 1
59 510 1
60 98 1
60 106 1
60 117 1
60 125 1
60 290 1
60 298 1
60 309 1
60 317 1
60 354 1
60 362 1
60 373 1
60 381 1
60 482 1
60 490 1
60 501 1
60 509 1
61 103 1
61 111 1
61 116 1
61 124 1
61 295 1
61 303 1
61 308 1
61 316 1
61 359 1
61 367 1
61 372 1
61 380 1
61 487 1
61 495 1
61 500 1
61 508 1
62 97 1
62 105 1
62 115 1
62 123 1
62 289 1
62 297 1
62 307 1
62 315 1
62 353 1
62 361 1
62 371 1
62 379 1
62 481 1
62 489 1
62 499 1
62 507 1
63 101 1
63 109 1
63 114 1
63 122 1
63 293 1
63 301 1
63 306 1
63 314 1
63 357 1
63 365 1
63 370 1
63 378 1
63 485 1
63 493 1
63 498 1
63 506 1
64 99 1
64 107 1
64 113 1
64 121 1
64 291 1
64 299 1
64 305 1
64 313 1
64 355 1
64 363 1
64 369 1
64 377 1
64 483 1
64 491 1
64 497 1
64 505 1
65 129 1
65 155 1
65 174 1
65 184 1
65 257 1
65 283 1
65 302 1
65 312 1
65 385 1
65 411 1
65 430 1
65 440 1
65 449 1
65 475 1
65 494 1
65 504 1
66 130 1
66 157 1
66 172 1
66 183 1
66 258 1
66 285 1
66 300 1
66 311 1
66 386 1
66 413 1
66 428 1
66 439 1
66 450 1
66 477 1
66 492 1
66 503 1
67 131 1
67 153 1
67 176 1
67 182 1
67 259 1
67 281 1
67 304 1
67 310 1
67 387 1
67 409 1
67 432 1
67 438 1
67 451 1
67 473 1
67 496 1
67 502 1
68 132 1
68 159 1
68 170 1
68 181 1
68 260 1
68 287 1
68 298 1
68 309 1
68 388 1
68 415 1
68 426 1
68 437 1
68 452 1
68 479 1
68 490 1
68 501 1
69 133 1
69 154 1
69 175 1
69 180 1
69 261 1
69 282 1
69 303 1
69 308 1
69 389 1
69 410 1
69 431 1
69 436 1
69 453 1
69 474 1
69 495 1
69 500 1
70 134 1
70 160 1
70 169 1
70 179 1
70 262 1
70 288 1
70 297 1
70 307 1
70 390 1
70 416 1
70 425 1
70 435 1
70 454 1
70 480 1
70 489 1
70 499 1
71 135 1
71 156 1
71 173 1
71 178 1
71 263 1
71 284 1
71 301 1
71 306 1
71 391 1
71 412 1
71 429 1
71 434 1
71 455 1
71 476 1
71 493 1
71 498 1
72 136 1
72 158 1
72 171 1
72 177 1
72 264 1
72 286 1
72 299 1
72 305 1
72 392 1
72 414 1
72 427 1
72 433 1
72 456 1
72 478 1
72 491 1
72 497 1
73 137 1
73 155 1
73 174 1
73 192 1
73 265 1
73 283 1
73 302 1
73 320 1
73 393 1
73 411 1
73 430 1
73 448 1
73 457 1
73 475 1
73 494 1
73 512 1
74 138 1
74 157 1
74 172 1
74 191 1
74 266 1
74 285 1
74 300 1
74 319 1
74 394 1
74 413 1
74 428 1
74 447 1
74 458 1
74 477 1
74 492 1
74 511 1
75 139 1
75 153 1
75 176 1
75 190 1
75 267 1
75 281 1
75 304 1
75 318 1
75 395 1
75 409 1
75 432 1
75 446 1
75 459 1
75 473 1
75 496 1
75 510 1
76 140 1
76 159 1
76 170 1
76 189 1
76 268 1
76 287 1
76 298 1
76 317 1
76 396 1
76 415 1
76 426 1
76 445 1
76 460 1
76 479 1
76 490 1
76 509 1
77 141 1
77 154 1
77 175 1
77 188 1
77 269 1
77 282 1
77 303 1
77 316 1
77 397 1
77 410 1
77 431 1
77 444 1
77 461 1
77 474 1
77 495 1
77 508 1
78 142 1
78 160 1
78 169 1
78 187 1
78 270 1
78 288 1
78 297 1
78 315 1
78 398 1
78 416 1
78 425 1
78 443 1
78 462 1
78 480 1
78 489 1
78 507 1
79 143 1
79 156 1
79 173 1
79 186 1
79 271 1
79 284 1
79 301 1
79 314 1
79 399 1
79 412 1
79 429 1
79 442 1
79 463 1
79 476 1
79 493 1
79 506 1
80 144 1
80 158 1
80 171 1
80 185 1
80 272 1
80 286 1
80 299 1
80 313 1
80 400 1
80 414 1
80 427 1
80 441 1
80 464 1
80 478 1
80 491 1
80 505 1
81 147 1
81 155 1
81 184 1
81 192 1
81 275 1
81 283 1
81 312 1
81 320 1
81 403 1
81 411 1
81 440 1
81 448 1
81 467 1
81 475 1
81 504 1
81 512 1
82 149 1
82 157 1
82 183 1
82 191 1
82 277 1
82 285 1
82 311 1
82 319 1
82 405 1
82 413 1
82 439 1
82 447 1
82 469 1
82 477 1
82 503 1
82 511 1
83 145 1
83 153 1
83 182 1
83 190 1
83 273 1
83 281 1
83 310 1
83 318 1
83 401 1
83 409 1
83 438 1
83 446 1
83 465 1
83 473 1
83 502 1
83 510 1
84 151 1
84 159 1
84 181 1
84 189 1
84 279 1
84 287 1
84 309 1
84 317 1
84 407 1
84 415 1
84 437 1
84 445 1
84 471 1
84 479 1
84 501 1
84 509 1
85 146 1
85 154 1
85 180 1
85 188 1
85 274 1
85 282 1
85 308 1
85 316 1
85 402 1
85 410 1
85 436 1
85 444 1
85 466 1
85 474 1
85 500 1
85 508 1
86 152 1
86 160 1
86 179 1
86 187 1
86 280 1
86 288 1
86 307 1
86 315 1
86 408 1
86 416 1
86 435 1
86 443 1
86 472 1
86 480 1
86 499 1
86 507 1
87 148 1
87 156 1
87 178 1
87 186 1
87 276 1
87 284 1
87 306 1
87 314 1
87 404 1
87 412 1
87 434 1
87 442 1
87 468 1
87 476 1
87 498 1
87 506 1
88 150 1
88 158 1
88 177 1
88 185 1
88 278 1
88 286 1
88 305 1
88 313 1
88 406 1
88 414 1
88 433 1
88 441 1
88 470 1
88 478 1
88 497 1
88 505 1
89 166 1
89 174 1
89 184 1
89 192 1
89 294 1
89 302 1
89 312 1
89 320 1
89 422 1
89 430 1
89 440 1
89 448 1
89 486 1
89 494 1
89 504 1
89 512 1
90 164 1
90 172 1
90 183 1
90 191 1
90 292 1
90 300 1
90 311 1
90 319 1
90 420 1
90 428 1
90 439 1
90 447 1
90 484 1
90 492 1
90 503 1
90 511 1
91 168 1
91 176 1
91 182 1
91 190 1
91 296 1
91 304 1
91 310 1
91 318 1
91 424 1
91 432 1
91 438 1
91 446 1
91 488 1
91 496 1
91 502 1
91 510 1
92 162 1
92 170 1
92 181 1
92 189 1
92 290 1
92 298 1
92 309 1
92 317 1
92 418 1
92 426 1
92 437 1
92 445 1
92 482 1
92 490 1
92 501 1
92 509 1
93 167 1
93 175 1
93 180 1
93 188 1
93 295 1
93 303 1
93 308 1
93 316 1
93 423 1
93 431 1
93 436 1
93 444 1
93 487 1
93 495 1
93 500 1
93 508 1
94 161 1
94 169 1
94 179 1
94 187 1
94 289 1
94 297 1
94 307 1
94 315 1
94 417 1
94 425 1
94 435 1
94 443 1
94 481 1
94 489 1
94 499 1
94 507 1
95 165 1
95 173 1
95 178 1
95 186 1
95 293 1
95 301 1
95 306 1
95 314 1
95 421 1
95 429 1
95 434 1
95 442 1
95 485 1
95 493 1
95 498 1
95 506 1
96 163 1
96 171 1
96 177 1
96 185 1
96 291 1
96 299 1
96 305 1
96 313 1
96 419 1
96 427 1
96 433 1
96 441 1
96 483 1
96 491 1
96 497 1
96 505 1
97 193 1
97 219 1
97 238 1
97 248 1
97 321 1
97 347 1
97 366 1
97 376 1
97 385 1
97 411 1
97 430 1
97 440 1
97 449 1
97 475 1
97 494 1
97 504 1
98 194 1
98 221 1
98 236 1
98 247 1
98 322 1
98 349 1
98 364 1
98 375 1
98 386 1
98 413 1
98 428 1
98 439 1
98 450 1
98 477 1
98 492 1
98 503 1
99 195 1
99 217 1
99 240 1
99 246 1
99 323 1
99 345 1
99 368 1
99 374 1
99 387 1
99 409 1
99 432 1
99 438 1
99 451 1
99 473 1
99 496 1
99 502 1
100 196 1
100 223 1
100 234 1
100 245 1
100 324 1
100 351 1
100 362 1
100 373 1
100 388 1
100 415 1
100 426 1
100 437 1
100 452 1
100 479 1
100 490 1
100 501 1
101 197 1
101 218 1
101 239 1
101 244 1
101 325 1
101 346 1
101 367 1
101 372 1
101 389 1
101 410 1
101 431 1
101 436 1
101 453 1
101 474 1
101 495 1
101 500 1
102 198 1
102 224 1
102 233 1
102 243 1
102 326 1
102 352 1
102 361 1
102 371 1
102 390 1
102 416 1
102 425 1
102 435 1
102 454 1
102 480 1
102 489 1
102 499 1
103 199 1
103 220 1
103 237 1
103 242 1
103 327 1
103 348 1
103 365 1
103 370 1
103 391 1
103 412 1
103 429 1
103 434 1
103 455 1
103 476 1
103 493 1
103 498 1
104 200 1
104 222 1
104 235 1
104 241 1
104 328 1
104 350 1
104 363 1
104 369 1
104 392 1
104 414 1
104 427 1
104 433 1
104 456 1
104 478 1
104 491 1
104 497 1
105 201 1
105 219 1
105 238 1
105 256 1
105 329 1
105 347 1
105 366 1
105 384 1
105 393 1
105 411 1
105 430 1
105 448 1
105 457 1
105 475 1
105 494 1
105 512 1
106 202 1
106 221 1
106 236 1
106 255 1
106 330 1
106 349 1
106 364 1
106 383 1
106 394 1
106 413 1
106 428 1
106 447 1
106 458 1
106 477 1
106 492 1
106 511 1
107 203 1
107 217 1
107 240 1
107 254 1
107 331 1
107 345 1
107 368 1
107 382 1
107 395 1
107 409 1
107 432 1
107 446 1
107 459 1
107 473 1
107 496 1
107 510 1
108 204 1
108 223 1
108 234 1
108 253 1
108 332 1
108 351 1
108 362 1
108 381 1
108 396 1
108 415 1
108 426 1
108 445 1
108 460 1
108 479 1
108 490 1
108 509 1
109 205 1
109 218 1
109 239 1
109 252 1
109 333 1
109 346 1
109 367 1
109 380 1
109 397 1
109 410 1
109 431 1
109 444 1
109 461 1
109 474 1
109 495 1
109 508 1
110 206 1
110 224 1
110 233 1
110 251 1
110 334 1
110 352 1
110 361 1
110 379 1
110 398 1
110 416 1
110 425 1
110 443 1
110 462 1
110 480 1
110 489 1
110 507 1
111 207 1
111 220 1
111 237 1
111 250 1
111 335 1
111 348 1
111 365 1
111 378 1
111 399 1
111 412 1
111 429 1
111 442 1
111 463 1
111 476 1
111 493 1
111 506 1
112 208 1
112 222 1
112 235 1
112 249 1
112 336 1
112 350 1
112 363 1
112 377 1
112 400 1
112 414 1
112 427 1
112 441 1
112 464 1
112 478 1
112 491 1
112 505 1
113 211 1
113 219 1
113 248 1
113 256 1
113 339 1
113 347 1
113 376 1
113 384 1
113 403 1
113 411 1
113 440 1
113 448 1
113 467 1
113 475 1
113 504 1
113 512 1
114 213 1
114 221 1
114 247 1
114 255 1
114 341 1
114 349 1
114 375 1
114 383 1
114 405 1
114 413 1
114 439 1
114 447 1
114 469 1
114 477 1
114 503 1
114 511 1
115 209 1
115 217 1
115 246 1
115 254 1
115 337 1
115 345 1
115 374 1
115 382 1
115 401 1
115 409 1
115 438 1
115 446 1
115 465 1
115 473 1
115 502 1
115 510 1
116 215 1
116 223 1
116 245 1
116 253 1
116 343 1
116 351 1
116 373 1
116 381 1
116 407 1
116 415 1
116 437 1
116 445 1
116 471 1
116 479 1
116 501 1
116 509 1
117 210 1
117 218 1
117 244 1
117 252 1
117 338 1
117 346 1
117 372 1
117 380 1
117 402 1
117 410 1
117 436 1
117 444 1
117 466 1
117 474 1
117 500 1
117 508 1
118 216 1
118 224 1
118 243 1
118 251 1
118 344 1
118 352 1
118 371 1
118 379 1
118 408 1
118 416 1
118 435 1
118 443 1
118 472 1
118 480 1
118 499 1
118 507 1
119 212 1
119 220 1
119 242 1
119 250 1
119 340 1
119 348 1
119 370 1
119 378 1
119 404 1
119 412 1
119 434 1
119 442 1
119 468 1
119 476 1
119 498 1
119 506 1
120 214 1
120 222 1
120 241 1
120 249 1
120 342 1
120 350 1
120 369 1
120 377 1
120 406 1
120 414 1
120 433 1
120 441 1
120 470 1
120 478 1
120 497 1
120 505 1
121 230 1
121 238 1
121 248 1
121 256 1
121 358 1
121 366 1
121 376 1
121 384 1
121 422 1
121 430 1
121 440 1
121 448 1
121 486 1
121 494 1
121 504 1
121 512 1
122 228 1
122 236 1
122 247 1
122 255 1
122 356 1
122 364 1
122 375 1
122 383 1
122 420 1
122 428 1
122 439 1
122 447 1
122 484 1
122 492 1
122 503 1
122 511 1
123 232 1
123 240 1
123 246 1
123 254 1
123 360 1
123 368 1
123 374 1
123 382 1
123 424 1
123 432 1
123 438 1
123 446 1
123 488 1
123 496 1
123 502 1
123 510 1
124 226 1
124 234 1
124 245 1
124 253 1
124 354 1
124 362 1
124 373 1
124 381 1
124 418 1
124 426 1
124 437 1
124 445 1
124 482 1
124 490 1
124 501 1
124 509 1
125 231 1
125 239 1
125 244 1
125 252 1
125 359 1
125 367 1
125 372 1
125 380 1
125 423 1
125 431 1
125 436 1
125 444 1
125 487 1
125 495 1
125 500 1
125 508 1
126 225 1
126 233 1
126 243 1
126 251 1
126 353 1
126 361 1
126 371 1
126 379 1
126 417 1
126 425 1
126 435 1
126 443 1
126 481 1
126 489 1
126 499 1
126 507 1
127 229 1
127 237 1
127 242 1
127 250 1
127 357 1
127 365 1
127 370 1
127 378 1
127 421 1
127 429 1
127 434 1
127 442 1
127 485 1
127 493 1
127 498 1
127 506 1
128 227 1
128 235 1
128 241 1
128 249 1
128 355 1
128 363 1
128 369 1
128 377 1
128 419 1
128 427 1
128 433 1
128 441 1
128 483 1
128 491 1
128 497 1
128 505 1
129 1 1
129 33 1
129 41 1
129 49 1
129 195 1
129 227 1
129 235 1
129 243 1
129 327 1
129 359 1
129 367 1
129 375 1
129 392 1
129 424 1
129 432 1
129 440 1
130 2 1
130 34 1
130 42 1
130 50 1
130 197 1
130 229 1
130 237 1
130 245 1
130 328 1
130 360 1
130 368 1
130 376 1
130 391 1
130 423 1
130 431 1
130 439 1
131 3 1
131 35 1
131 43 1
131 51 1
131 193 1
131 225 1
131 233 1
131 241 1
131 324 1
131 356 1
131 364 1
131 372 1
131 390 1
131 422 1
131 430 1
131 438 1
132 4 1
132 36 1
132 44 1
132 52 1
132 199 1
132 231 1
132 239 1
132 247 1
132 323 1
132 355 1
132 363 1
132 371 1
132 389 1
132 421 1
132 429 1
132 437 1
133 5 1
133 37 1
133 45 1
133 53 1
133 194 1
133 226 1
133 234 1
133 242 1
133 326 1
133 358 1
133 366 1
133 374 1
133 388 1
133 420 1
133 428 1
133 436 1
134 6 1
134 38 1
134 46 1
134 54 1
134 200 1
134 232 1
134 240 1
134 248 1
134 325 1
134 357 1
134 365 1
134 373 1
134 387 1
134 419 1
134 427 1
134 435 1
135 7 1
135 39 1
135 47 1
135 55 1
135 196 1
135 228 1
135 236 1
135 244 1
135 321 1
135 353 1
135 361 1
135 369 1
135 386 1
135 418 1
135 426 1
135 434 1
136 8 1
136 40 1
136 48 1
136 56 1
136 198 1
136 230 1
136 238 1
136 246 1
136 322 1
136 354 1
136 362 1
136 370 1
136 385 1
136 417 1
136 425 1
136 433 1
137 9 1
137 33 1
137 41 1
137 57 1
137 203 1
137 227 1
137 235 1
137 251 1
137 335 1
137 359 1
137 367 1
137 383 1
137 400 1
137 424 1
137 432 1
137 448 1
138 10 1
138 34 1
138 42 1
138 58 1
138 205 1
138 229 1
138 237 1
138 253 1
138 336 1
138 360 1
138 368 1
138 384 1
138 399 1
138 423 1
138 431 1
138 447 1
139 11 1
139 35 1
139 43 1
139 59 1
139 201 1
139 225 1
139 233 1
139 249 1
139 332 1
139 356 1
139 364 1
139 380 1
139 398 1
139 422 1
139 430 1
139 446 1
140 12 1
140 36 1
140 44 1
140 60 1
140 207 1
140 231 1
140 239 1
140 255 1
140 331 1
140 355 1
140 363 1
140 379 1
140 397 1
140 421 1
140 429 1
140 445 1
141 13 1
141 37 1
141 45 1
141 61 1
141 202 1
141 226 1
141 234 1
141 250 1
141 334 1
141 358 1
141 366 1
141 382 1
141 396 1
141 420 1
141 428 1
141 444 1
142 14 1
142 38 1
142 46 1
142 62 1
142 208 1
142 232 1
142 240 1
142 256 1
142 333 1
142 357 1
142 365 1
142 381 1
142 395 1
142 419 1
142 427 1
142 443 1
143 15 1
143 39 1
143 47 1
143 63 1
143 204 1
143 228 1
143 236 1
143 252 1
143 329 1
143 353 1
143 361 1
143 377 1
143 394 1
143 418 1
143 426 1
143 442 1
144 16 1
144 40 1
144 48 1
144 64 1
144 206 1
144 230 1
144 238 1
144 254 1
144 330 1
144 354 1
144 362 1
144 378 1
144 393 1
144 417 1
144 425 1
144 441 1
145 17 1
145 33 1
145 49 1
145 57 1
145 211 1
145 227 1
145 243 1
145 251 1
145 343 1
145 359 1
145 375 1
145 383 1
145 408 1
145 424 1
145 440 1
145 448 1
146 18 1
146 34 1
146 50 1
146 58 1
146 213 1
146 229 1
146 245 1
146 253 1
146 344 1
146 360 1
146 376 1
146 384 1
146 407 1
146 423 1
146 439 1
146 447 1
147 19 1
147 35 1
147 51 1
147 59 1
147 209 1
147 225 1
147 241 1
147 249 1
147 340 1
147 356 1
147 372 1
147 380 1
147 406 1
147 422 1
147 438 1
147 446 1
148 20 1
148 36 1
148 52 1
148 60 1
148 215 1
148 231 1
148 247 1
148 255 1
148 339 1
148 355 1
148 371 1
148 379 1
148 405 1
148 421 1
148 437 1
148 445 1
149 21 1
149 37 1
149 53 1
149 61 1
149 210 1
149 226 1
149 242 1
149 250 1
149 342 1
149 358 1
149 374 1
149 382 1
149 404 1
149 420 1
149 436 1
149 444 1
150 22 1
150 38 1
150 54 1
150 62 1
150 216 1
150 232 1
150 248 1
150 256 1
150 341 1
150 357 1
150 373 1
150 381 1
150 403 1
150 419 1
150 435 1
150 443 1
151 23 1
151 39 1
151 55 1
151 63 1
151 212 1
151 228 1
151 244 1
151 252 1
151 337 1
151 353 1
151 369 1
151 377 1
151 402 1
151 418 1
151 434 1
151 442 1
152 24 1
152 40 1
152 56 1
152 64 1
152 214 1
152 230 1
152 246 1
152 254 1
152 338 1
152 354 1
152 370 1
152 378 1
152 401 1
152 417 1
152 433 1
152 441 1
153 25 1
153 41 1
153 49 1
153 57 1
153 219 1
153 235 1
153 243 1
153 251 1
153 351 1
153 367 1
153 375 1
153 383 1
153 416 1
153 432 1
153 440 1
153 448 1
154 26 1
154 42 1
154 50 1
154 58 1
154 221 1
154 237 1
154 245 1
154 253 1
154 352 1
154 368 1
154 376 1
154 384 1
154 415 1
154 431 1
154 439 1
154 447 1
155 27 1
155 43 1
155 51 1
155 59 1
155 217 1
155 233 1
155 241 1
155 249 1
155 348 1
155 364 1
155 372 1
155 380 1
155 414 1
155 430 1
155 438 1
155 446 1
156 28 1
156 44 1
156 52 1
156 60 1
156 223 1
156 239 1
156 247 1
156 255 1
156 347 1
156 363 1
156 371 1
156 379 1
156 413 1
156 429 1
156 437 1
156 445 1
157 29 1
157 45 1
157 53 1
157 61 1
157 218 1
157 234 1
157 242 1
157 250 1
157 350 1
157 366 1
157 374 1
157 382 1
157 412 1
157 428 1
157 436 1
157 444 1
158 30 1
158 46 1
158 54 1
158 62 1
158 224 1
158 240 1
158 248 1
158 256 1
158 349 1
158 365 1
158 373 1
158 381 1
158 411 1
158 427 1
158 435 1
158 443 1
159 31 1
159 47 1
159 55 1
159 63 1
159 220 1
159 236 1
159 244 1
159 252 1
159 345 1
159 361 1
159 369 1
159 377 1
159 410 1
159 426 1
159 434 1
159 442 1
160 32 1
160 48 1
160 56 1
160 64 1
160 222 1
160 238 1
160 246 1
160 254 1
160 346 1
160 362 1
160 370 1
160 378 1
160 409 1
160 425 1
160 433 1
160 441 1
161 65 1
161 97 1
161 105 1
161 113 1
161 195 1
161 227 1
161 235 1
161 243 1
161 327 1
161 359 1
161 367 1
161 375 1
161 456 1
161 488 1
161 496 1
161 504 1
162 66 1
162 98 1
162 106 1
162 114 1
162 197 1
162 229 1
162 237 1
162 245 1
162 328 1
162 360 1
162 368 1
162 376 1
162 455 1
162 487 1
162 495 1
162 503 1
163 67 1
163 99 1
163 107 1
163 115 1
163 193 1
163 225 1
163 233 1
163 241 1
163 324 1
163 356 1
163 364 1
163 372 1
163 454 1
163 486 1
163 494 1
163 502 1
164 68 1
164 100 1
164 108 1
164 116 1
164 199 1
164 231 1
164 239 1
164 247 1
164 323 1
164 355 1
164 363 1
164 371 1
164 453 1
164 485 1
164 493 1
164 501 1
165 69 1
165 101 1
165 109 1
165 117 1
165 194 1
165 226 1
165 234 1
165 242 1
165 326 1
165 358 1
165 366 1
165 374 1
165 452 1
165 484 1
165 492 1
165 500 1
166 70 1
166 102 1
166 110 1
166 118 1
166 200 1
166 232 1
166 240 1
166 248 1
166 325 1
166 357 1
166 365 1
166 373 1
166 451 1
166 483 1
166 491 1
166 499 1
167 71 1
167 103 1
167 111 1
167 119 1
167 196 1
167 228 1
167 236 1
167 244 1
167 321 1
167 353 1
167 361 1
167 369 1
167 450 1
167 482 1
167 490 1
167 498 1
168 72 1
168 104 1
168 112 1
168 120 1
168 198 1
168 230 1
168 238 1
168 246 1
168 322 1
168 354 1
168 362 1
168 370 1
168 449 1
168 481 1
168 489 1
168 497 1
169 73 1
169 97 1
169 105 1
169 121 1
169 203 1
169 227 1
169 235 1
169 251 1
169 335 1
169 359 1
169 367 1
169 383 1
169 464 1
169 488 1
169 496 1
169 512 1
170 74 1
170 98 1
170 106 1
170 122 1
170 205 1
170 229 1
170 237 1
170 253 1
170 336 1
170 360 1
170 368 1
170 384 1
170 463 1
170 487 1
170 495 1
170 511 1
171 75 1
171 99 1
171 107 1
171 123 1
171 201 1
171 225 1
171 233 1
171 249 1
171 332 1
171 356 1
171 364 1
171 380 1
171 462 1
171 486 1
171 494 1
171 510 1
172 76 1
172 100 1
172 108 1
172 124 1
172 207 1
172 231 1
172 239 1
172 255 1
172 331 1
172 355 1
172 363 1
172 379 1
172 461 1
172 485 1
172 493 1
172 509 1
173 77 1
173 101 1
173 109 1
173 125 1
173 202 1
173 226 1
173 234 1
173 250 1
173 334 1
173 358 1
173 366 1
173 382 1
173 460 1
173 484 1
173 492 1
173 508 1
174 78 1
174 102 1
174 110 1
174 126 1
174 208 1
174 232 1
174 240 1
174 256 1
174 333 1
174 357 1
174 365 1
174 381 1
174 459 1
174 483 1
174 491 1
174 507 1
175 79 1
175 103 1
175 111 1
175 127 1
175 204 1
175 228 1
175 236 1
175 252 1
175 329 1
175 353 1
175 361 1
175 377 1
175 458 1
175 482 1
175 490 1
175 506 1
176 80 1
176 104 1
176 112 1
176 128 1
176 206 1
176 230 1
176 238 1
176 254 1
176 330 1
176 354 1
176 362 1
176 378 1
176 457 1
176 481 1
176 489 1
176 505 1
177 81 1
177 97 1
177 113 1
177 121 1
177 211 1
177 227 1
177 243 1
177 251 1
177 343 1
177 359 1
177 375 1
177 383 1
177 472 1
177 488 1
177 504 1
177 512 1
178 82 1
178 98 1
178 114 1
178 122 1
178 213 1
178 229 1
178 245 1
178 253 1
178 344 1
178 360 1
178 376 1
178 384 1
178 471 1
178 487 1
178 503 1
178 511 1
179 83 1
179 99 1
179 115 1
179 123 1
179 209 1
179 225 1
179 241 1
179 249 1
179 340 1
179 356 1
179 372 1
179 380 1
179 470 1
179 486 1
179 502 1
179 510 1
180 84 1
180 100 1
180 116 1
180 124 1
180 215 1
180 231 1
180 247 1
180 255 1
180 339 1
180 355 1
180 371 1
180 379 1
180 469 1
180 485 1
180 501 1
180 509 1
181 85 1
181 101 1
181 117 1
181 125 1
181 210 1
181 226 1
181 242 1
181 250 1
181 342 1
181 358 1
181 374 1
181 382 1
181 468 1
181 484 1
181 500 1
181 508 1
182 86 1
182 102 1
182 118 1
182 126 1
182 216 1
182 232 1
182 248 1
182 256 1
182 341 1
182 357 1
182 373 1
182 381 1
182 467 1
182 483 1
182 499 1
182 507 1
183 87 1
183 103 1
183 119 1
183 127 1
183 212 1
183 228 1
183 244 1
183 252 1
183 337 1
183 353 1
183 369 1
183 377 1
183 466 1
183 482 1
183 498 1
183 506 1
184 88 1
184 104 1
184 120 1
184 128 1
184 214 1
184 230 1
184 246 1
184 254 1
184 338 1
184 354 1
184 370 1
184 378 1
184 465 1
184 481 1
184 497 1
184 505 1
185 89 1
185 105 1
185 113 1
185 121 1
185 219 1
185 235 1
185 243 1
185 251 1
185 351 1
185 367 1
185 375 1
185 383 1
185 480 1
185 496 1
185 504 1
185 512 1
186 90 1
186 106 1
186 114 1
186 122 1
186 221 1
186 237 1
186 245 1
186 253 1
186 352 1
186 368 1
186 376 1
186 384 1
186 479 1
186 495 1
186 503 1
186 511 1
187 91 1
187 107 1
187 115 1
187 123 1
187 217 1
187 233 1
187 241 1
187 249 1
187 348 1
187 364 1
187 372 1
187 380 1
187 478 1
187 494 1
187 502 1
187 510 1
188 92 1
188 108 1
188 116 1
188 124 1
188 223 1
188 239 1
188 247 1
188 255 1
188 347 1
188 363 1
188 371 1
188 379 1
188 477 1
188 493 1
188 501 1
188 509 1
189 93 1
189 109 1
189 117 1
189 125 1
189 218 1
189 234 1
189 242 1
189 250 1
189 350 1
189 366 1
189 374 1
189 382 1
189 476 1
189 492 1
189 500 1
189 508 1
190 94 1
190 110 1
190 118 1
190 126 1
190 224 1
190 240 1
190 248 1
190 256 1
190 349 1
190 365 1
190 373 1
190 381 1
190 475 1
190 491 1
190 499 1
190 507 1
191 95 1
191 111 1
191 119 1
191 127 1
191 220 1
191 236 1
191 244 1
191 252 1
191 345 1
191 361 1
191 369 1
191 377 1
191 474 1
191 490 1
191 498 1
191 506 1
192 96 1
192 112 1
192 120 1
192 128 1
192 222 1
192 238 1
192 246 1
192 254 1
192 346 1
192 362 1
192 370 1
192 378 1
192 473 1
192 489 1
192 497 1
192 505 1
193 130 1
193 162 1
193 170 1
193 178 1
193 195 1
193 227 1
193 235 1
193 243 1
193 392 1
193 424 1
193 432 1
193 440 1
193 456 1
193 488 1
193 496 1
193 504 1
194 129 1
194 161 1
194 169 1
194 177 1
194 197 1
194 229 1
194 237 1
194 245 1
194 391 1
194 423 1
194 431 1
194 439 1
194 455 1
194 487 1
194 495 1
194 503 1
195 133 1
195 165 1
195 173 1
195 181 1
195 193 1
195 225 1
195 233 1
195 241 1
195 390 1
195 422 1
195 430 1
195 438 1
195 454 1
195 486 1
195 494 1
195 502 1
196 134 1
196 166 1
196 174 1
196 182 1
196 199 1
196 231 1
196 239 1
196 247 1
196 389 1
196 421 1
196 429 1
196 437 1
196 453 1
196 485 1
196 493 1
196 501 1
197 131 1
197 163 1
197 171 1
197 179 1
197 194 1
197 226 1
197 234 1
197 242 1
197 388 1
197 420 1
197 428 1
197 436 1
197 452 1
197 484 1
197 492 1
197 500 1
198 132 1
198 164 1
198 172 1
198 180 1
198 200 1
198 232 1
198 240 1
198 248 1
198 387 1
198 419 1
198 427 1
198 435 1
198 451 1
198 483 1
198 491 1
198 499 1
199 136 1
199 168 1
199 176 1
199 184 1
199 196 1
199 228 1
199 236 1
199 244 1
199 386 1
199 418 1
199 426 1
199 434 1
199 450 1
199 482 1
199 490 1
199 498 1
200 135 1
200 167 1
200 175 1
200 183 1
200 198 1
200 230 1
200 238 1
200 246 1
200 385 1
200 417 1
200 425 1
200 433 1
200 449 1
200 481 1
200 489 1
200 497 1
201 138 1
201 162 1
201 170 1
201 186 1
201 203 1
201 227 1
201 235 1
201 251 1
201 400 1
201 424 1
201 432 1
201 448 1
201 464 1
201 488 1
201 496 1
201 512 1
202 137 1
202 161 1
202 169 1
202 185 1
202 205 1
202 229 1
202 237 1
202 253 1
202 399 1
202 423 1
202 431 1
202 447 1
202 463 1
202 487 1
202 495 1
202 511 1
203 141 1
203 165 1
203 173 1
203 189 1
203 201 1
203 225 1
203 233 1
203 249 1
203 398 1
203 422 1
203 430 1
203 446 1
203 462 1
203 486 1
203 494 1
203 510 1
204 142 1
204 166 1
204 174 1
204 190 1
204 207 1
204 231 1
204 239 1
204 255 1
204 397 1
204 421 1
204 429 1
204 445 1
204 461 1
204 485 1
204 493 1
204 509 1
205 139 1
205 163 1
205 171 1
205 187 1
205 202 1
205 226 1
205 234 1
205 250 1
205 396 1
205 420 1
205 428 1
205 444 1
205 460 1
205 484 1
205 492 1
205 508 1
206 140 1
206 164 1
206 172 1
206 188 1
206 208 1
206 232 1
206 240 1
206 256 1
206 395 1
206 419 1
206 427 1
206 443 1
206 459 1
206 483 1
206 491 1
206 507 1
207 144 1
207 168 1
207 176 1
207 192 1
207 204 1
207 228 1
207 236 1
207 252 1
207 394 1
207 418 1
207 426 1
207 442 1
207 458 1
207 482 1
207 490 1
207 506 1
208 143 1
208 167 1
208 175 1
208 191 1
208 206 1
208 230 1
208 238 1
208 254 1
208 393 1
208 417 1
208 425 1
208 441 1
208 457 1
208 481 1
208 489 1
208 505 1
209 146 1
209 162 1
209 178 1
209 186 1
209 211 1
209 227 1
209 243 1
209 251 1
209 408 1
209 424 1
209 440 1
209 448 1
209 472 1
209 488 1
209 504 1
209 512 1
210 145 1
210 161 1
210 177 1
210 185 1
210 213 1
210 229 1
210 245 1
210 253 1
210 407 1
210 423 1
210 439 1
210 447 1
210 471 1
210 487 1
210 503 1
210 511 1
211 149 1
211 165 1
211 181 1
211 189 1
211 209 1
211 225 1
211 241 1
211 249 1
211 406 1
211 422 1
211 438 1
211 446 1
211 470 1
211 486 1
211 502 1
211 510 1
212 150 1
212 166 1
212 182 1
212 190 1
212 215 1
212 231 1
212 247 1
212 255 1
212 405 1
212 421 1
212 437 1
212 445 1
212 469 1
212 485 1
212 501 1
212 509 1
213 147 1
213 163 1
213 179 1
213 187 1
213 210 1
213 226 1
213 242 1
213 250 1
213 404 1
213 420 1
213 436 1
213 444 1
213 468 1
213 484 1
213 500 1
213 508 1
214 148 1
214 164 1
214 180 1
214 188 1
214 216 1
214 232 1
214 248 1
214 256 1
214 403 1
214 419 1
214 435 1
214 443 1
214 467 1
214 483 1
214 499 1
214 507 1
215 152 1
215 168 1
215 184 1
215 192 1
215 212 1
215 228 1
215 244 1
215 252 1
215 402 1
215 418 1
215 434 1
215 442 1
215 466 1
215 482 1
215 498 1
215 506 1
216 151 1
216 167 1
216 183 1
216 191 1
216 214 1
216 230 1
216 246 1
216 254 1
216 401 1
216 417 1
216 433 1
216 441 1
216 465 1
216 481 1
216 497 1
216 505 1
217 154 1
217 170 1
217 178 1
217 186 1
217 219 1
217 235 1
217 243 1
217 251 1
217 416 1
217 432 1
217 440 1
217 448 1
217 480 1
217 496 1
217 504 1
217 512 1
218 153 1
218 169 1
218 177 1
218 185 1
218 221 1
218 237 1
218 245 1
218 253 1
218 415 1
218 431 1
218 439 1
218 447 1
218 479 1
218 495 1
218 503 1
218 511 1
219 157 1
219 173 1
219 181 1
219 189 1
219 217 1
219 233 1
219 241 1
219 249 1
219 414 1
219 430 1
219 438 1
219 446 1
219 478 1
219 494 1
219 502 1
219 510 1
220 158 1
220 174 1
220 182 1
220 190 1
220 223 1
220 239 1
220 247 1
220 255 1
220 413 1
220 429 1
220 437 1
220 445 1
220 477 1
220 493 1
220 501 1
220 509 1
221 155 1
221 171 1
221 179 1
221 187 1
221 218 1
221 234 1
221 242 1
221 250 1
221 412 1
221 428 1
221 436 1
221 444 1
221 476 1
221 492 1
221 500 1
221 508 1
222 156 1
222 172 1
222 180 1
222 188 1
222 224 1
222 240 1
222 248 1
222 256 1
222 411 1
222 427 1
222 435 1
222 443 1
222 475 1
222 491 1
222 499 1
222 507 1
223 160 1
223 176 1
223 184 1
223 192 1
223 220 1
223 236 1
223 244 1
223 252 1
223 410 1
223 426 1
223 434 1
223 442 1
223 474 1
223 490 1
223 498 1
223 506 1
224 159 1
224 175 1
224 183 1
224 191 1
224 222 1
224 238 1
224 246 1
224 254 1
224 409 1
224 425 1
224 433 1
224 441 1
224 473 1
224 489 1
224 497 1
224 505 1
225 262 1
225 294 1
225 302 1
225 310 1
225 327 1
225 359 1
225 367 1
225 375 1
225 392 1
225 424 1
225 432 1
225 440 1
225 456 1
225 488 1
225 496 1
225 504 1
226 260 1
226 292 1
226 300 1
226 308 1
226 328 1
226 360 1
226 368 1
226 376 1
226 391 1
226 423 1
226 431 1
226 439 1
226 455 1
226 487 1
226 495 1
226 503 1
227 264 1
227 296 1
227 304 1
227 312 1
227 324 1
227 356 1
227 364 1
227 372 1
227 390 1
227 422 1
227 430 1
227 438 1
227 454 1
227 486 1
227 494 1
227 502 1
228 258 1
228 290 1
228 298 1
228 306 1
228 323 1
228 355 1
228 363 1
228 371 1
228 389 1
228 421 1
228 429 1
228 437 1
228 453 1
228 485 1
228 493 1
228 501 1
229 263 1
229 295 1
229 303 1
229 311 1
229 326 1
229 358 1
229 366 1
229 374 1
229 388 1
229 420 1
229 428 1
229 436 1
229 452 1
229 484 1
229 492 1
229 500 1
230 257 1
230 289 1
230 297 1
230 305 1
230 325 1
230 357 1
230 365 1
230 373 1
230 387 1
230 419 1
230 427 1
230 435 1
230 451 1
230 483 1
230 491 1
230 499 1
231 261 1
231 293 1
231 301 1
231 309 1
231 321 1
231 353 1
231 361 1
231 369 1
231 386 1
231 418 1
231 426 1
231 434 1
231 450 1
231 482 1
231 490 1
231 498 1
232 259 1
232 291 1
232 299 1
232 307 1
232 322 1
232 354 1
232 362 1
232 370 1
232 385 1
232 417 1
232 425 1
232 433 1
232 449 1
232 481 1
232 489 1
232 497 1
233 270 1
233 294 1
233 302 1
233 318 1
233 335 1
233 359 1
233 367 1
233 383 1
233 400 1
233 424 1
233 432 1
233 448 1
233 464 1
233 488 1
233 496 1
233 512 1
234 268 1
234 292 1
234 300 1
234 316 1
234 336 1
234 360 1
234 368 1
234 384 1
234 399 1
234 423 1
234 431 1
234 447 1
234 463 1
234 487 1
234 495 1
234 511 1
235 272 1
235 296 1
235 304 1
235 320 1
235 332 1
235 356 1
235 364 1
235 380 1
235 398 1
235 422 1
235 430 1
235 446 1
235 462 1
235 486 1
235 494 1
235 510 1
236 266 1
236 290 1
236 298 1
236 314 1
236 331 1
236 355 1
236 363 1
236 379 1
236 397 1
236 421 1
236 429 1
236 445 1
236 461 1
236 485 1
236 493 1
236 509 1
237 271 1
237 295 1
237 303 1
237 319 1
237 334 1
237 358 1
237 366 1
237 382 1
237 396 1
237 420 1
237 428 1
237 444 1
237 460 1
237 484 1
237 492 1
237 508 1
238 265 1
238 289 1
238 297 1
238 313 1
238 333 1
238 357 1
238 365 1
238 381 1
238 395 1
238 419 1
238 427 1
238 443 1
238 459 1
238 483 1
238 491 1
238 507 1
239 269 1
239 293 1
239 301 1
239 317 1
239 329 1
239 353 1
239 361 1
239 377 1
239 394 1
239 418 1
239 426 1
239 442 1
239 458 1
239 482 1
239 490 1
239 506 1
240 267 1
240 291 1
240 299 1
240 315 1
240 330 1
240 354 1
240 362 1
240 378 1
240 393 1
240 417 1
240 425 1
240 441 1
240 457 1
240 481 1
240 489 1
240 505 1
241 278 1
241 294 1
241 310 1
241 318 1
241 343 1
241 359 1
241 375 1
241 383 1
241 408 1
241 424 1
241 440 1
241 448 1
241 472 1
241 488 1
241 504 1
241 512 1
242 276 1
242 292 1
242 308 1
242 316 1
242 344 1
242 360 1
242 376 1
242 384 1
242 407 1
242 423 1
242 439 1
242 447 1
242 471 1
242 487 1
242 503 1
242 511 1
243 280 1
243 296 1
243 312 1
243 320 1
243 340 1
243 356 1
243 372 1
243 380 1
243 406 1
243 422 1
243 438 1
243 446 1
243 470 1
243 486 1
243 502 1
243 510 1
244 274 1
244 290 1
244 306 1
244 314 1
244 339 1
244 355 1
244 371 1
244 379 1
244 405 1
244 421 1
244 437 1
244 445 1
244 469 1
244 485 1
244 501 1
244 509 1
245 279 1
245 295 1
245 311 1
245 319 1
245 342 1
245 358 1
245 374 1
245 382 1
245 404 1
245 420 1
245 436 1
245 444 1
245 468 1
245 484 1
245 500 1
245 508 1
246 273 1
246 289 1
246 305 1
246 313 1
246 341 1
246 357 1
246 373 1
246 381 1
246 403 1
246 419 1
246 435 1
246 443 1
246 467 1
246 483 1
246 499 1
246 507 1
247 277 1
247 293 1
247 309 1
247 317 1
247 337 1
247 353 1
247 369 1
247 377 1
247 402 1
247 418 1
247 434 1
247 442 1
247 466 1
247 482 1
247 498 1
247 506 1
248 275 1
248 291 1
248 307 1
248 315 1
248 338 1
248 354 1
248 370 1
248 378 1
248 401 1
248 417 1
248 433 1
248 441 1
248 465 1
248 481 1
248 497 1
248 505 1
249 286 1
249 302 1
249 310 1
249 318 1
249 351 1
249 367 1
249 375 1
249 383 1
249 416 1
249 432 1
249 440 1
249 448 1
249 480 1
249 496 1
249 504 1
249 512 1
250 284 1
250 300 1
250 308 1
250 316 1
250 352 1
250 368 1
250 376 1
250 384 1
250 415 1
250 431 1
250 439 1
250 447 1
250 479 1
250 495 1
250 503 1
250 511 1
251 288 1
251 304 1
251 312 1
251 320 1
251 348 1
251 364 1
251 372 1
251 380 1
251 414 1
251 430 1
251 438 1
251 446 1
251 478 1
251 494 1
251 502 1
251 510 1
252 282 1
252 298 1
252 306 1
252 314 1
252 347 1
252 363 1
252 371 1
252 379 1
252 413 1
252 429 1
252 437 1
252 445 1
252 477 1
252 493 1
252 501 1
252 509 1
253 287 1
253 303 1
253 311 1
253 319 1
253 350 1
253 366 1
253 374 1
253 382 1
253 412 1
253 428 1
253 436 1
253 444 1
253 476 1
253 492 1
253 500 1
253 508 1
254 281 1
254 297 1
254 305 1
254 313 1
254 349 1
254 365 1
254 373 1
254 381 1
254 411 1
254 427 1
254 435 1
254 443 1
254 475 1
254 491 1
254 499 1
254 507 1
255 285 1
255 301 1
255 309 1
255 317 1
255 345 1
255 361 1
255 369 1
255 377 1
255 410 1
255 426 1
255 434 1
255 442 1
255 474 1
255 490 1
255 498 1
255 506 1
256 283 1
256 299 1
256 307 1
256 315 1
256 346 1
256 362 1
256 370 1
256 378 1
256 409 1
256 425 1
256 433 1
256 441 1
256 473 1
256 489 1
256 497 1
256 505 1
