%%MatrixMarket matrix coordinate integer general
288 576 2592
1 1 1
1 36 1
1 91 1
1 289 1
1 324 1
1 379 1
1 385 1
1 420 1
1 475 1
2 2 1
2 39 1
2 94 1
2 290 1
2 327 1
2 382 1
2 386 1
2 423 1
2 478 1
3 3 1
3 41 1
3 95 1
3 291 1
3 329 1
3 383 1
3 387 1
3 425 1
3 479 1
4 4 1
4 33 1
4 85 1
4 292 1
4 321 1
4 373 1
4 388 1
4 417 1
4 469 1
5 5 1
5 43 1
5 84 1
5 293 1
5 331 1
5 372 1
5 389 1
5 427 1
5 468 1
6 6 1
6 44 1
6 96 1
6 294 1
6 332 1
6 384 1
6 390 1
6 428 1
6 480 1
7 7 1
7 34 1
7 88 1
7 295 1
7 322 1
7 376 1
7 391 1
7 418 1
7 472 1
8 8 1
8 46 1
8 87 1
8 296 1
8 334 1
8 375 1
8 392 1
8 430 1
8 471 1
9 9 1
9 35 1
9 90 1
9 297 1
9 323 1
9 378 1
9 393 1
9 419 1
9 474 1
10 10 1
10 47 1
10 89 1
10 298 1
10 335 1
10 377 1
10 394 1
10 431 1
10 473 1
11 11 1
11 37 1
11 81 1
11 299 1
11 325 1
11 369 1
11 395 1
11 421 1
11 465 1
12 12 1
12 38 1
12 93 1
12 300 1
12 326 1
12 381 1
12 396 1
12 422 1
12 477 1
13 13 1
13 48 1
13 92 1
13 301 1
13 336 1
13 380 1
13 397 1
13 432 1
13 476 1
14 14 1
14 40 1
14 82 1
14 302 1
14 328 1
14 370 1
14 398 1
14 424 1
14 466 1
15 15 1
15 42 1
15 83 1
15 303 1
15 330 1
15 371 1
15 399 1
15 426 1
15 467 1
16 16 1
16 45 1
16 86 1
16 304 1
16 333 1
16 374 1
16 400 1
16 429 1
16 470 1
17 1 1
17 52 1
17 78 1
17 289 1
17 340 1
17 366 1
17 385 1
17 436 1
17 462 1
18 2 1
18 55 1
18 68 1
18 290 1
18 343 1
18 356 1
18 386 1
18 439 1
18 452 1
19 3 1
19 57 1
19 77 1
19 291 1
19 345 1
19 365 1
19 387 1
19 441 1
19 461 1
20 4 1
20 49 1
20 72 1
20 292 1
20 337 1
20 360 1
20 388 1
20 433 1
20 456 1
21 5 1
21 59 1
21 71 1
21 293 1
21 347 1
21 359 1
21 389 1
21 443 1
21 455 1
22 6 1
22 60 1
22 67 1
22 294 1
22 348 1
22 355 1
22 390 1
22 444 1
22 451 1
23 7 1
23 50 1
23 65 1
23 295 1
23 338 1
23 353 1
23 391 1
23 434 1
23 449 1
24 8 1
24 62 1
24 75 1
24 296 1
24 350 1
24 363 1
24 392 1
24 446 1
24 459 1
25 9 1
25 51 1
25 80 1
25 297 1
25 339 1
25 368 1
25 393 1
25 435 1
25 464 1
26 10 1
26 63 1
26 70 1
26 298 1
26 351 1
26 358 1
26 394 1
26 447 1
26 454 1
27 11 1
27 53 1
27 66 1
27 299 1
27 341 1
27 354 1
27 395 1
27 437 1
27 450 1
28 12 1
28 54 1
28 73 1
28 300 1
28 342 1
28 361 1
28 396 1
28 438 1
28 457 1
29 13 1
29 64 1
29 74 1
29 301 1
29 352 1
29 362 1
29 397 1
29 448 1
29 458 1
30 14 1
30 56 1
30 69 1
30 302 1
30 344 1
30 357 1
30 398 1
30 440 1
30 453 1
31 15 1
31 58 1
31 76 1
31 303 1
31 346 1
31 364 1
31 399 1
31 442 1
31 460 1
32 16 1
32 61 1
32 79 1
32 304 1
32 349 1
32 367 1
32 400 1
32 445 1
32 463 1
33 24 1
33 36 1
33 78 1
33 312 1
33 324 1
33 366 1
33 408 1
33 420 1
33 462 1
34 17 1
34 39 1
34 68 1
34 305 1
34 327 1
34 356 1
34 401 1
34 423 1
34 452 1
35 32 1
35 41 1
35 77 1
35 320 1
35 329 1
35 365 1
35 416 1
35 425 1
35 461 1
36 30 1
36 33 1
36 72 1
36 318 1
36 321 1
36 360 1
36 414 1
36 417 1
36 456 1
37 18 1
37 43 1
37 71 1
37 306 1
37 331 1
37 359 1
37 402 1
37 427 1
37 455 1
38 25 1
38 44 1
38 67 1
38 313 1
38 332 1
38 355 1
38 409 1
38 428 1
38 451 1
39 20 1
39 34 1
39 65 1
39 308 1
39 322 1
39 353 1
39 404 1
39 418 1
39 449 1
40 21 1
40 46 1
40 75 1
40 309 1
40 334 1
40 363 1
40 405 1
40 430 1
40 459 1
41 29 1
41 35 1
41 80 1
41 317 1
41 323 1
41 368 1
41 413 1
41 419 1
41 464 1
42 28 1
42 47 1
42 70 1
42 316 1
42 335 1
42 358 1
42 412 1
42 431 1
42 454 1
43 23 1
43 37 1
43 66 1
43 311 1
43 325 1
43 354 1
43 407 1
43 421 1
43 450 1
44 19 1
44 38 1
44 73 1
44 307 1
44 326 1
44 361 1
44 403 1
44 422 1
44 457 1
45 31 1
45 48 1
45 74 1
45 319 1
45 336 1
45 362 1
45 415 1
45 432 1
45 458 1
46 27 1
46 40 1
46 69 1
46 315 1
46 328 1
46 357 1
46 411 1
46 424 1
46 453 1
47 22 1
47 42 1
47 76 1
47 310 1
47 330 1
47 364 1
47 406 1
47 426 1
47 460 1
48 26 1
48 45 1
48 79 1
48 314 1
48 333 1
48 367 1
48 410 1
48 429 1
48 463 1
49 97 1
49 132 1
49 187 1
49 289 1
49 324 1
49 379 1
49 481 1
49 516 1
49 571 1
50 98 1
50 135 1
50 190 1
50 290 1
50 327 1
50 382 1
50 482 1
50 519 1
50 574 1
51 99 1
51 137 1
51 191 1
51 291 1
51 329 1
51 383 1
51 483 1
51 521 1
51 575 1
52 100 1
52 129 1
52 181 1
52 292 1
52 321 1
52 373 1
52 484 1
52 513 1
52 565 1
53 101 1
53 139 1
53 180 1
53 293 1
53 331 1
53 372 1
53 485 1
53 523 1
53 564 1
54 102 1
54 140 1
54 192 1
54 294 1
54 332 1
54 384 1
54 486 1
54 524 1
54 576 1
55 103 1
55 130 1
55 184 1
55 295 1
55 322 1
55 376 1
55 487 1
55 514 1
55 568 1
56 104 1
56 142 1
56 183 1
56 296 1
56 334 1
56 375 1
56 488 1
56 526 1
56 567 1
57 105 1
57 131 1
57 186 1
57 297 1
57 323 1
57 378 1
57 489 1
57 515 1
57 570 1
58 106 1
58 143 1
58 185 1
58 298 1
58 335 1
58 377 1
58 490 1
58 527 1
58 569 1
59 107 1
59 133 1
59 177 1
59 299 1
59 325 1
59 369 1
59 491 1
59 517 1
59 561 1
60 108 1
60 134 1
60 189 1
60 300 1
60 326 1
60 381 1
60 492 1
60 518 1
60 573 1
61 109 1
61 144 1
61 188 1
61 301 1
61 336 1
61 380 1
61 493 1
61 528 1
61 572 1
62 110 1
62 136 1
62 178 1
62 302 1
62 328 1
62 370 1
62 494 1
62 520 1
62 562 1
63 111 1
63 138 1
63 179 1
63 303 1
63 330 1
63 371 1
63 495 1
63 522 1
63 563 1
64 112 1
64 141 1
64 182 1
64 304 1
64 333 1
64 374 1
64 496 1
64 525 1
64 566 1
65 97 1
65 148 1
65 174 1
65 289 1
65 340 1
65 366 1
65 481 1
65 532 1
65 558 1
66 98 1
66 151 1
66 164 1
66 290 1
66 343 1
66 356 1
66 482 1
66 535 1
66 548 1
67 99 1
67 153 1
67 173 1
67 291 1
67 345 1
67 365 1
67 483 1
67 537 1
67 557 1
68 100 1
68 145 1
68 168 1
68 292 1
68 337 1
68 360 1
68 484 1
68 529 1
68 552 1
69 101 1
69 155 1
69 167 1
69 293 1
69 347 1
69 359 1
69 485 1
69 539 1
69 551 1
70 102 1
70 156 1
70 163 1
70 294 1
70 348 1
70 355 1
70 486 1
70 540 1
70 547 1
71 103 1
71 146 1
71 161 1
71 295 1
71 338 1
71 353 1
71 487 1
71 530 1
71 545 1
72 104 1
72 158 1
72 171 1
72 296 1
72 350 1
72 363 1
72 488 1
72 542 1
72 555 1
73 105 1
73 147 1
73 176 1
73 297 1
73 339 1
73 368 1
73 489 1
73 531 1
73 560 1
74 106 1
74 159 1
74 166 1
74 298 1
74 351 1
74 358 1
74 490 1
74 543 1
74 550 1
75 107 1
75 149 1
75 162 1
75 299 1
75 341 1
75 354 1
75 491 1
75 533 1
75 546 1
76 108 1
76 150 1
76 169 1
76 300 1
76 342 1
76 361 1
76 492 1
76 534 1
76 553 1
77 109 1
77 160 1
77 170 1
77 301 1
77 352 1
77 362 1
77 493 1
77 544 1
77 554 1
78 110 1
78 152 1
78 165 1
78 302 1
78 344 1
78 357 1
78 494 1
78 536 1
78 549 1
79 111 1
79 154 1
79 172 1
79 303 1
79 346 1
79 364 1
79 495 1
79 538 1
79 556 1
80 112 1
80 157 1
80 175 1
80 304 1
80 349 1
80 367 1
80 496 1
80 541 1
80 559 1
81 120 1
81 132 1
81 174 1
81 312 1
81 324 1
81 366 1
81 504 1
81 516 1
81 558 1
82 113 1
82 135 1
82 164 1
82 305 1
82 327 1
82 356 1
82 497 1
82 519 1
82 548 1
83 128 1
83 137 1
83 173 1
83 320 1
83 329 1
83 365 1
83 512 1
83 521 1
83 557 1
84 126 1
84 129 1
84 168 1
84 318 1
84 321 1
84 360 1
84 510 1
84 513 1
84 552 1
85 114 1
85 139 1
85 167 1
85 306 1
85 331 1
85 359 1
85 498 1
85 523 1
85 551 1
86 121 1
86 140 1
86 163 1
86 313 1
86 332 1
86 355 1
86 505 1
86 524 1
86 547 1
87 116 1
87 130 1
87 161 1
87 308 1
87 322 1
87 353 1
87 500 1
87 514 1
87 545 1
88 117 1
88 142 1
88 171 1
88 309 1
88 334 1
88 363 1
88 501 1
88 526 1
88 555 1
89 125 1
89 131 1
89 176 1
89 317 1
89 323 1
89 368 1
89 509 1
89 515 1
89 560 1
90 124 1
90 143 1
90 166 1
90 316 1
90 335 1
90 358 1
90 508 1
90 527 1
90 550 1
91 119 1
91 133 1
91 162 1
91 311 1
91 325 1
91 354 1
91 503 1
91 517 1
91 546 1
92 115 1
92 134 1
92 169 1
92 307 1
92 326 1
92 361 1
92 499 1
92 518 1
92 553 1
93 127 1
93 144 1
93 170 1
93 319 1
93 336 1
93 362 1
93 511 1
93 528 1
93 554 1
94 123 1
94 136 1
94 165 1
94 315 1
94 328 1
94 357 1
94 507 1
94 520 1
94 549 1
95 118 1
95 138 1
95 172 1
95 310 1
95 330 1
95 364 1
95 502 1
95 522 1
95 556 1
96 122 1
96 141 1
96 175 1
96 314 1
96 333 1
96 367 1
96 506 1
96 525 1
96 559 1
97 193 1
97 228 1
97 283 1
97 385 1
97 420 1
97 475 1
97 481 1
97 516 1
97 571 1
98 194 1
98 231 1
98 286 1
98 386 1
98 423 1
98 478 1
98 482 1
98 519 1
98 574 1
99 195 1
99 233 1
99 287 1
99 387 1
99 425 1
99 479 1
99 483 1
99 521 1
99 575 1
100 196 1
100 225 1
100 277 1
100 388 1
100 417 1
100 469 1
100 484 1
100 513 1
100 565 1
101 197 1
101 235 1
101 276 1
101 389 1
101 427 1
101 468 1
101 485 1
101 523 1
101 564 1
102 198 1
102 236 1
102 288 1
102 390 1
102 428 1
102 480 1
102 486 1
102 524 1
102 576 1
103 199 1
103 226 1
103 280 1
103 391 1
103 418 1
103 472 1
103 487 1
103 514 1
103 568 1
104 200 1
104 238 1
104 279 1
104 392 1
104 430 1
104 471 1
104 488 1
104 526 1
104 567 1
105 201 1
105 227 1
105 282 1
105 393 1
105 419 1
105 474 1
105 489 1
105 515 1
105 570 1
106 202 1
106 239 1
106 281 1
106 394 1
106 431 1
106 473 1
106 490 1
106 527 1
106 569 1
107 203 1
107 229 1
107 273 1
107 395 1
107 421 1
107 465 1
107 491 1
107 517 1
107 561 1
108 204 1
108 230 1
108 285 1
108 396 1
108 422 1
108 477 1
108 492 1
108 518 1
108 573 1
109 205 1
109 240 1
109 284 1
109 397 1
109 432 1
109 476 1
109 493 1
109 528 1
109 572 1
110 206 1
110 232 1
110 274 1
110 398 1
110 424 1
110 466 1
110 494 1
110 520 1
110 562 1
111 207 1
111 234 1
111 275 1
111 399 1
111 426 1
111 467 1
111 495 1
111 522 1
111 563 1
112 208 1
112 237 1
112 278 1
112 400 1
112 429 1
112 470 1
112 496 1
112 525 1
112 566 1
113 193 1
113 244 1
113 270 1
113 385 1
113 436 1
113 462 1
113 481 1
113 532 1
113 558 1
114 194 1
114 247 1
114 260 1
114 386 1
114 439 1
114 452 1
114 482 1
114 535 1
114 548 1
115 195 1
115 249 1
115 269 1
115 387 1
115 441 1
115 461 1
115 483 1
115 537 1
115 557 1
116 196 1
116 241 1
116 264 1
116 388 1
116 433 1
116 456 1
116 484 1
116 529 1
116 552 1
117 197 1
117 251 1
117 263 1
117 389 1
117 443 1
117 455 1
117 485 1
117 539 1
117 551 1
118 198 1
118 252 1
118 259 1
118 390 1
118 444 1
118 451 1
118 486 1
118 540 1
118 547 1
119 199 1
119 242 1
119 257 1
119 391 1
119 434 1
119 449 1
119 487 1
119 530 1
119 545 1
120 200 1
120 254 1
120 267 1
120 392 1
120 446 1
120 459 1
120 488 1
120 542 1
120 555 1
121 201 1
121 243 1
121 272 1
121 393 1
121 435 1
121 464 1
121 489 1
121 531 1
121 560 1
122 202 1
122 255 1
122 262 1
122 394 1
122 447 1
122 454 1
122 490 1
122 543 1
122 550 1
123 203 1
123 245 1
123 258 1
123 395 1
123 437 1
123 450 1
123 491 1
123 533 1
123 546 1
124 204 1
124 246 1
124 265 1
124 396 1
124 438 1
124 457 1
124 492 1
124 534 1
124 553 1
125 205 1
125 256 1
125 266 1
125 397 1
125 448 1
125 458 1
125 493 1
125 544 1
125 554 1
126 206 1
126 248 1
126 261 1
126 398 1
126 440 1
126 453 1
126 494 1
126 536 1
126 549 1
127 207 1
127 250 1
127 268 1
127 399 1
127 442 1
127 460 1
127 495 1
127 538 1
127 556 1
128 208 1
128 253 1
128 271 1
128 400 1
128 445 1
128 463 1
128 496 1
128 541 1
128 559 1
129 216 1
129 228 1
129 270 1
129 408 1
129 420 1
129 462 1
129 504 1
129 516 1
129 558 1
130 209 1
130 231 1
130 260 1
130 401 1
130 423 1
130 452 1
130 497 1
130 519 1
130 548 1
131 224 1
131 233 1
131 269 1
131 416 1
131 425 1
131 461 1
131 512 1
131 521 1
131 557 1
132 222 1
132 225 1
132 264 1
132 414 1
132 417 1
132 456 1
132 510 1
132 513 1
132 552 1
133 210 1
133 235 1
133 263 1
133 402 1
133 427 1
133 455 1
133 498 1
133 523 1
133 551 1
134 217 1
134 236 1
134 259 1
134 409 1
134 428 1
134 451 1
134 505 1
134 524 1
134 547 1
135 212 1
135 226 1
135 257 1
135 404 1
135 418 1
135 449 1
135 500 1
135 514 1
135 545 1
136 213 1
136 238 1
136 267 1
136 405 1
136 430 1
136 459 1
136 501 1
136 526 1
136 555 1
137 221 1
137 227 1
137 272 1
137 413 1
137 419 1
137 464 1
137 509 1
137 515 1
137 560 1
138 220 1
138 239 1
138 262 1
138 412 1
138 431 1
138 454 1
138 508 1
138 527 1
138 550 1
139 215 1
139 229 1
139 258 1
139 407 1
139 421 1
139 450 1
139 503 1
139 517 1
139 546 1
140 211 1
140 230 1
140 265 1
140 403 1
140 422 1
140 457 1
140 499 1
140 518 1
140 553 1
141 223 1
141 240 1
141 266 1
141 415 1
141 432 1
141 458 1
141 511 1
141 528 1
141 554 1
142 219 1
142 232 1
142 261 1
142 411 1
142 424 1
142 453 1
142 507 1
142 520 1
142 549 1
143 214 1
143 234 1
143 268 1
143 406 1
143 426 1
143 460 1
143 502 1
143 522 1
143 556 1
144 218 1
144 237 1
144 271 1
144 410 1
144 429 1
144 463 1
144 506 1
144 525 1
144 559 1
145 1 1
145 17 1
145 49 1
145 291 1
145 307 1
145 339 1
145 389 1
145 405 1
145 437 1
146 2 1
146 18 1
146 50 1
146 300 1
146 316 1
146 348 1
146 392 1
146 408 1
146 440 1
147 3 1
147 19 1
147 51 1
147 292 1
147 308 1
147 340 1
147 394 1
147 410 1
147 442 1
148 4 1
148 20 1
148 52 1
148 297 1
148 313 1
148 345 1
148 395 1
148 411 1
148 443 1
149 5 1
149 21 1
149 53 1
149 298 1
149 314 1
149 346 1
149 385 1
149 401 1
149 433 1
150 6 1
150 22 1
150 54 1
150 290 1
150 306 1
150 338 1
150 397 1
150 413 1
150 445 1
151 7 1
151 23 1
151 55 1
151 294 1
151 310 1
151 342 1
151 398 1
151 414 1
151 446 1
152 8 1
152 24 1
152 56 1
152 304 1
152 320 1
152 352 1
152 386 1
152 402 1
152 434 1
153 9 1
153 25 1
153 57 1
153 289 1
153 305 1
153 337 1
153 399 1
153 415 1
153 447 1
154 10 1
154 26 1
154 58 1
154 299 1
154 315 1
154 347 1
154 387 1
154 403 1
154 435 1
155 11 1
155 27 1
155 59 1
155 303 1
155 319 1
155 351 1
155 388 1
155 404 1
155 436 1
156 12 1
156 28 1
156 60 1
156 295 1
156 311 1
156 343 1
156 400 1
156 416 1
156 448 1
157 13 1
157 29 1
157 61 1
157 296 1
157 312 1
157 344 1
157 390 1
157 406 1
157 438 1
158 14 1
158 30 1
158 62 1
158 301 1
158 317 1
158 349 1
158 391 1
158 407 1
158 439 1
159 15 1
159 31 1
159 63 1
159 293 1
159 309 1
159 341 1
159 393 1
159 409 1
159 441 1
160 16 1
160 32 1
160 64 1
160 302 1
160 318 1
160 350 1
160 396 1
160 412 1
160 444 1
161 1 1
161 33 1
161 65 1
161 291 1
161 323 1
161 355 1
161 389 1
161 421 1
161 453 1
162 2 1
162 34 1
162 66 1
162 300 1
162 332 1
162 364 1
162 392 1
162 424 1
162 456 1
163 3 1
163 35 1
163 67 1
163 292 1
163 324 1
163 356 1
163 394 1
163 426 1
163 458 1
164 4 1
164 36 1
164 68 1
164 297 1
164 329 1
164 361 1
164 395 1
164 427 1
164 459 1
165 5 1
165 37 1
165 69 1
165 298 1
165 330 1
165 362 1
165 385 1
165 417 1
165 449 1
166 6 1
166 38 1
166 70 1
166 290 1
166 322 1
166 354 1
166 397 1
166 429 1
166 461 1
167 7 1
167 39 1
167 71 1
167 294 1
167 326 1
167 358 1
167 398 1
167 430 1
167 462 1
168 8 1
168 40 1
168 72 1
168 304 1
168 336 1
168 368 1
168 386 1
168 418 1
168 450 1
169 9 1
169 41 1
169 73 1
169 289 1
169 321 1
169 353 1
169 399 1
169 431 1
169 463 1
170 10 1
170 42 1
170 74 1
170 299 1
170 331 1
170 363 1
170 387 1
170 419 1
170 451 1
171 11 1
171 43 1
171 75 1
171 303 1
171 335 1
171 367 1
171 388 1
171 420 1
171 452 1
172 12 1
172 44 1
172 76 1
172 295 1
172 327 1
172 359 1
172 400 1
172 432 1
172 464 1
173 13 1
173 45 1
173 77 1
173 296 1
173 328 1
173 360 1
173 390 1
173 422 1
173 454 1
174 14 1
174 46 1
174 78 1
174 301 1
174 333 1
174 365 1
174 391 1
174 423 1
174 455 1
175 15 1
175 47 1
175 79 1
175 293 1
175 325 1
175 357 1
175 393 1
175 425 1
175 457 1
176 16 1
176 48 1
176 80 1
176 302 1
176 334 1
176 366 1
176 396 1
176 428 1
176 460 1
177 17 1
177 33 1
177 81 1
177 307 1
177 323 1
177 371 1
177 405 1
177 421 1
177 469 1
178 18 1
178 34 1
178 82 1
178 316 1
178 332 1
178 380 1
178 408 1
178 424 1
178 472 1
179 19 1
179 35 1
179 83 1
179 308 1
179 324 1
179 372 1
179 410 1
179 426 1
179 474 1
180 20 1
180 36 1
180 84 1
180 313 1
180 329 1
180 377 1
180 411 1
180 427 1
180 475 1
181 21 1
181 37 1
181 85 1
181 314 1
181 330 1
181 378 1
181 401 1
181 417 1
181 465 1
182 22 1
182 38 1
182 86 1
182 306 1
182 322 1
182 370 1
182 413 1
182 429 1
182 477 1
183 23 1
183 39 1
183 87 1
183 310 1
183 326 1
183 374 1
183 414 1
183 430 1
183 478 1
184 24 1
184 40 1
184 88 1
184 320 1
184 336 1
184 384 1
184 402 1
184 418 1
184 466 1
185 25 1
185 41 1
185 89 1
185 305 1
185 321 1
185 369 1
185 415 1
185 431 1
185 479 1
186 26 1
186 42 1
186 90 1
186 315 1
186 331 1
186 379 1
186 403 1
186 419 1
186 467 1
187 27 1
187 43 1
187 91 1
187 319 1
187 335 1
187 383 1
187 404 1
187 420 1
187 468 1
188 28 1
188 44 1
188 92 1
188 311 1
188 327 1
188 375 1
188 416 1
188 432 1
188 480 1
189 29 1
189 45 1
189 93 1
189 312 1
189 328 1
189 376 1
189 406 1
189 422 1
189 470 1
190 30 1
190 46 1
190 94 1
190 317 1
190 333 1
190 381 1
190 407 1
190 423 1
190 471 1
191 31 1
191 47 1
191 95 1
191 309 1
191 325 1
191 373 1
191 409 1
191 425 1
191 473 1
192 32 1
192 48 1
192 96 1
192 318 1
192 334 1
192 382 1
192 412 1
192 428 1
192 476 1
193 98 1
193 114 1
193 146 1
193 195 1
193 211 1
193 243 1
193 389 1
193 405 1
193 437 1
194 101 1
194 117 1
194 149 1
194 204 1
194 220 1
194 252 1
194 392 1
194 408 1
194 440 1
195 102 1
195 118 1
195 150 1
195 196 1
195 212 1
195 244 1
195 394 1
195 410 1
195 442 1
196 103 1
196 119 1
196 151 1
196 201 1
196 217 1
196 249 1
196 395 1
196 411 1
196 443 1
197 104 1
197 120 1
197 152 1
197 202 1
197 218 1
197 250 1
197 385 1
197 401 1
197 433 1
198 106 1
198 122 1
198 154 1
198 194 1
198 210 1
198 242 1
198 397 1
198 413 1
198 445 1
199 107 1
199 123 1
199 155 1
199 198 1
199 214 1
199 246 1
199 398 1
199 414 1
199 446 1
200 97 1
200 113 1
200 145 1
200 208 1
200 224 1
200 256 1
200 386 1
200 402 1
200 434 1
201 108 1
201 124 1
201 156 1
201 193 1
201 209 1
201 241 1
201 399 1
201 415 1
201 447 1
202 109 1
202 125 1
202 157 1
202 203 1
202 219 1
202 251 1
202 387 1
202 403 1
202 435 1
203 110 1
203 126 1
203 158 1
203 207 1
203 223 1
203 255 1
203 388 1
203 404 1
203 436 1
204 111 1
204 127 1
204 159 1
204 199 1
204 215 1
204 247 1
204 400 1
204 416 1
204 448 1
205 99 1
205 115 1
205 147 1
205 200 1
205 216 1
205 248 1
205 390 1
205 406 1
205 438 1
206 100 1
206 116 1
206 148 1
206 205 1
206 221 1
206 253 1
206 391 1
206 407 1
206 439 1
207 112 1
207 128 1
207 160 1
207 197 1
207 213 1
207 245 1
207 393 1
207 409 1
207 441 1
208 105 1
208 121 1
208 153 1
208 206 1
208 222 1
208 254 1
208 396 1
208 412 1
208 444 1
209 98 1
209 130 1
209 162 1
209 195 1
209 227 1
209 259 1
209 389 1
209 421 1
209 453 1
210 101 1
210 133 1
210 165 1
210 204 1
210 236 1
210 268 1
210 392 1
210 424 1
210 456 1
211 102 1
211 134 1
211 166 1
211 196 1
211 228 1
211 260 1
211 394 1
211 426 1
211 458 1
212 103 1
212 135 1
212 167 1
212 201 1
212 233 1
212 265 1
212 395 1
212 427 1
212 459 1
213 104 1
213 136 1
213 168 1
213 202 1
213 234 1
213 266 1
213 385 1
213 417 1
213 449 1
214 106 1
214 138 1
214 170 1
214 194 1
214 226 1
214 258 1
214 397 1
214 429 1
214 461 1
215 107 1
215 139 1
215 171 1
215 198 1
215 230 1
215 262 1
215 398 1
215 430 1
215 462 1
216 97 1
216 129 1
216 161 1
216 208 1
216 240 1
216 272 1
216 386 1
216 418 1
216 450 1
217 108 1
217 140 1
217 172 1
217 193 1
217 225 1
217 257 1
217 399 1
217 431 1
217 463 1
218 109 1
218 141 1
218 173 1
218 203 1
218 235 1
218 267 1
218 387 1
218 419 1
218 451 1
219 110 1
219 142 1
219 174 1
219 207 1
219 239 1
219 271 1
219 388 1
219 420 1
219 452 1
220 111 1
220 143 1
220 175 1
220 199 1
220 231 1
220 263 1
220 400 1
220 432 1
220 464 1
221 99 1
221 131 1
221 163 1
221 200 1
221 232 1
221 264 1
221 390 1
221 422 1
221 454 1
222 100 1
222 132 1
222 164 1
222 205 1
222 237 1
222 269 1
222 391 1
222 423 1
222 455 1
223 112 1
223 144 1
223 176 1
223 197 1
223 229 1
223 261 1
223 393 1
223 425 1
223 457 1
224 105 1
224 137 1
224 169 1
224 206 1
224 238 1
224 270 1
224 396 1
224 428 1
224 460 1
225 114 1
225 130 1
225 178 1
225 211 1
225 227 1
225 275 1
225 405 1
225 421 1
225 469 1
226 117 1
226 133 1
226 181 1
226 220 1
226 236 1
226 284 1
226 408 1
226 424 1
226 472 1
227 118 1
227 134 1
227 182 1
227 212 1
227 228 1
227 276 1
227 410 1
227 426 1
227 474 1
228 119 1
228 135 1
228 183 1
228 217 1
228 233 1
228 281 1
228 411 1
228 427 1
228 475 1
229 120 1
229 136 1
229 184 1
229 218 1
229 234 1
229 282 1
229 401 1
229 417 1
229 465 1
230 122 1
230 138 1
230 186 1
230 210 1
230 226 1
230 274 1
230 413 1
230 429 1
230 477 1
231 123 1
231 139 1
231 187 1
231 214 1
231 230 1
231 278 1
231 414 1
231 430 1
231 478 1
232 113 1
232 129 1
232 177 1
232 224 1
232 240 1
232 288 1
232 402 1
232 418 1
232 466 1
233 124 1
233 140 1
233 188 1
233 209 1
233 225 1
233 273 1
233 415 1
233 431 1
233 479 1
234 125 1
234 141 1
234 189 1
234 219 1
234 235 1
234 283 1
234 403 1
234 419 1
234 467 1
235 126 1
235 142 1
235 190 1
235 223 1
235 239 1
235 287 1
235 404 1
235 420 1
235 468 1
236 127 1
236 143 1
236 191 1
236 215 1
236 231 1
236 279 1
236 416 1
236 432 1
236 480 1
237 115 1
237 131 1
237 179 1
237 216 1
237 232 1
237 280 1
237 406 1
237 422 1
237 470 1
238 116 1
238 132 1
238 180 1
238 221 1
238 237 1
238 285 1
238 407 1
238 423 1
238 471 1
239 128 1
239 144 1
239 192 1
239 213 1
239 229 1
239 277 1
239 409 1
239 425 1
239 473 1
240 121 1
240 137 1
240 185 1
240 222 1
240 238 1
240 286 1
240 412 1
240 428 1
240 476 1
241 98 1
241 114 1
241 146 1
241 291 1
241 307 1
241 339 1
241 487 1
241 503 1
241 535 1
242 101 1
242 117 1
242 149 1
242 300 1
242 316 1
242 348 1
242 491 1
242 507 1
242 539 1
243 102 1
243 118 1
243 150 1
243 292 1
243 308 1
243 340 1
243 492 1
243 508 1
243 540 1
244 103 1
244 119 1
244 151 1
244 297 1
244 313 1
244 345 1
244 482 1
244 498 1
244 530 1
245 104 1
245 120 1
245 152 1
245 298 1
245 314 1
245 346 1
245 494 1
245 510 1
245 542 1
246 106 1
246 122 1
246 154 1
246 290 1
246 306 1
246 338 1
246 495 1
246 511 1
246 543 1
247 107 1
247 123 1
247 155 1
247 294 1
247 310 1
247 342 1
247 485 1
247 501 1
247 533 1
248 97 1
248 113 1
248 145 1
248 304 1
248 320 1
248 352 1
248 484 1
248 500 1
248 532 1
249 108 1
249 124 1
249 156 1
249 289 1
249 305 1
249 337 1
249 486 1
249 502 1
249 534 1
250 109 1
250 125 1
250 157 1
250 299 1
250 315 1
250 347 1
250 496 1
250 512 1
250 544 1
251 110 1
251 126 1
251 158 1
251 303 1
251 319 1
251 351 1
251 488 1
251 504 1
251 536 1
252 111 1
252 127 1
252 159 1
252 295 1
252 311 1
252 343 1
252 490 1
252 506 1
252 538 1
253 99 1
253 115 1
253 147 1
253 296 1
253 312 1
253 344 1
253 489 1
253 505 1
253 537 1
254 100 1
254 116 1
254 148 1
254 301 1
254 317 1
254 349 1
254 481 1
254 497 1
254 529 1
255 112 1
255 128 1
255 160 1
255 293 1
255 309 1
255 341 1
255 493 1
255 509 1
255 541 1
256 105 1
256 121 1
256 153 1
256 302 1
256 318 1
256 350 1
256 483 1
256 499 1
256 531 1
257 98 1
257 130 1
257 162 1
257 291 1
257 323 1
257 355 1
257 487 1
257 519 1
257 551 1
258 101 1
258 133 1
258 165 1
258 300 1
258 332 1
258 364 1
258 491 1
258 523 1
258 555 1
259 102 1
259 134 1
259 166 1
259 292 1
259 324 1
259 356 1
259 492 1
259 524 1
259 556 1
260 103 1
260 135 1
260 167 1
260 297 1
260 329 1
260 361 1
260 482 1
260 514 1
260 546 1
261 104 1
261 136 1
261 168 1
261 298 1
261 330 1
261 362 1
261 494 1
261 526 1
261 558 1
262 106 1
262 138 1
262 170 1
262 290 1
262 322 1
262 354 1
262 495 1
262 527 1
262 559 1
263 107 1
263 139 1
263 171 1
263 294 1
263 326 1
263 358 1
263 485 1
263 517 1
263 549 1
264 97 1
264 129 1
264 161 1
264 304 1
264 336 1
264 368 1
264 484 1
264 516 1
264 548 1
265 108 1
265 140 1
265 172 1
265 289 1
265 321 1
265 353 1
265 486 1
265 518 1
265 550 1
266 109 1
266 141 1
266 173 1
266 299 1
266 331 1
266 363 1
266 496 1
266 528 1
266 560 1
267 110 1
267 142 1
267 174 1
267 303 1
267 335 1
267 367 1
267 488 1
267 520 1
267 552 1
268 111 1
268 143 1
268 175 1
268 295 1
268 327 1
268 359 1
268 490 1
268 522 1
268 554 1
269 99 1
269 131 1
269 163 1
269 296 1
269 328 1
269 360 1
269 489 1
269 521 1
269 553 1
270 100 1
270 132 1
270 164 1
270 301 1
270 333 1
270 365 1
270 481 1
270 513 1
270 545 1
271 112 1
271 144 1
271 176 1
271 293 1
271 325 1
271 357 1
271 493 1
271 525 1
271 557 1
272 105 1
272 137 1
272 169 1
272 302 1
272 334 1
272 366 1
272 483 1
272 515 1
272 547 1
273 114 1
273 130 1
273 178 1
273 307 1
273 323 1
273 371 1
273 503 1
273 519 1
273 567 1
274 117 1
274 133 1
274 181 1
274 316 1
274 332 1
274 380 1
274 507 1
274 523 1
274 571 1
275 118 1
275 134 1
275 182 1
275 308 1
275 324 1
275 372 1
275 508 1
275 524 1
275 572 1
276 119 1
276 135 1
276 183 1
276 313 1
276 329 1
276 377 1
276 498 1
276 514 1
276 562 1
277 120 1
277 136 1
277 184 1
277 314 1
277 330 1
277 378 1
277 510 1
277 526 1
277 574 1
278 122 1
278 138 1
278 186 1
278 306 1
278 322 1
278 370 1
278 511 1
278 527 1
278 575 1
279 123 1
279 139 1
279 187 1
279 310 1
279 326 1
279 374 1
279 501 1
279 517 1
279 565 1
280 113 1
280 129 1
280 177 1
280 320 1
280 336 1
280 384 1
280 500 1
280 516 1
280 564 1
281 124 1
281 140 1
281 188 1
281 305 1
281 321 1
281 369 1
281 502 1
281 518 1
281 566 1
282 125 1
282 141 1
282 189 1
282 315 1
282 331 1
282 379 1
282 512 1
282 528 1
282 576 1
283 126 1
283 142 1
283 190 1
283 319 1
283 335 1
283 383 1
283 504 1
283 520 1
283 568 1
284 127 1
284 143 1
284 191 1
284 311 1
284 327 1
284 375 1
284 506 1
284 522 1
284 570 1
285 115 1
285 131 1
285 179 1
285 312 1
285 328 1
285 376 1
285 505 1
285 521 1
285 569 1
286 116 1
286 132 1
286 180 1
286 317 1
286 333 1
286 381 1
286 497 1
286 513 1
286 561 1
287 128 1
287 144 1
287 192 1
287 309 1
287 325 1
287 373 1
287 509 1
287 525 1
287 573 1
288 121 1
288 137 1
288 185 1
288 318 1
288 334 1
288 382 1
288 499 1
288 515 1
288 563 1
