%%MatrixMarket matrix coordinate integer general
288 576 2592
1 1 1
1 31 1
1 88 1
1 289 1
1 319 1
1 376 1
1 385 1
1 415 1
1 472 1
2 2 1
2 32 1
2 90 1
2 290 1
2 320 1
2 378 1
2 386 1
2 416 1
2 474 1
3 3 1
3 17 1
3 93 1
3 291 1
3 305 1
3 381 1
3 387 1
3 401 1
3 477 1
4 4 1
4 19 1
4 94 1
4 292 1
4 307 1
4 382 1
4 388 1
4 403 1
4 478 1
5 5 1
5 25 1
5 82 1
5 293 1
5 313 1
5 370 1
5 389 1
5 409 1
5 466 1
6 6 1
6 18 1
6 91 1
6 294 1
6 306 1
6 379 1
6 390 1
6 402 1
6 475 1
7 7 1
7 22 1
7 95 1
7 295 1
7 310 1
7 383 1
7 391 1
7 406 1
7 479 1
8 8 1
8 28 1
8 83 1
8 296 1
8 316 1
8 371 1
8 392 1
8 412 1
8 467 1
9 9 1
9 20 1
9 96 1
9 297 1
9 308 1
9 384 1
9 393 1
9 404 1
9 480 1
10 10 1
10 21 1
10 86 1
10 298 1
10 309 1
10 374 1
10 394 1
10 405 1
10 470 1
11 11 1
11 26 1
11 87 1
11 299 1
11 314 1
11 375 1
11 395 1
11 410 1
11 471 1
12 12 1
12 23 1
12 81 1
12 300 1
12 311 1
12 369 1
12 396 1
12 407 1
12 465 1
13 13 1
13 24 1
13 84 1
13 301 1
13 312 1
13 372 1
13 397 1
13 408 1
13 468 1
14 14 1
14 29 1
14 89 1
14 302 1
14 317 1
14 377 1
14 398 1
14 413 1
14 473 1
15 15 1
15 27 1
15 92 1
15 303 1
15 315 1
15 380 1
15 399 1
15 411 1
15 476 1
16 16 1
16 30 1
16 85 1
16 304 1
16 318 1
16 373 1
16 400 1
16 414 1
16 469 1
17 1 1
17 60 1
17 73 1
17 289 1
17 348 1
17 361 1
17 385 1
17 444 1
17 457 1
18 2 1
18 53 1
18 76 1
18 290 1
18 341 1
18 364 1
18 386 1
18 437 1
18 460 1
19 3 1
19 56 1
19 69 1
19 291 1
19 344 1
19 357 1
19 387 1
19 440 1
19 453 1
20 4 1
20 61 1
20 74 1
20 292 1
20 349 1
20 362 1
20 388 1
20 445 1
20 458 1
21 5 1
21 64 1
21 79 1
21 293 1
21 352 1
21 367 1
21 389 1
21 448 1
21 463 1
22 6 1
22 58 1
22 72 1
22 294 1
22 346 1
22 360 1
22 390 1
22 442 1
22 456 1
23 7 1
23 59 1
23 77 1
23 295 1
23 347 1
23 365 1
23 391 1
23 443 1
23 461 1
24 8 1
24 49 1
24 80 1
24 296 1
24 337 1
24 368 1
24 392 1
24 433 1
24 464 1
25 9 1
25 62 1
25 75 1
25 297 1
25 350 1
25 363 1
25 393 1
25 446 1
25 459 1
26 10 1
26 50 1
26 65 1
26 298 1
26 338 1
26 353 1
26 394 1
26 434 1
26 449 1
27 11 1
27 54 1
27 67 1
27 299 1
27 342 1
27 355 1
27 395 1
27 438 1
27 451 1
28 12 1
28 63 1
28 78 1
28 300 1
28 351 1
28 366 1
28 396 1
28 447 1
28 462 1
29 13 1
29 51 1
29 66 1
29 301 1
29 339 1
29 354 1
29 397 1
29 435 1
29 450 1
30 14 1
30 52 1
30 70 1
30 302 1
30 340 1
30 358 1
30 398 1
30 436 1
30 454 1
31 15 1
31 55 1
31 68 1
31 303 1
31 343 1
31 356 1
31 399 1
31 439 1
31 452 1
32 16 1
32 57 1
32 71 1
32 304 1
32 345 1
32 359 1
32 400 1
32 441 1
32 455 1
33 31 1
33 43 1
33 60 1
33 319 1
33 331 1
33 348 1
33 415 1
33 427 1
33 444 1
34 32 1
34 46 1
34 53 1
34 320 1
34 334 1
34 341 1
34 416 1
34 430 1
34 437 1
35 17 1
35 47 1
35 56 1
35 305 1
35 335 1
35 344 1
35 401 1
35 431 1
35 440 1
36 19 1
36 33 1
36 61 1
36 307 1
36 321 1
36 349 1
36 403 1
36 417 1
36 445 1
37 25 1
37 36 1
37 64 1
37 313 1
37 324 1
37 352 1
37 409 1
37 420 1
37 448 1
38 18 1
38 48 1
38 58 1
38 306 1
38 336 1
38 346 1
38 402 1
38 432 1
38 442 1
39 22 1
39 34 1
39 59 1
39 310 1
39 322 1
39 347 1
39 406 1
39 418 1
39 443 1
40 28 1
40 39 1
40 49 1
40 316 1
40 327 1
40 337 1
40 412 1
40 423 1
40 433 1
41 20 1
41 35 1
41 62 1
41 308 1
41 323 1
41 350 1
41 404 1
41 419 1
41 446 1
42 21 1
42 41 1
42 50 1
42 309 1
42 329 1
42 338 1
42 405 1
42 425 1
42 434 1
43 26 1
43 37 1
43 54 1
43 314 1
43 325 1
43 342 1
43 410 1
43 421 1
43 438 1
44 23 1
44 38 1
44 63 1
44 311 1
44 326 1
44 351 1
44 407 1
44 422 1
44 447 1
45 24 1
45 44 1
45 51 1
45 312 1
45 332 1
45 339 1
45 408 1
45 428 1
45 435 1
46 29 1
46 40 1
46 52 1
46 317 1
46 328 1
46 340 1
46 413 1
46 424 1
46 436 1
47 27 1
47 42 1
47 55 1
47 315 1
47 330 1
47 343 1
47 411 1
47 426 1
47 439 1
48 30 1
48 45 1
48 57 1
48 318 1
48 333 1
48 345 1
48 414 1
48 429 1
48 441 1
49 97 1
49 127 1
49 184 1
49 289 1
49 319 1
49 376 1
49 481 1
49 511 1
49 568 1
50 98 1
50 128 1
50 186 1
50 290 1
50 320 1
50 378 1
50 482 1
50 512 1
50 570 1
51 99 1
51 113 1
51 189 1
51 291 1
51 305 1
51 381 1
51 483 1
51 497 1
51 573 1
52 100 1
52 115 1
52 190 1
52 292 1
52 307 1
52 382 1
52 484 1
52 499 1
52 574 1
53 101 1
53 121 1
53 178 1
53 293 1
53 313 1
53 370 1
53 485 1
53 505 1
53 562 1
54 102 1
54 114 1
54 187 1
54 294 1
54 306 1
54 379 1
54 486 1
54 498 1
54 571 1
55 103 1
55 118 1
55 191 1
55 295 1
55 310 1
55 383 1
55 487 1
55 502 1
55 575 1
56 104 1
56 124 1
56 179 1
56 296 1
56 316 1
56 371 1
56 488 1
56 508 1
56 563 1
57 105 1
57 116 1
57 192 1
57 297 1
57 308 1
57 384 1
57 489 1
57 500 1
57 576 1
58 106 1
58 117 1
58 182 1
58 298 1
58 309 1
58 374 1
58 490 1
58 501 1
58 566 1
59 107 1
59 122 1
59 183 1
59 299 1
59 314 1
59 375 1
59 491 1
59 506 1
59 567 1
60 108 1
60 119 1
60 177 1
60 300 1
60 311 1
60 369 1
60 492 1
60 503 1
60 561 1
61 109 1
61 120 1
61 180 1
61 301 1
61 312 1
61 372 1
61 493 1
61 504 1
61 564 1
62 110 1
62 125 1
62 185 1
62 302 1
62 317 1
62 377 1
62 494 1
62 509 1
62 569 1
63 111 1
63 123 1
63 188 1
63 303 1
63 315 1
63 380 1
63 495 1
63 507 1
63 572 1
64 112 1
64 126 1
64 181 1
64 304 1
64 318 1
64 373 1
64 496 1
64 510 1
64 565 1
65 97 1
65 156 1
65 169 1
65 289 1
65 348 1
65 361 1
65 481 1
65 540 1
65 553 1
66 98 1
66 149 1
66 172 1
66 290 1
66 341 1
66 364 1
66 482 1
66 533 1
66 556 1
67 99 1
67 152 1
67 165 1
67 291 1
67 344 1
67 357 1
67 483 1
67 536 1
67 549 1
68 100 1
68 157 1
68 170 1
68 292 1
68 349 1
68 362 1
68 484 1
68 541 1
68 554 1
69 101 1
69 160 1
69 175 1
69 293 1
69 352 1
69 367 1
69 485 1
69 544 1
69 559 1
70 102 1
70 154 1
70 168 1
70 294 1
70 346 1
70 360 1
70 486 1
70 538 1
70 552 1
71 103 1
71 155 1
71 173 1
71 295 1
71 347 1
71 365 1
71 487 1
71 539 1
71 557 1
72 104 1
72 145 1
72 176 1
72 296 1
72 337 1
72 368 1
72 488 1
72 529 1
72 560 1
73 105 1
73 158 1
73 171 1
73 297 1
73 350 1
73 363 1
73 489 1
73 542 1
73 555 1
74 106 1
74 146 1
74 161 1
74 298 1
74 338 1
74 353 1
74 490 1
74 530 1
74 545 1
75 107 1
75 150 1
75 163 1
75 299 1
75 342 1
75 355 1
75 491 1
75 534 1
75 547 1
76 108 1
76 159 1
76 174 1
76 300 1
76 351 1
76 366 1
76 492 1
76 543 1
76 558 1
77 109 1
77 147 1
77 162 1
77 301 1
77 339 1
77 354 1
77 493 1
77 531 1
77 546 1
78 110 1
78 148 1
78 166 1
78 302 1
78 340 1
78 358 1
78 494 1
78 532 1
78 550 1
79 111 1
79 151 1
79 164 1
79 303 1
79 343 1
79 356 1
79 495 1
79 535 1
79 548 1
80 112 1
80 153 1
80 167 1
80 304 1
80 345 1
80 359 1
80 496 1
80 537 1
80 551 1
81 127 1
81 139 1
81 156 1
81 319 1
81 331 1
81 348 1
81 511 1
81 523 1
81 540 1
82 128 1
82 142 1
82 149 1
82 320 1
82 334 1
82 341 1
82 512 1
82 526 1
82 533 1
83 113 1
83 143 1
83 152 1
83 305 1
83 335 1
83 344 1
83 497 1
83 527 1
83 536 1
84 115 1
84 129 1
84 157 1
84 307 1
84 321 1
84 349 1
84 499 1
84 513 1
84 541 1
85 121 1
85 132 1
85 160 1
85 313 1
85 324 1
85 352 1
85 505 1
85 516 1
85 544 1
86 114 1
86 144 1
86 154 1
86 306 1
86 336 1
86 346 1
86 498 1
86 528 1
86 538 1
87 118 1
87 130 1
87 155 1
87 310 1
87 322 1
87 347 1
87 502 1
87 514 1
87 539 1
88 124 1
88 135 1
88 145 1
88 316 1
88 327 1
88 337 1
88 508 1
88 519 1
88 529 1
89 116 1
89 131 1
89 158 1
89 308 1
89 323 1
89 350 1
89 500 1
89 515 1
89 542 1
90 117 1
90 137 1
90 146 1
90 309 1
90 329 1
90 338 1
90 501 1
90 521 1
90 530 1
91 122 1
91 133 1
91 150 1
91 314 1
91 325 1
91 342 1
91 506 1
91 517 1
91 534 1
92 119 1
92 134 1
92 159 1
92 311 1
92 326 1
92 351 1
92 503 1
92 518 1
92 543 1
93 120 1
93 140 1
93 147 1
93 312 1
93 332 1
93 339 1
93 504 1
93 524 1
93 531 1
94 125 1
94 136 1
94 148 1
94 317 1
94 328 1
94 340 1
94 509 1
94 520 1
94 532 1
95 123 1
95 138 1
95 151 1
95 315 1
95 330 1
95 343 1
95 507 1
95 522 1
95 535 1
96 126 1
96 141 1
96 153 1
96 318 1
96 333 1
96 345 1
96 510 1
96 525 1
96 537 1
97 193 1
97 223 1
97 280 1
97 385 1
97 415 1
97 472 1
97 481 1
97 511 1
97 568 1
98 194 1
98 224 1
98 282 1
98 386 1
98 416 1
98 474 1
98 482 1
98 512 1
98 570 1
99 195 1
99 209 1
99 285 1
99 387 1
99 401 1
99 477 1
99 483 1
99 497 1
99 573 1
100 196 1
100 211 1
100 286 1
100 388 1
100 403 1
100 478 1
100 484 1
100 499 1
100 574 1
101 197 1
101 217 1
101 274 1
101 389 1
101 409 1
101 466 1
101 485 1
101 505 1
101 562 1
102 198 1
102 210 1
102 283 1
102 390 1
102 402 1
102 475 1
102 486 1
102 498 1
102 571 1
103 199 1
103 214 1
103 287 1
103 391 1
103 406 1
103 479 1
103 487 1
103 502 1
103 575 1
104 200 1
104 220 1
104 275 1
104 392 1
104 412 1
104 467 1
104 488 1
104 508 1
104 563 1
105 201 1
105 212 1
105 288 1
105 393 1
105 404 1
105 480 1
105 489 1
105 500 1
105 576 1
106 202 1
106 213 1
106 278 1
106 394 1
106 405 1
106 470 1
106 490 1
106 501 1
106 566 1
107 203 1
107 218 1
107 279 1
107 395 1
107 410 1
107 471 1
107 491 1
107 506 1
107 567 1
108 204 1
108 215 1
108 273 1
108 396 1
108 407 1
108 465 1
108 492 1
108 503 1
108 561 1
109 205 1
109 216 1
109 276 1
109 397 1
109 408 1
109 468 1
109 493 1
109 504 1
109 564 1
110 206 1
110 221 1
110 281 1
110 398 1
110 413 1
110 473 1
110 494 1
110 509 1
110 569 1
111 207 1
111 219 1
111 284 1
111 399 1
111 411 1
111 476 1
111 495 1
111 507 1
111 572 1
112 208 1
112 222 1
112 277 1
112 400 1
112 414 1
112 469 1
112 496 1
112 510 1
112 565 1
113 193 1
113 252 1
113 265 1
113 385 1
113 444 1
113 457 1
113 481 1
113 540 1
113 553 1
114 194 1
114 245 1
114 268 1
114 386 1
114 437 1
114 460 1
114 482 1
114 533 1
114 556 1
115 195 1
115 248 1
115 261 1
115 387 1
115 440 1
115 453 1
115 483 1
115 536 1
115 549 1
116 196 1
116 253 1
116 266 1
116 388 1
116 445 1
116 458 1
116 484 1
116 541 1
116 554 1
117 197 1
117 256 1
117 271 1
117 389 1
117 448 1
117 463 1
117 485 1
117 544 1
117 559 1
118 198 1
118 250 1
118 264 1
118 390 1
118 442 1
118 456 1
118 486 1
118 538 1
118 552 1
119 199 1
119 251 1
119 269 1
119 391 1
119 443 1
119 461 1
119 487 1
119 539 1
119 557 1
120 200 1
120 241 1
120 272 1
120 392 1
120 433 1
120 464 1
120 488 1
120 529 1
120 560 1
121 201 1
121 254 1
121 267 1
121 393 1
121 446 1
121 459 1
121 489 1
121 542 1
121 555 1
122 202 1
122 242 1
122 257 1
122 394 1
122 434 1
122 449 1
122 490 1
122 530 1
122 545 1
123 203 1
123 246 1
123 259 1
123 395 1
123 438 1
123 451 1
123 491 1
123 534 1
123 547 1
124 204 1
124 255 1
124 270 1
124 396 1
124 447 1
124 462 1
124 492 1
124 543 1
124 558 1
125 205 1
125 243 1
125 258 1
125 397 1
125 435 1
125 450 1
125 493 1
125 531 1
125 546 1
126 206 1
126 244 1
126 262 1
126 398 1
126 436 1
126 454 1
126 494 1
126 532 1
126 550 1
127 207 1
127 247 1
127 260 1
127 399 1
127 439 1
127 452 1
127 495 1
127 535 1
127 548 1
128 208 1
128 249 1
128 263 1
128 400 1
128 441 1
128 455 1
128 496 1
128 537 1
128 551 1
129 223 1
129 235 1
129 252 1
129 415 1
129 427 1
129 444 1
129 511 1
129 523 1
129 540 1
130 224 1
130 238 1
130 245 1
130 416 1
130 430 1
130 437 1
130 512 1
130 526 1
130 533 1
131 209 1
131 239 1
131 248 1
131 401 1
131 431 1
131 440 1
131 497 1
131 527 1
131 536 1
132 211 1
132 225 1
132 253 1
132 403 1
132 417 1
132 445 1
132 499 1
132 513 1
132 541 1
133 217 1
133 228 1
133 256 1
133 409 1
133 420 1
133 448 1
133 505 1
133 516 1
133 544 1
134 210 1
134 240 1
134 250 1
134 402 1
134 432 1
134 442 1
134 498 1
134 528 1
134 538 1
135 214 1
135 226 1
135 251 1
135 406 1
135 418 1
135 443 1
135 502 1
135 514 1
135 539 1
136 220 1
136 231 1
136 241 1
136 412 1
136 423 1
136 433 1
136 508 1
136 519 1
136 529 1
137 212 1
137 227 1
137 254 1
137 404 1
137 419 1
137 446 1
137 500 1
137 515 1
137 542 1
138 213 1
138 233 1
138 242 1
138 405 1
138 425 1
138 434 1
138 501 1
138 521 1
138 530 1
139 218 1
139 229 1
139 246 1
139 410 1
139 421 1
139 438 1
139 506 1
139 517 1
139 534 1
140 215 1
140 230 1
140 255 1
140 407 1
140 422 1
140 447 1
140 503 1
140 518 1
140 543 1
141 216 1
141 236 1
141 243 1
141 408 1
141 428 1
141 435 1
141 504 1
141 524 1
141 531 1
142 221 1
142 232 1
142 244 1
142 413 1
142 424 1
142 436 1
142 509 1
142 520 1
142 532 1
143 219 1
143 234 1
143 247 1
143 411 1
143 426 1
143 439 1
143 507 1
143 522 1
143 535 1
144 222 1
144 237 1
144 249 1
144 414 1
144 429 1
144 441 1
144 510 1
144 525 1
144 537 1
145 1 1
145 17 1
145 49 1
145 195 1
145 211 1
145 243 1
145 392 1
145 408 1
145 440 1
146 2 1
146 18 1
146 50 1
146 198 1
146 214 1
146 246 1
146 394 1
146 410 1
146 442 1
147 3 1
147 19 1
147 51 1
147 196 1
147 212 1
147 244 1
147 397 1
147 413 1
147 445 1
148 4 1
148 20 1
148 52 1
148 201 1
148 217 1
148 249 1
148 398 1
148 414 1
148 446 1
149 5 1
149 21 1
149 53 1
149 202 1
149 218 1
149 250 1
149 386 1
149 402 1
149 434 1
150 6 1
150 22 1
150 54 1
150 199 1
150 215 1
150 247 1
150 395 1
150 411 1
150 443 1
151 7 1
151 23 1
151 55 1
151 204 1
151 220 1
151 252 1
151 399 1
151 415 1
151 447 1
152 8 1
152 24 1
152 56 1
152 205 1
152 221 1
152 253 1
152 387 1
152 403 1
152 435 1
153 9 1
153 25 1
153 57 1
153 197 1
153 213 1
153 245 1
153 400 1
153 416 1
153 448 1
154 10 1
154 26 1
154 58 1
154 203 1
154 219 1
154 251 1
154 390 1
154 406 1
154 438 1
155 11 1
155 27 1
155 59 1
155 207 1
155 223 1
155 255 1
155 391 1
155 407 1
155 439 1
156 12 1
156 28 1
156 60 1
156 200 1
156 216 1
156 248 1
156 385 1
156 401 1
156 433 1
157 13 1
157 29 1
157 61 1
157 206 1
157 222 1
157 254 1
157 388 1
157 404 1
157 436 1
158 14 1
158 30 1
158 62 1
158 208 1
158 224 1
158 256 1
158 393 1
158 409 1
158 441 1
159 15 1
159 31 1
159 63 1
159 193 1
159 209 1
159 241 1
159 396 1
159 412 1
159 444 1
160 16 1
160 32 1
160 64 1
160 194 1
160 210 1
160 242 1
160 389 1
160 405 1
160 437 1
161 1 1
161 33 1
161 65 1
161 195 1
161 227 1
161 259 1
161 392 1
161 424 1
161 456 1
162 2 1
162 34 1
162 66 1
162 198 1
162 230 1
162 262 1
162 394 1
162 426 1
162 458 1
163 3 1
163 35 1
163 67 1
163 196 1
163 228 1
163 260 1
163 397 1
163 429 1
163 461 1
164 4 1
164 36 1
164 68 1
164 201 1
164 233 1
164 265 1
164 398 1
164 430 1
164 462 1
165 5 1
165 37 1
165 69 1
165 202 1
165 234 1
165 266 1
165 386 1
165 418 1
165 450 1
166 6 1
166 38 1
166 70 1
166 199 1
166 231 1
166 263 1
166 395 1
166 427 1
166 459 1
167 7 1
167 39 1
167 71 1
167 204 1
167 236 1
167 268 1
167 399 1
167 431 1
167 463 1
168 8 1
168 40 1
168 72 1
168 205 1
168 237 1
168 269 1
168 387 1
168 419 1
168 451 1
169 9 1
169 41 1
169 73 1
169 197 1
169 229 1
169 261 1
169 400 1
169 432 1
169 464 1
170 10 1
170 42 1
170 74 1
170 203 1
170 235 1
170 267 1
170 390 1
170 422 1
170 454 1
171 11 1
171 43 1
171 75 1
171 207 1
171 239 1
171 271 1
171 391 1
171 423 1
171 455 1
172 12 1
172 44 1
172 76 1
172 200 1
172 232 1
172 264 1
172 385 1
172 417 1
172 449 1
173 13 1
173 45 1
173 77 1
173 206 1
173 238 1
173 270 1
173 388 1
173 420 1
173 452 1
174 14 1
174 46 1
174 78 1
174 208 1
174 240 1
174 272 1
174 393 1
174 425 1
174 457 1
175 15 1
175 47 1
175 79 1
175 193 1
175 225 1
175 257 1
175 396 1
175 428 1
175 460 1
176 16 1
176 48 1
176 80 1
176 194 1
176 226 1
176 258 1
176 389 1
176 421 1
176 453 1
177 17 1
177 33 1
177 81 1
177 211 1
177 227 1
177 275 1
177 408 1
177 424 1
177 472 1
178 18 1
178 34 1
178 82 1
178 214 1
178 230 1
178 278 1
178 410 1
178 426 1
178 474 1
179 19 1
179 35 1
179 83 1
179 212 1
179 228 1
179 276 1
179 413 1
179 429 1
179 477 1
180 20 1
180 36 1
180 84 1
180 217 1
180 233 1
180 281 1
180 414 1
180 430 1
180 478 1
181 21 1
181 37 1
181 85 1
181 218 1
181 234 1
181 282 1
181 402 1
181 418 1
181 466 1
182 22 1
182 38 1
182 86 1
182 215 1
182 231 1
182 279 1
182 411 1
182 427 1
182 475 1
183 23 1
183 39 1
183 87 1
183 220 1
183 236 1
183 284 1
183 415 1
183 431 1
183 479 1
184 24 1
184 40 1
184 88 1
184 221 1
184 237 1
184 285 1
184 403 1
184 419 1
184 467 1
185 25 1
185 41 1
185 89 1
185 213 1
185 229 1
185 277 1
185 416 1
185 432 1
185 480 1
186 26 1
186 42 1
186 90 1
186 219 1
186 235 1
186 283 1
186 406 1
186 422 1
186 470 1
187 27 1
187 43 1
187 91 1
187 223 1
187 239 1
187 287 1
187 407 1
187 423 1
187 471 1
188 28 1
188 44 1
188 92 1
188 216 1
188 232 1
188 280 1
188 401 1
188 417 1
188 465 1
189 29 1
189 45 1
189 93 1
189 222 1
189 238 1
189 286 1
189 404 1
189 420 1
189 468 1
190 30 1
190 46 1
190 94 1
190 224 1
190 240 1
190 288 1
190 409 1
190 425 1
190 473 1
191 31 1
191 47 1
191 95 1
191 209 1
191 225 1
191 273 1
191 412 1
191 428 1
191 476 1
192 32 1
192 48 1
192 96 1
192 210 1
192 226 1
192 274 1
192 405 1
192 421 1
192 469 1
193 98 1
193 114 1
193 146 1
193 195 1
193 211 1
193 243 1
193 294 1
193 310 1
193 342 1
194 99 1
194 115 1
194 147 1
194 198 1
194 214 1
194 246 1
194 292 1
194 308 1
194 340 1
195 102 1
195 118 1
195 150 1
195 196 1
195 212 1
195 244 1
195 295 1
195 311 1
195 343 1
196 103 1
196 119 1
196 151 1
196 201 1
196 217 1
196 249 1
196 300 1
196 316 1
196 348 1
197 104 1
197 120 1
197 152 1
197 202 1
197 218 1
197 250 1
197 301 1
197 317 1
197 349 1
198 100 1
198 116 1
198 148 1
198 199 1
198 215 1
198 247 1
198 297 1
198 313 1
198 345 1
199 105 1
199 121 1
199 153 1
199 204 1
199 220 1
199 252 1
199 293 1
199 309 1
199 341 1
200 106 1
200 122 1
200 154 1
200 205 1
200 221 1
200 253 1
200 299 1
200 315 1
200 347 1
201 108 1
201 124 1
201 156 1
201 197 1
201 213 1
201 245 1
201 296 1
201 312 1
201 344 1
202 109 1
202 125 1
202 157 1
202 203 1
202 219 1
202 251 1
202 302 1
202 318 1
202 350 1
203 110 1
203 126 1
203 158 1
203 207 1
203 223 1
203 255 1
203 304 1
203 320 1
203 352 1
204 101 1
204 117 1
204 149 1
204 200 1
204 216 1
204 248 1
204 298 1
204 314 1
204 346 1
205 107 1
205 123 1
205 155 1
205 206 1
205 222 1
205 254 1
205 303 1
205 319 1
205 351 1
206 111 1
206 127 1
206 159 1
206 208 1
206 224 1
206 256 1
206 289 1
206 305 1
206 337 1
207 112 1
207 128 1
207 160 1
207 193 1
207 209 1
207 241 1
207 290 1
207 306 1
207 338 1
208 97 1
208 113 1
208 145 1
208 194 1
208 210 1
208 242 1
208 291 1
208 307 1
208 339 1
209 98 1
209 130 1
209 162 1
209 195 1
209 227 1
209 259 1
209 294 1
209 326 1
209 358 1
210 99 1
210 131 1
210 163 1
210 198 1
210 230 1
210 262 1
210 292 1
210 324 1
210 356 1
211 102 1
211 134 1
211 166 1
211 196 1
211 228 1
211 260 1
211 295 1
211 327 1
211 359 1
212 103 1
212 135 1
212 167 1
212 201 1
212 233 1
212 265 1
212 300 1
212 332 1
212 364 1
213 104 1
213 136 1
213 168 1
213 202 1
213 234 1
213 266 1
213 301 1
213 333 1
213 365 1
214 100 1
214 132 1
214 164 1
214 199 1
214 231 1
214 263 1
214 297 1
214 329 1
214 361 1
215 105 1
215 137 1
215 169 1
215 204 1
215 236 1
215 268 1
215 293 1
215 325 1
215 357 1
216 106 1
216 138 1
216 170 1
216 205 1
216 237 1
216 269 1
216 299 1
216 331 1
216 363 1
217 108 1
217 140 1
217 172 1
217 197 1
217 229 1
217 261 1
217 296 1
217 328 1
217 360 1
218 109 1
218 141 1
218 173 1
218 203 1
218 235 1
218 267 1
218 302 1
218 334 1
218 366 1
219 110 1
219 142 1
219 174 1
219 207 1
219 239 1
219 271 1
219 304 1
219 336 1
219 368 1
220 101 1
220 133 1
220 165 1
220 200 1
220 232 1
220 264 1
220 298 1
220 330 1
220 362 1
221 107 1
221 139 1
221 171 1
221 206 1
221 238 1
221 270 1
221 303 1
221 335 1
221 367 1
222 111 1
222 143 1
222 175 1
222 208 1
222 240 1
222 272 1
222 289 1
222 321 1
222 353 1
223 112 1
223 144 1
223 176 1
223 193 1
223 225 1
223 257 1
223 290 1
223 322 1
223 354 1
224 97 1
224 129 1
224 161 1
224 194 1
224 226 1
224 258 1
224 291 1
224 323 1
224 355 1
225 114 1
225 130 1
225 178 1
225 211 1
225 227 1
225 275 1
225 310 1
225 326 1
225 374 1
226 115 1
226 131 1
226 179 1
226 214 1
226 230 1
226 278 1
226 308 1
226 324 1
226 372 1
227 118 1
227 134 1
227 182 1
227 212 1
227 228 1
227 276 1
227 311 1
227 327 1
227 375 1
228 119 1
228 135 1
228 183 1
228 217 1
228 233 1
228 281 1
228 316 1
228 332 1
228 380 1
229 120 1
229 136 1
229 184 1
229 218 1
229 234 1
229 282 1
229 317 1
229 333 1
229 381 1
230 116 1
230 132 1
230 180 1
230 215 1
230 231 1
230 279 1
230 313 1
230 329 1
230 377 1
231 121 1
231 137 1
231 185 1
231 220 1
231 236 1
231 284 1
231 309 1
231 325 1
231 373 1
232 122 1
232 138 1
232 186 1
232 221 1
232 237 1
232 285 1
232 315 1
232 331 1
232 379 1
233 124 1
233 140 1
233 188 1
233 213 1
233 229 1
233 277 1
233 312 1
233 328 1
233 376 1
234 125 1
234 141 1
234 189 1
234 219 1
234 235 1
234 283 1
234 318 1
234 334 1
234 382 1
235 126 1
235 142 1
235 190 1
235 223 1
235 239 1
235 287 1
235 320 1
235 336 1
235 384 1
236 117 1
236 133 1
236 181 1
236 216 1
236 232 1
236 280 1
236 314 1
236 330 1
236 378 1
237 123 1
237 139 1
237 187 1
237 222 1
237 238 1
237 286 1
237 319 1
237 335 1
237 383 1
238 127 1
238 143 1
238 191 1
238 224 1
238 240 1
238 288 1
238 305 1
238 321 1
238 369 1
239 128 1
239 144 1
239 192 1
239 209 1
239 225 1
239 273 1
239 306 1
239 322 1
239 370 1
240 113 1
240 129 1
240 177 1
240 210 1
240 226 1
240 274 1
240 307 1
240 323 1
240 371 1
241 294 1
241 310 1
241 342 1
241 392 1
241 408 1
241 440 1
241 492 1
241 508 1
241 540 1
242 292 1
242 308 1
242 340 1
242 394 1
242 410 1
242 442 1
242 485 1
242 501 1
242 533 1
243 295 1
243 311 1
243 343 1
243 397 1
243 413 1
243 445 1
243 488 1
243 504 1
243 536 1
244 300 1
244 316 1
244 348 1
244 398 1
244 414 1
244 446 1
244 493 1
244 509 1
244 541 1
245 301 1
245 317 1
245 349 1
245 386 1
245 402 1
245 434 1
245 496 1
245 512 1
245 544 1
246 297 1
246 313 1
246 345 1
246 395 1
246 411 1
246 443 1
246 490 1
246 506 1
246 538 1
247 293 1
247 309 1
247 341 1
247 399 1
247 415 1
247 447 1
247 491 1
247 507 1
247 539 1
248 299 1
248 315 1
248 347 1
248 387 1
248 403 1
248 435 1
248 481 1
248 497 1
248 529 1
249 296 1
249 312 1
249 344 1
249 400 1
249 416 1
249 448 1
249 494 1
249 510 1
249 542 1
250 302 1
250 318 1
250 350 1
250 390 1
250 406 1
250 438 1
250 482 1
250 498 1
250 530 1
251 304 1
251 320 1
251 352 1
251 391 1
251 407 1
251 439 1
251 486 1
251 502 1
251 534 1
252 298 1
252 314 1
252 346 1
252 385 1
252 401 1
252 433 1
252 495 1
252 511 1
252 543 1
253 303 1
253 319 1
253 351 1
253 388 1
253 404 1
253 436 1
253 483 1
253 499 1
253 531 1
254 289 1
254 305 1
254 337 1
254 393 1
254 409 1
254 441 1
254 484 1
254 500 1
254 532 1
255 290 1
255 306 1
255 338 1
255 396 1
255 412 1
255 444 1
255 487 1
255 503 1
255 535 1
256 291 1
256 307 1
256 339 1
256 389 1
256 405 1
256 437 1
256 489 1
256 505 1
256 537 1
257 294 1
257 326 1
257 358 1
257 392 1
257 424 1
257 456 1
257 492 1
257 524 1
257 556 1
258 292 1
258 324 1
258 356 1
258 394 1
258 426 1
258 458 1
258 485 1
258 517 1
258 549 1
259 295 1
259 327 1
259 359 1
259 397 1
259 429 1
259 461 1
259 488 1
259 520 1
259 552 1
260 300 1
260 332 1
260 364 1
260 398 1
260 430 1
260 462 1
260 493 1
260 525 1
260 557 1
261 301 1
261 333 1
261 365 1
261 386 1
261 418 1
261 450 1
261 496 1
261 528 1
261 560 1
262 297 1
262 329 1
262 361 1
262 395 1
262 427 1
262 459 1
262 490 1
262 522 1
262 554 1
263 293 1
263 325 1
263 357 1
263 399 1
263 431 1
263 463 1
263 491 1
263 523 1
263 555 1
264 299 1
264 331 1
264 363 1
264 387 1
264 419 1
264 451 1
264 481 1
264 513 1
264 545 1
265 296 1
265 328 1
265 360 1
265 400 1
265 432 1
265 464 1
265 494 1
265 526 1
265 558 1
266 302 1
266 334 1
266 366 1
266 390 1
266 422 1
266 454 1
266 482 1
266 514 1
266 546 1
267 304 1
267 336 1
267 368 1
267 391 1
267 423 1
267 455 1
267 486 1
267 518 1
267 550 1
268 298 1
268 330 1
268 362 1
268 385 1
268 417 1
268 449 1
268 495 1
268 527 1
268 559 1
269 303 1
269 335 1
269 367 1
269 388 1
269 420 1
269 452 1
269 483 1
269 515 1
269 547 1
270 289 1
270 321 1
270 353 1
270 393 1
270 425 1
270 457 1
270 484 1
270 516 1
270 548 1
271 290 1
271 322 1
271 354 1
271 396 1
271 428 1
271 460 1
271 487 1
271 519 1
271 551 1
272 291 1
272 323 1
272 355 1
272 389 1
272 421 1
272 453 1
272 489 1
272 521 1
272 553 1
273 310 1
273 326 1
273 374 1
273 408 1
273 424 1
273 472 1
273 508 1
273 524 1
273 572 1
274 308 1
274 324 1
274 372 1
274 410 1
274 426 1
274 474 1
274 501 1
274 517 1
274 565 1
275 311 1
275 327 1
275 375 1
275 413 1
275 429 1
275 477 1
275 504 1
275 520 1
275 568 1
276 316 1
276 332 1
276 380 1
276 414 1
276 430 1
276 478 1
276 509 1
276 525 1
276 573 1
277 317 1
277 333 1
277 381 1
277 402 1
277 418 1
277 466 1
277 512 1
277 528 1
277 576 1
278 313 1
278 329 1
278 377 1
278 411 1
278 427 1
278 475 1
278 506 1
278 522 1
278 570 1
279 309 1
279 325 1
279 373 1
279 415 1
279 431 1
279 479 1
279 507 1
279 523 1
279 571 1
280 315 1
280 331 1
280 379 1
280 403 1
280 419 1
280 467 1
280 497 1
280 513 1
280 561 1
281 312 1
281 328 1
281 376 1
281 416 1
281 432 1
281 480 1
281 510 1
281 526 1
281 574 1
282 318 1
282 334 1
282 382 1
282 406 1
282 422 1
282 470 1
282 498 1
282 514 1
282 562 1
283 320 1
283 336 1
283 384 1
283 407 1
283 423 1
283 471 1
283 502 1
283 518 1
283 566 1
284 314 1
284 330 1
284 378 1
284 401 1
284 417 1
284 465 1
284 511 1
284 527 1
284 575 1
285 319 1
285 335 1
285 383 1
285 404 1
285 420 1
285 468 1
285 499 1
285 515 1
285 563 1
286 305 1
286 321 1
286 369 1
286 409 1
286 425 1
286 473 1
286 500 1
286 516 1
286 564 1
287 306 1
287 322 1
287 370 1
287 412 1
287 428 1
287 476 1
287 503 1
287 519 1
287 567 1
288 307 1
288 323 1
288 371 1
288 405 1
288 421 1
288 469 1
288 505 1
288 521 1
288 569 1
