%%MatrixMarket matrix coordinate integer general
32 64 512
1 1 1
1 4 1
1 6 1
1 7 1
1 33 1
1 36 1
1 38 1
1 39 1
1 41 1
1 44 1
1 46 1
1 47 1
1 49 1
1 52 1
1 54 1
1 55 1
2 2 1
2 4 1
2 6 1
2 8 1
2 34 1
2 36 1
2 38 1
2 40 1
2 42 1
2 44 1
2 46 1
2 48 1
2 50 1
2 52 1
2 54 1
2 56 1
3 3 1
3 4 1
3 7 1
3 8 1
3 35 1
3 36 1
3 39 1
3 40 1
3 43 1
3 44 1
3 47 1
3 48 1
3 51 1
3 52 1
3 55 1
3 56 1
4 5 1
4 6 1
4 7 1
4 8 1
4 37 1
4 38 1
4 39 1
4 40 1
4 45 1
4 46 1
4 47 1
4 48 1
4 53 1
4 54 1
4 55 1
4 56 1
5 9 1
5 12 1
5 14 1
5 15 1
5 33 1
5 36 1
5 38 1
5 39 1
5 41 1
5 44 1
5 46 1
5 47 1
5 57 1
5 60 1
5 62 1
5 63 1
6 10 1
6 12 1
6 14 1
6 16 1
6 34 1
6 36 1
6 38 1
6 40 1
6 42 1
6 44 1
6 46 1
6 48 1
6 58 1
6 60 1
6 62 1
6 64 1
7 11 1
7 12 1
7 15 1
7 16 1
7 35 1
7 36 1
7 39 1
7 40 1
7 43 1
7 44 1
7 47 1
7 48 1
7 59 1
7 60 1
7 63 1
7 64 1
8 13 1
8 14 1
8 15 1
8 16 1
8 37 1
8 38 1
8 39 1
8 40 1
8 45 1
8 46 1
8 47 1
8 48 1
8 61 1
8 62 1
8 63 1
8 64 1
9 17 1
9 20 1
9 22 1
9 23 1
9 33 1
9 36 1
9 38 1
9 39 1
9 49 1
9 52 1
9 54 1
9 55 1
9 57 1
9 60 1
9 62 1
9 63 1
10 18 1
10 20 1
10 22 1
10 24 1
10 34 1
10 36 1
10 38 1
10 40 1
10 50 1
10 52 1
10 54 1
10 56 1
10 58 1
10 60 1
10 62 1
10 64 1
11 19 1
11 20 1
11 23 1
11 24 1
11 35 1
11 36 1
11 39 1
11 40 1
11 51 1
11 52 1
11 55 1
11 56 1
11 59 1
11 60 1
11 63 1
11 64 1
12 21 1
12 22 1
12 23 1
12 24 1
12 37 1
12 38 1
12 39 1
12 40 1
12 53 1
12 54 1
12 55 1
12 56 1
12 61 1
12 62 1
12 63 1
12 64 1
13 25 1
13 28 1
13 30 1
13 31 1
13 41 1
13 44 1
13 46 1
13 47 1
13 49 1
13 52 1
13 54 1
13 55 1
13 57 1
13 60 1
13 62 1
13 63 1
14 26 1
14 28 1
14 30 1
14 32 1
14 42 1
14 44 1
14 46 1
14 48 1
14 50 1
14 52 1
14 54 1
14 56 1
14 58 1
14 60 1
14 62 1
14 64 1
15 27 1
15 28 1
15 31 1
15 32 1
15 43 1
15 44 1
15 47 1
15 48 1
15 51 1
15 52 1
15 55 1
15 56 1
15 59 1
15 60 1
15 63 1
15 64 1
16 29 1
16 30 1
16 31 1
16 32 1
16 45 1
16 46 1
16 47 1
16 48 1
16 53 1
16 54 1
16 55 1
16 56 1
16 61 1
16 62 1
16 63 1
16 64 1
17 1 1
17 5 1
17 6 1
17 7 1
17 25 1
17 29 1
17 30 1
17 31 1
17 41 1
17 45 1
17 46 1
17 47 1
17 49 1
17 53 1
17 54 1
17 55 1
18 2 1
18 5 1
18 6 1
18 8 1
18 26 1
18 29 1
18 30 1
18 32 1
18 42 1
18 45 1
18 46 1
18 48 1
18 50 1
18 53 1
18 54 1
18 56 1
19 3 1
19 5 1
19 7 1
19 8 1
19 27 1
19 29 1
19 31 1
19 32 1
19 43 1
19 45 1
19 47 1
19 48 1
19 51 1
19 53 1
19 55 1
19 56 1
20 4 1
20 6 1
20 7 1
20 8 1
20 28 1
20 30 1
20 31 1
20 32 1
20 44 1
20 46 1
20 47 1
20 48 1
20 52 1
20 54 1
20 55 1
20 56 1
21 9 1
21 13 1
21 14 1
21 15 1
21 25 1
21 29 1
21 30 1
21 31 1
21 41 1
21 45 1
21 46 1
21 47 1
21 57 1
21 61 1
21 62 1
21 63 1
22 10 1
22 13 1
22 14 1
22 16 1
22 26 1
22 29 1
22 30 1
22 32 1
22 42 1
22 45 1
22 46 1
22 48 1
22 58 1
22 61 1
22 62 1
22 64 1
23 11 1
23 13 1
23 15 1
23 16 1
23 27 1
23 29 1
23 31 1
23 32 1
23 43 1
23 45 1
23 47 1
23 48 1
23 59 1
23 61 1
23 63 1
23 64 1
24 12 1
24 14 1
24 15 1
24 16 1
24 28 1
24 30 1
24 31 1
24 32 1
24 44 1
24 46 1
24 47 1
24 48 1
24 60 1
24 62 1
24 63 1
24 64 1
25 17 1
25 21 1
25 22 1
25 23 1
25 25 1
25 29 1
25 30 1
25 31 1
25 49 1
25 53 1
25 54 1
25 55 1
25 57 1
25 61 1
25 62 1
25 63 1
26 18 1
26 21 1
26 22 1
26 24 1
26 26 1
26 29 1
26 30 1
26 32 1
26 50 1
26 53 1
26 54 1
26 56 1
26 58 1
26 61 1
26 62 1
26 64 1
27 19 1
27 21 1
27 23 1
27 24 1
27 27 1
27 29 1
27 31 1
27 32 1
27 51 1
27 53 1
27 55 1
27 56 1
27 59 1
27 61 1
27 63 1
27 64 1
28 20 1
28 22 1
28 23 1
28 24 1
28 28 1
28 30 1
28 31 1
28 32 1
28 52 1
28 54 1
28 55 1
28 56 1
28 60 1
28 62 1
28 63 1
28 64 1
29 33 1
29 37 1
29 38 1
29 39 1
29 41 1
29 45 1
29 46 1
29 47 1
29 49 1
29 53 1
29 54 1
29 55 1
29 57 1
29 61 1
29 62 1
29 63 1
30 34 1
30 37 1
30 38 1
30 40 1
30 42 1
30 45 1
30 46 1
30 48 1
30 50 1
30 53 1
30 54 1
30 56 1
30 58 1
30 61 1
30 62 1
30 64 1
31 35 1
31 37 1
31 39 1
31 40 1
31 43 1
31 45 1
31 47 1
31 48 1
31 51 1
31 53 1
31 55 1
31 56 1
31 59 1
31 61 1
31 63 1
31 64 1
32 36 1
32 38 1
32 39 1
32 40 1
32 44 1
32 46 1
32 47 1
32 48 1
32 52 1
32 54 1
32 55 1
32 56 1
32 60 1
32 62 1
32 63 1
32 64 1
