%%MatrixMarket matrix coordinate integer general
306 612 2754
1 1 1
1 52 1
1 69 1
1 103 1
1 154 1
1 171 1
1 307 1
1 358 1
1 375 1
2 2 1
2 53 1
2 70 1
2 104 1
2 155 1
2 172 1
2 308 1
2 359 1
2 376 1
3 3 1
3 54 1
3 71 1
3 105 1
3 156 1
3 173 1
3 309 1
3 360 1
3 377 1
4 4 1
4 55 1
4 72 1
4 106 1
4 157 1
4 174 1
4 310 1
4 361 1
4 378 1
5 5 1
5 56 1
5 73 1
5 107 1
5 158 1
5 175 1
5 311 1
5 362 1
5 379 1
6 6 1
6 57 1
6 74 1
6 108 1
6 159 1
6 176 1
6 312 1
6 363 1
6 380 1
7 7 1
7 58 1
7 75 1
7 109 1
7 160 1
7 177 1
7 313 1
7 364 1
7 381 1
8 8 1
8 59 1
8 76 1
8 110 1
8 161 1
8 178 1
8 314 1
8 365 1
8 382 1
9 9 1
9 60 1
9 77 1
9 111 1
9 162 1
9 179 1
9 315 1
9 366 1
9 383 1
10 10 1
10 61 1
10 78 1
10 112 1
10 163 1
10 180 1
10 316 1
10 367 1
10 384 1
11 11 1
11 62 1
11 79 1
11 113 1
11 164 1
11 181 1
11 317 1
11 368 1
11 385 1
12 12 1
12 63 1
12 80 1
12 114 1
12 165 1
12 182 1
12 318 1
12 369 1
12 386 1
13 13 1
13 64 1
13 81 1
13 115 1
13 166 1
13 183 1
13 319 1
13 370 1
13 387 1
14 14 1
14 65 1
14 82 1
14 116 1
14 167 1
14 184 1
14 320 1
14 371 1
14 388 1
15 15 1
15 66 1
15 83 1
15 117 1
15 168 1
15 185 1
15 321 1
15 372 1
15 389 1
16 16 1
16 67 1
16 84 1
16 118 1
16 169 1
16 186 1
16 322 1
16 373 1
16 390 1
17 17 1
17 68 1
17 85 1
17 119 1
17 170 1
17 187 1
17 323 1
17 374 1
17 391 1
18 18 1
18 52 1
18 86 1
18 120 1
18 154 1
18 188 1
18 324 1
18 358 1
18 392 1
19 19 1
19 53 1
19 87 1
19 121 1
19 155 1
19 189 1
19 325 1
19 359 1
19 393 1
20 20 1
20 54 1
20 88 1
20 122 1
20 156 1
20 190 1
20 326 1
20 360 1
20 394 1
21 21 1
21 55 1
21 89 1
21 123 1
21 157 1
21 191 1
21 327 1
21 361 1
21 395 1
22 22 1
22 56 1
22 90 1
22 124 1
22 158 1
22 192 1
22 328 1
22 362 1
22 396 1
23 23 1
23 57 1
23 91 1
23 125 1
23 159 1
23 193 1
23 329 1
23 363 1
23 397 1
24 24 1
24 58 1
24 92 1
24 126 1
24 160 1
24 194 1
24 330 1
24 364 1
24 398 1
25 25 1
25 59 1
25 93 1
25 127 1
25 161 1
25 195 1
25 331 1
25 365 1
25 399 1
26 26 1
26 60 1
26 94 1
26 128 1
26 162 1
26 196 1
26 332 1
26 366 1
26 400 1
27 27 1
27 61 1
27 95 1
27 129 1
27 163 1
27 197 1
27 333 1
27 367 1
27 401 1
28 28 1
28 62 1
28 96 1
28 130 1
28 164 1
28 198 1
28 334 1
28 368 1
28 402 1
29 29 1
29 63 1
29 97 1
29 131 1
29 165 1
29 199 1
29 335 1
29 369 1
29 403 1
30 30 1
30 64 1
30 98 1
30 132 1
30 166 1
30 200 1
30 336 1
30 370 1
30 404 1
31 31 1
31 65 1
31 99 1
31 133 1
31 167 1
31 201 1
31 337 1
31 371 1
31 405 1
32 32 1
32 66 1
32 100 1
32 134 1
32 168 1
32 202 1
32 338 1
32 372 1
32 406 1
33 33 1
33 67 1
33 101 1
33 135 1
33 169 1
33 203 1
33 339 1
33 373 1
33 407 1
34 34 1
34 68 1
34 102 1
34 136 1
34 170 1
34 204 1
34 340 1
34 374 1
34 408 1
35 35 1
35 69 1
35 86 1
35 137 1
35 171 1
35 188 1
35 341 1
35 375 1
35 392 1
36 36 1
36 70 1
36 87 1
36 138 1
36 172 1
36 189 1
36 342 1
36 376 1
36 393 1
37 37 1
37 71 1
37 88 1
37 139 1
37 173 1
37 190 1
37 343 1
37 377 1
37 394 1
38 38 1
38 72 1
38 89 1
38 140 1
38 174 1
38 191 1
38 344 1
38 378 1
38 395 1
39 39 1
39 73 1
39 90 1
39 141 1
39 175 1
39 192 1
39 345 1
39 379 1
39 396 1
40 40 1
40 74 1
40 91 1
40 142 1
40 176 1
40 193 1
40 346 1
40 380 1
40 397 1
41 41 1
41 75 1
41 92 1
41 143 1
41 177 1
41 194 1
41 347 1
41 381 1
41 398 1
42 42 1
42 76 1
42 93 1
42 144 1
42 178 1
42 195 1
42 348 1
42 382 1
42 399 1
43 43 1
43 77 1
43 94 1
43 145 1
43 179 1
43 196 1
43 349 1
43 383 1
43 400 1
44 44 1
44 78 1
44 95 1
44 146 1
44 180 1
44 197 1
44 350 1
44 384 1
44 401 1
45 45 1
45 79 1
45 96 1
45 147 1
45 181 1
45 198 1
45 351 1
45 385 1
45 402 1
46 46 1
46 80 1
46 97 1
46 148 1
46 182 1
46 199 1
46 352 1
46 386 1
46 403 1
47 47 1
47 81 1
47 98 1
47 149 1
47 183 1
47 200 1
47 353 1
47 387 1
47 404 1
48 48 1
48 82 1
48 99 1
48 150 1
48 184 1
48 201 1
48 354 1
48 388 1
48 405 1
49 49 1
49 83 1
49 100 1
49 151 1
49 185 1
49 202 1
49 355 1
49 389 1
49 406 1
50 50 1
50 84 1
50 101 1
50 152 1
50 186 1
50 203 1
50 356 1
50 390 1
50 407 1
51 51 1
51 85 1
51 102 1
51 153 1
51 187 1
51 204 1
51 357 1
51 391 1
51 408 1
52 1 1
52 52 1
52 69 1
52 205 1
52 256 1
52 273 1
52 409 1
52 460 1
52 477 1
53 2 1
53 53 1
53 70 1
53 206 1
53 257 1
53 274 1
53 410 1
53 461 1
53 478 1
54 3 1
54 54 1
54 71 1
54 207 1
54 258 1
54 275 1
54 411 1
54 462 1
54 479 1
55 4 1
55 55 1
55 72 1
55 208 1
55 259 1
55 276 1
55 412 1
55 463 1
55 480 1
56 5 1
56 56 1
56 73 1
56 209 1
56 260 1
56 277 1
56 413 1
56 464 1
56 481 1
57 6 1
57 57 1
57 74 1
57 210 1
57 261 1
57 278 1
57 414 1
57 465 1
57 482 1
58 7 1
58 58 1
58 75 1
58 211 1
58 262 1
58 279 1
58 415 1
58 466 1
58 483 1
59 8 1
59 59 1
59 76 1
59 212 1
59 263 1
59 280 1
59 416 1
59 467 1
59 484 1
60 9 1
60 60 1
60 77 1
60 213 1
60 264 1
60 281 1
60 417 1
60 468 1
60 485 1
61 10 1
61 61 1
61 78 1
61 214 1
61 265 1
61 282 1
61 418 1
61 469 1
61 486 1
62 11 1
62 62 1
62 79 1
62 215 1
62 266 1
62 283 1
62 419 1
62 470 1
62 487 1
63 12 1
63 63 1
63 80 1
63 216 1
63 267 1
63 284 1
63 420 1
63 471 1
63 488 1
64 13 1
64 64 1
64 81 1
64 217 1
64 268 1
64 285 1
64 421 1
64 472 1
64 489 1
65 14 1
65 65 1
65 82 1
65 218 1
65 269 1
65 286 1
65 422 1
65 473 1
65 490 1
66 15 1
66 66 1
66 83 1
66 219 1
66 270 1
66 287 1
66 423 1
66 474 1
66 491 1
67 16 1
67 67 1
67 84 1
67 220 1
67 271 1
67 288 1
67 424 1
67 475 1
67 492 1
68 17 1
68 68 1
68 85 1
68 221 1
68 272 1
68 289 1
68 425 1
68 476 1
68 493 1
69 18 1
69 52 1
69 86 1
69 222 1
69 256 1
69 290 1
69 426 1
69 460 1
69 494 1
70 19 1
70 53 1
70 87 1
70 223 1
70 257 1
70 291 1
70 427 1
70 461 1
70 495 1
71 20 1
71 54 1
71 88 1
71 224 1
71 258 1
71 292 1
71 428 1
71 462 1
71 496 1
72 21 1
72 55 1
72 89 1
72 225 1
72 259 1
72 293 1
72 429 1
72 463 1
72 497 1
73 22 1
73 56 1
73 90 1
73 226 1
73 260 1
73 294 1
73 430 1
73 464 1
73 498 1
74 23 1
74 57 1
74 91 1
74 227 1
74 261 1
74 295 1
74 431 1
74 465 1
74 499 1
75 24 1
75 58 1
75 92 1
75 228 1
75 262 1
75 296 1
75 432 1
75 466 1
75 500 1
76 25 1
76 59 1
76 93 1
76 229 1
76 263 1
76 297 1
76 433 1
76 467 1
76 501 1
77 26 1
77 60 1
77 94 1
77 230 1
77 264 1
77 298 1
77 434 1
77 468 1
77 502 1
78 27 1
78 61 1
78 95 1
78 231 1
78 265 1
78 299 1
78 435 1
78 469 1
78 503 1
79 28 1
79 62 1
79 96 1
79 232 1
79 266 1
79 300 1
79 436 1
79 470 1
79 504 1
80 29 1
80 63 1
80 97 1
80 233 1
80 267 1
80 301 1
80 437 1
80 471 1
80 505 1
81 30 1
81 64 1
81 98 1
81 234 1
81 268 1
81 302 1
81 438 1
81 472 1
81 506 1
82 31 1
82 65 1
82 99 1
82 235 1
82 269 1
82 303 1
82 439 1
82 473 1
82 507 1
83 32 1
83 66 1
83 100 1
83 236 1
83 270 1
83 304 1
83 440 1
83 474 1
83 508 1
84 33 1
84 67 1
84 101 1
84 237 1
84 271 1
84 305 1
84 441 1
84 475 1
84 509 1
85 34 1
85 68 1
85 102 1
85 238 1
85 272 1
85 306 1
85 442 1
85 476 1
85 510 1
86 35 1
86 69 1
86 86 1
86 239 1
86 273 1
86 290 1
86 443 1
86 477 1
86 494 1
87 36 1
87 70 1
87 87 1
87 240 1
87 274 1
87 291 1
87 444 1
87 478 1
87 495 1
88 37 1
88 71 1
88 88 1
88 241 1
88 275 1
88 292 1
88 445 1
88 479 1
88 496 1
89 38 1
89 72 1
89 89 1
89 242 1
89 276 1
89 293 1
89 446 1
89 480 1
89 497 1
90 39 1
90 73 1
90 90 1
90 243 1
90 277 1
90 294 1
90 447 1
90 481 1
90 498 1
91 40 1
91 74 1
91 91 1
91 244 1
91 278 1
91 295 1
91 448 1
91 482 1
91 499 1
92 41 1
92 75 1
92 92 1
92 245 1
92 279 1
92 296 1
92 449 1
92 483 1
92 500 1
93 42 1
93 76 1
93 93 1
93 246 1
93 280 1
93 297 1
93 450 1
93 484 1
93 501 1
94 43 1
94 77 1
94 94 1
94 247 1
94 281 1
94 298 1
94 451 1
94 485 1
94 502 1
95 44 1
95 78 1
95 95 1
95 248 1
95 282 1
95 299 1
95 452 1
95 486 1
95 503 1
96 45 1
96 79 1
96 96 1
96 249 1
96 283 1
96 300 1
96 453 1
96 487 1
96 504 1
97 46 1
97 80 1
97 97 1
97 250 1
97 284 1
97 301 1
97 454 1
97 488 1
97 505 1
98 47 1
98 81 1
98 98 1
98 251 1
98 285 1
98 302 1
98 455 1
98 489 1
98 506 1
99 48 1
99 82 1
99 99 1
99 252 1
99 286 1
99 303 1
99 456 1
99 490 1
99 507 1
100 49 1
100 83 1
100 100 1
100 253 1
100 287 1
100 304 1
100 457 1
100 491 1
100 508 1
101 50 1
101 84 1
101 101 1
101 254 1
101 288 1
101 305 1
101 458 1
101 492 1
101 509 1
102 51 1
102 85 1
102 102 1
102 255 1
102 289 1
102 306 1
102 459 1
102 493 1
102 510 1
103 103 1
103 154 1
103 171 1
103 205 1
103 256 1
103 273 1
103 511 1
103 562 1
103 579 1
104 104 1
104 155 1
104 172 1
104 206 1
104 257 1
104 274 1
104 512 1
104 563 1
104 580 1
105 105 1
105 156 1
105 173 1
105 207 1
105 258 1
105 275 1
105 513 1
105 564 1
105 581 1
106 106 1
106 157 1
106 174 1
106 208 1
106 259 1
106 276 1
106 514 1
106 565 1
106 582 1
107 107 1
107 158 1
107 175 1
107 209 1
107 260 1
107 277 1
107 515 1
107 566 1
107 583 1
108 108 1
108 159 1
108 176 1
108 210 1
108 261 1
108 278 1
108 516 1
108 567 1
108 584 1
109 109 1
109 160 1
109 177 1
109 211 1
109 262 1
109 279 1
109 517 1
109 568 1
109 585 1
110 110 1
110 161 1
110 178 1
110 212 1
110 263 1
110 280 1
110 518 1
110 569 1
110 586 1
111 111 1
111 162 1
111 179 1
111 213 1
111 264 1
111 281 1
111 519 1
111 570 1
111 587 1
112 112 1
112 163 1
112 180 1
112 214 1
112 265 1
112 282 1
112 520 1
112 571 1
112 588 1
113 113 1
113 164 1
113 181 1
113 215 1
113 266 1
113 283 1
113 521 1
113 572 1
113 589 1
114 114 1
114 165 1
114 182 1
114 216 1
114 267 1
114 284 1
114 522 1
114 573 1
114 590 1
115 115 1
115 166 1
115 183 1
115 217 1
115 268 1
115 285 1
115 523 1
115 574 1
115 591 1
116 116 1
116 167 1
116 184 1
116 218 1
116 269 1
116 286 1
116 524 1
116 575 1
116 592 1
117 117 1
117 168 1
117 185 1
117 219 1
117 270 1
117 287 1
117 525 1
117 576 1
117 593 1
118 118 1
118 169 1
118 186 1
118 220 1
118 271 1
118 288 1
118 526 1
118 577 1
118 594 1
119 119 1
119 170 1
119 187 1
119 221 1
119 272 1
119 289 1
119 527 1
119 578 1
119 595 1
120 120 1
120 154 1
120 188 1
120 222 1
120 256 1
120 290 1
120 528 1
120 562 1
120 596 1
121 121 1
121 155 1
121 189 1
121 223 1
121 257 1
121 291 1
121 529 1
121 563 1
121 597 1
122 122 1
122 156 1
122 190 1
122 224 1
122 258 1
122 292 1
122 530 1
122 564 1
122 598 1
123 123 1
123 157 1
123 191 1
123 225 1
123 259 1
123 293 1
123 531 1
123 565 1
123 599 1
124 124 1
124 158 1
124 192 1
124 226 1
124 260 1
124 294 1
124 532 1
124 566 1
124 600 1
125 125 1
125 159 1
125 193 1
125 227 1
125 261 1
125 295 1
125 533 1
125 567 1
125 601 1
126 126 1
126 160 1
126 194 1
126 228 1
126 262 1
126 296 1
126 534 1
126 568 1
126 602 1
127 127 1
127 161 1
127 195 1
127 229 1
127 263 1
127 297 1
127 535 1
127 569 1
127 603 1
128 128 1
128 162 1
128 196 1
128 230 1
128 264 1
128 298 1
128 536 1
128 570 1
128 604 1
129 129 1
129 163 1
129 197 1
129 231 1
129 265 1
129 299 1
129 537 1
129 571 1
129 605 1
130 130 1
130 164 1
130 198 1
130 232 1
130 266 1
130 300 1
130 538 1
130 572 1
130 606 1
131 131 1
131 165 1
131 199 1
131 233 1
131 267 1
131 301 1
131 539 1
131 573 1
131 607 1
132 132 1
132 166 1
132 200 1
132 234 1
132 268 1
132 302 1
132 540 1
132 574 1
132 608 1
133 133 1
133 167 1
133 201 1
133 235 1
133 269 1
133 303 1
133 541 1
133 575 1
133 609 1
134 134 1
134 168 1
134 202 1
134 236 1
134 270 1
134 304 1
134 542 1
134 576 1
134 610 1
135 135 1
135 169 1
135 203 1
135 237 1
135 271 1
135 305 1
135 543 1
135 577 1
135 611 1
136 136 1
136 170 1
136 204 1
136 238 1
136 272 1
136 306 1
136 544 1
136 578 1
136 612 1
137 137 1
137 171 1
137 188 1
137 239 1
137 273 1
137 290 1
137 545 1
137 579 1
137 596 1
138 138 1
138 172 1
138 189 1
138 240 1
138 274 1
138 291 1
138 546 1
138 580 1
138 597 1
139 139 1
139 173 1
139 190 1
139 241 1
139 275 1
139 292 1
139 547 1
139 581 1
139 598 1
140 140 1
140 174 1
140 191 1
140 242 1
140 276 1
140 293 1
140 548 1
140 582 1
140 599 1
141 141 1
141 175 1
141 192 1
141 243 1
141 277 1
141 294 1
141 549 1
141 583 1
141 600 1
142 142 1
142 176 1
142 193 1
142 244 1
142 278 1
142 295 1
142 550 1
142 584 1
142 601 1
143 143 1
143 177 1
143 194 1
143 245 1
143 279 1
143 296 1
143 551 1
143 585 1
143 602 1
144 144 1
144 178 1
144 195 1
144 246 1
144 280 1
144 297 1
144 552 1
144 586 1
144 603 1
145 145 1
145 179 1
145 196 1
145 247 1
145 281 1
145 298 1
145 553 1
145 587 1
145 604 1
146 146 1
146 180 1
146 197 1
146 248 1
146 282 1
146 299 1
146 554 1
146 588 1
146 605 1
147 147 1
147 181 1
147 198 1
147 249 1
147 283 1
147 300 1
147 555 1
147 589 1
147 606 1
148 148 1
148 182 1
148 199 1
148 250 1
148 284 1
148 301 1
148 556 1
148 590 1
148 607 1
149 149 1
149 183 1
149 200 1
149 251 1
149 285 1
149 302 1
149 557 1
149 591 1
149 608 1
150 150 1
150 184 1
150 201 1
150 252 1
150 286 1
150 303 1
150 558 1
150 592 1
150 609 1
151 151 1
151 185 1
151 202 1
151 253 1
151 287 1
151 304 1
151 559 1
151 593 1
151 610 1
152 152 1
152 186 1
152 203 1
152 254 1
152 288 1
152 305 1
152 560 1
152 594 1
152 611 1
153 153 1
153 187 1
153 204 1
153 255 1
153 289 1
153 306 1
153 561 1
153 595 1
153 612 1
154 1 1
154 59 1
154 73 1
154 116 1
154 157 1
154 171 1
154 320 1
154 361 1
154 375 1
155 2 1
155 60 1
155 74 1
155 117 1
155 158 1
155 172 1
155 321 1
155 362 1
155 376 1
156 3 1
156 61 1
156 75 1
156 118 1
156 159 1
156 173 1
156 322 1
156 363 1
156 377 1
157 4 1
157 62 1
157 76 1
157 119 1
157 160 1
157 174 1
157 323 1
157 364 1
157 378 1
158 5 1
158 63 1
158 77 1
158 103 1
158 161 1
158 175 1
158 307 1
158 365 1
158 379 1
159 6 1
159 64 1
159 78 1
159 104 1
159 162 1
159 176 1
159 308 1
159 366 1
159 380 1
160 7 1
160 65 1
160 79 1
160 105 1
160 163 1
160 177 1
160 309 1
160 367 1
160 381 1
161 8 1
161 66 1
161 80 1
161 106 1
161 164 1
161 178 1
161 310 1
161 368 1
161 382 1
162 9 1
162 67 1
162 81 1
162 107 1
162 165 1
162 179 1
162 311 1
162 369 1
162 383 1
163 10 1
163 68 1
163 82 1
163 108 1
163 166 1
163 180 1
163 312 1
163 370 1
163 384 1
164 11 1
164 52 1
164 83 1
164 109 1
164 167 1
164 181 1
164 313 1
164 371 1
164 385 1
165 12 1
165 53 1
165 84 1
165 110 1
165 168 1
165 182 1
165 314 1
165 372 1
165 386 1
166 13 1
166 54 1
166 85 1
166 111 1
166 169 1
166 183 1
166 315 1
166 373 1
166 387 1
167 14 1
167 55 1
167 69 1
167 112 1
167 170 1
167 184 1
167 316 1
167 374 1
167 388 1
168 15 1
168 56 1
168 70 1
168 113 1
168 154 1
168 185 1
168 317 1
168 358 1
168 389 1
169 16 1
169 57 1
169 71 1
169 114 1
169 155 1
169 186 1
169 318 1
169 359 1
169 390 1
170 17 1
170 58 1
170 72 1
170 115 1
170 156 1
170 187 1
170 319 1
170 360 1
170 391 1
171 29 1
171 59 1
171 88 1
171 127 1
171 157 1
171 203 1
171 331 1
171 361 1
171 407 1
172 30 1
172 60 1
172 89 1
172 128 1
172 158 1
172 204 1
172 332 1
172 362 1
172 408 1
173 31 1
173 61 1
173 90 1
173 129 1
173 159 1
173 188 1
173 333 1
173 363 1
173 392 1
174 32 1
174 62 1
174 91 1
174 130 1
174 160 1
174 189 1
174 334 1
174 364 1
174 393 1
175 33 1
175 63 1
175 92 1
175 131 1
175 161 1
175 190 1
175 335 1
175 365 1
175 394 1
176 34 1
176 64 1
176 93 1
176 132 1
176 162 1
176 191 1
176 336 1
176 366 1
176 395 1
177 18 1
177 65 1
177 94 1
177 133 1
177 163 1
177 192 1
177 337 1
177 367 1
177 396 1
178 19 1
178 66 1
178 95 1
178 134 1
178 164 1
178 193 1
178 338 1
178 368 1
178 397 1
179 20 1
179 67 1
179 96 1
179 135 1
179 165 1
179 194 1
179 339 1
179 369 1
179 398 1
180 21 1
180 68 1
180 97 1
180 136 1
180 166 1
180 195 1
180 340 1
180 370 1
180 399 1
181 22 1
181 52 1
181 98 1
181 120 1
181 167 1
181 196 1
181 324 1
181 371 1
181 400 1
182 23 1
182 53 1
182 99 1
182 121 1
182 168 1
182 197 1
182 325 1
182 372 1
182 401 1
183 24 1
183 54 1
183 100 1
183 122 1
183 169 1
183 198 1
183 326 1
183 373 1
183 402 1
184 25 1
184 55 1
184 101 1
184 123 1
184 170 1
184 199 1
184 327 1
184 374 1
184 403 1
185 26 1
185 56 1
185 102 1
185 124 1
185 154 1
185 200 1
185 328 1
185 358 1
185 404 1
186 27 1
186 57 1
186 86 1
186 125 1
186 155 1
186 201 1
186 329 1
186 359 1
186 405 1
187 28 1
187 58 1
187 87 1
187 126 1
187 156 1
187 202 1
187 330 1
187 360 1
187 406 1
188 44 1
188 73 1
188 88 1
188 142 1
188 171 1
188 203 1
188 346 1
188 375 1
188 407 1
189 45 1
189 74 1
189 89 1
189 143 1
189 172 1
189 204 1
189 347 1
189 376 1
189 408 1
190 46 1
190 75 1
190 90 1
190 144 1
190 173 1
190 188 1
190 348 1
190 377 1
190 392 1
191 47 1
191 76 1
191 91 1
191 145 1
191 174 1
191 189 1
191 349 1
191 378 1
191 393 1
192 48 1
192 77 1
192 92 1
192 146 1
192 175 1
192 190 1
192 350 1
192 379 1
192 394 1
193 49 1
193 78 1
193 93 1
193 147 1
193 176 1
193 191 1
193 351 1
193 380 1
193 395 1
194 50 1
194 79 1
194 94 1
194 148 1
194 177 1
194 192 1
194 352 1
194 381 1
194 396 1
195 51 1
195 80 1
195 95 1
195 149 1
195 178 1
195 193 1
195 353 1
195 382 1
195 397 1
196 35 1
196 81 1
196 96 1
196 150 1
196 179 1
196 194 1
196 354 1
196 383 1
196 398 1
197 36 1
197 82 1
197 97 1
197 151 1
197 180 1
197 195 1
197 355 1
197 384 1
197 399 1
198 37 1
198 83 1
198 98 1
198 152 1
198 181 1
198 196 1
198 356 1
198 385 1
198 400 1
199 38 1
199 84 1
199 99 1
199 153 1
199 182 1
199 197 1
199 357 1
199 386 1
199 401 1
200 39 1
200 85 1
200 100 1
200 137 1
200 183 1
200 198 1
200 341 1
200 387 1
200 402 1
201 40 1
201 69 1
201 101 1
201 138 1
201 184 1
201 199 1
201 342 1
201 388 1
201 403 1
202 41 1
202 70 1
202 102 1
202 139 1
202 185 1
202 200 1
202 343 1
202 389 1
202 404 1
203 42 1
203 71 1
203 86 1
203 140 1
203 186 1
203 201 1
203 344 1
203 390 1
203 405 1
204 43 1
204 72 1
204 87 1
204 141 1
204 187 1
204 202 1
204 345 1
204 391 1
204 406 1
205 1 1
205 59 1
205 73 1
205 218 1
205 259 1
205 273 1
205 422 1
205 463 1
205 477 1
206 2 1
206 60 1
206 74 1
206 219 1
206 260 1
206 274 1
206 423 1
206 464 1
206 478 1
207 3 1
207 61 1
207 75 1
207 220 1
207 261 1
207 275 1
207 424 1
207 465 1
207 479 1
208 4 1
208 62 1
208 76 1
208 221 1
208 262 1
208 276 1
208 425 1
208 466 1
208 480 1
209 5 1
209 63 1
209 77 1
209 205 1
209 263 1
209 277 1
209 409 1
209 467 1
209 481 1
210 6 1
210 64 1
210 78 1
210 206 1
210 264 1
210 278 1
210 410 1
210 468 1
210 482 1
211 7 1
211 65 1
211 79 1
211 207 1
211 265 1
211 279 1
211 411 1
211 469 1
211 483 1
212 8 1
212 66 1
212 80 1
212 208 1
212 266 1
212 280 1
212 412 1
212 470 1
212 484 1
213 9 1
213 67 1
213 81 1
213 209 1
213 267 1
213 281 1
213 413 1
213 471 1
213 485 1
214 10 1
214 68 1
214 82 1
214 210 1
214 268 1
214 282 1
214 414 1
214 472 1
214 486 1
215 11 1
215 52 1
215 83 1
215 211 1
215 269 1
215 283 1
215 415 1
215 473 1
215 487 1
216 12 1
216 53 1
216 84 1
216 212 1
216 270 1
216 284 1
216 416 1
216 474 1
216 488 1
217 13 1
217 54 1
217 85 1
217 213 1
217 271 1
217 285 1
217 417 1
217 475 1
217 489 1
218 14 1
218 55 1
218 69 1
218 214 1
218 272 1
218 286 1
218 418 1
218 476 1
218 490 1
219 15 1
219 56 1
219 70 1
219 215 1
219 256 1
219 287 1
219 419 1
219 460 1
219 491 1
220 16 1
220 57 1
220 71 1
220 216 1
220 257 1
220 288 1
220 420 1
220 461 1
220 492 1
221 17 1
221 58 1
221 72 1
221 217 1
221 258 1
221 289 1
221 421 1
221 462 1
221 493 1
222 29 1
222 59 1
222 88 1
222 229 1
222 259 1
222 305 1
222 433 1
222 463 1
222 509 1
223 30 1
223 60 1
223 89 1
223 230 1
223 260 1
223 306 1
223 434 1
223 464 1
223 510 1
224 31 1
224 61 1
224 90 1
224 231 1
224 261 1
224 290 1
224 435 1
224 465 1
224 494 1
225 32 1
225 62 1
225 91 1
225 232 1
225 262 1
225 291 1
225 436 1
225 466 1
225 495 1
226 33 1
226 63 1
226 92 1
226 233 1
226 263 1
226 292 1
226 437 1
226 467 1
226 496 1
227 34 1
227 64 1
227 93 1
227 234 1
227 264 1
227 293 1
227 438 1
227 468 1
227 497 1
228 18 1
228 65 1
228 94 1
228 235 1
228 265 1
228 294 1
228 439 1
228 469 1
228 498 1
229 19 1
229 66 1
229 95 1
229 236 1
229 266 1
229 295 1
229 440 1
229 470 1
229 499 1
230 20 1
230 67 1
230 96 1
230 237 1
230 267 1
230 296 1
230 441 1
230 471 1
230 500 1
231 21 1
231 68 1
231 97 1
231 238 1
231 268 1
231 297 1
231 442 1
231 472 1
231 501 1
232 22 1
232 52 1
232 98 1
232 222 1
232 269 1
232 298 1
232 426 1
232 473 1
232 502 1
233 23 1
233 53 1
233 99 1
233 223 1
233 270 1
233 299 1
233 427 1
233 474 1
233 503 1
234 24 1
234 54 1
234 100 1
234 224 1
234 271 1
234 300 1
234 428 1
234 475 1
234 504 1
235 25 1
235 55 1
235 101 1
235 225 1
235 272 1
235 301 1
235 429 1
235 476 1
235 505 1
236 26 1
236 56 1
236 102 1
236 226 1
236 256 1
236 302 1
236 430 1
236 460 1
236 506 1
237 27 1
237 57 1
237 86 1
237 227 1
237 257 1
237 303 1
237 431 1
237 461 1
237 507 1
238 28 1
238 58 1
238 87 1
238 228 1
238 258 1
238 304 1
238 432 1
238 462 1
238 508 1
239 44 1
239 73 1
239 88 1
239 244 1
239 273 1
239 305 1
239 448 1
239 477 1
239 509 1
240 45 1
240 74 1
240 89 1
240 245 1
240 274 1
240 306 1
240 449 1
240 478 1
240 510 1
241 46 1
241 75 1
241 90 1
241 246 1
241 275 1
241 290 1
241 450 1
241 479 1
241 494 1
242 47 1
242 76 1
242 91 1
242 247 1
242 276 1
242 291 1
242 451 1
242 480 1
242 495 1
243 48 1
243 77 1
243 92 1
243 248 1
243 277 1
243 292 1
243 452 1
243 481 1
243 496 1
244 49 1
244 78 1
244 93 1
244 249 1
244 278 1
244 293 1
244 453 1
244 482 1
244 497 1
245 50 1
245 79 1
245 94 1
245 250 1
245 279 1
245 294 1
245 454 1
245 483 1
245 498 1
246 51 1
246 80 1
246 95 1
246 251 1
246 280 1
246 295 1
246 455 1
246 484 1
246 499 1
247 35 1
247 81 1
247 96 1
247 252 1
247 281 1
247 296 1
247 456 1
247 485 1
247 500 1
248 36 1
248 82 1
248 97 1
248 253 1
248 282 1
248 297 1
248 457 1
248 486 1
248 501 1
249 37 1
249 83 1
249 98 1
249 254 1
249 283 1
249 298 1
249 458 1
249 487 1
249 502 1
250 38 1
250 84 1
250 99 1
250 255 1
250 284 1
250 299 1
250 459 1
250 488 1
250 503 1
251 39 1
251 85 1
251 100 1
251 239 1
251 285 1
251 300 1
251 443 1
251 489 1
251 504 1
252 40 1
252 69 1
252 101 1
252 240 1
252 286 1
252 301 1
252 444 1
252 490 1
252 505 1
253 41 1
253 70 1
253 102 1
253 241 1
253 287 1
253 302 1
253 445 1
253 491 1
253 506 1
254 42 1
254 71 1
254 86 1
254 242 1
254 288 1
254 303 1
254 446 1
254 492 1
254 507 1
255 43 1
255 72 1
255 87 1
255 243 1
255 289 1
255 304 1
255 447 1
255 493 1
255 508 1
256 116 1
256 157 1
256 171 1
256 218 1
256 259 1
256 273 1
256 524 1
256 565 1
256 579 1
257 117 1
257 158 1
257 172 1
257 219 1
257 260 1
257 274 1
257 525 1
257 566 1
257 580 1
258 118 1
258 159 1
258 173 1
258 220 1
258 261 1
258 275 1
258 526 1
258 567 1
258 581 1
259 119 1
259 160 1
259 174 1
259 221 1
259 262 1
259 276 1
259 527 1
259 568 1
259 582 1
260 103 1
260 161 1
260 175 1
260 205 1
260 263 1
260 277 1
260 511 1
260 569 1
260 583 1
261 104 1
261 162 1
261 176 1
261 206 1
261 264 1
261 278 1
261 512 1
261 570 1
261 584 1
262 105 1
262 163 1
262 177 1
262 207 1
262 265 1
262 279 1
262 513 1
262 571 1
262 585 1
263 106 1
263 164 1
263 178 1
263 208 1
263 266 1
263 280 1
263 514 1
263 572 1
263 586 1
264 107 1
264 165 1
264 179 1
264 209 1
264 267 1
264 281 1
264 515 1
264 573 1
264 587 1
265 108 1
265 166 1
265 180 1
265 210 1
265 268 1
265 282 1
265 516 1
265 574 1
265 588 1
266 109 1
266 167 1
266 181 1
266 211 1
266 269 1
266 283 1
266 517 1
266 575 1
266 589 1
267 110 1
267 168 1
267 182 1
267 212 1
267 270 1
267 284 1
267 518 1
267 576 1
267 590 1
268 111 1
268 169 1
268 183 1
268 213 1
268 271 1
268 285 1
268 519 1
268 577 1
268 591 1
269 112 1
269 170 1
269 184 1
269 214 1
269 272 1
269 286 1
269 520 1
269 578 1
269 592 1
270 113 1
270 154 1
270 185 1
270 215 1
270 256 1
270 287 1
270 521 1
270 562 1
270 593 1
271 114 1
271 155 1
271 186 1
271 216 1
271 257 1
271 288 1
271 522 1
271 563 1
271 594 1
272 115 1
272 156 1
272 187 1
272 217 1
272 258 1
272 289 1
272 523 1
272 564 1
272 595 1
273 127 1
273 157 1
273 203 1
273 229 1
273 259 1
273 305 1
273 535 1
273 565 1
273 611 1
274 128 1
274 158 1
274 204 1
274 230 1
274 260 1
274 306 1
274 536 1
274 566 1
274 612 1
275 129 1
275 159 1
275 188 1
275 231 1
275 261 1
275 290 1
275 537 1
275 567 1
275 596 1
276 130 1
276 160 1
276 189 1
276 232 1
276 262 1
276 291 1
276 538 1
276 568 1
276 597 1
277 131 1
277 161 1
277 190 1
277 233 1
277 263 1
277 292 1
277 539 1
277 569 1
277 598 1
278 132 1
278 162 1
278 191 1
278 234 1
278 264 1
278 293 1
278 540 1
278 570 1
278 599 1
279 133 1
279 163 1
279 192 1
279 235 1
279 265 1
279 294 1
279 541 1
279 571 1
279 600 1
280 134 1
280 164 1
280 193 1
280 236 1
280 266 1
280 295 1
280 542 1
280 572 1
280 601 1
281 135 1
281 165 1
281 194 1
281 237 1
281 267 1
281 296 1
281 543 1
281 573 1
281 602 1
282 136 1
282 166 1
282 195 1
282 238 1
282 268 1
282 297 1
282 544 1
282 574 1
282 603 1
283 120 1
283 167 1
283 196 1
283 222 1
283 269 1
283 298 1
283 528 1
283 575 1
283 604 1
284 121 1
284 168 1
284 197 1
284 223 1
284 270 1
284 299 1
284 529 1
284 576 1
284 605 1
285 122 1
285 169 1
285 198 1
285 224 1
285 271 1
285 300 1
285 530 1
285 577 1
285 606 1
286 123 1
286 170 1
286 199 1
286 225 1
286 272 1
286 301 1
286 531 1
286 578 1
286 607 1
287 124 1
287 154 1
287 200 1
287 226 1
287 256 1
287 302 1
287 532 1
287 562 1
287 608 1
288 125 1
288 155 1
288 201 1
288 227 1
288 257 1
288 303 1
288 533 1
288 563 1
288 609 1
289 126 1
289 156 1
289 202 1
289 228 1
289 258 1
289 304 1
289 534 1
289 564 1
289 610 1
290 142 1
290 171 1
290 203 1
290 244 1
290 273 1
290 305 1
290 550 1
290 579 1
290 611 1
291 143 1
291 172 1
291 204 1
291 245 1
291 274 1
291 306 1
291 551 1
291 580 1
291 612 1
292 144 1
292 173 1
292 188 1
292 246 1
292 275 1
292 290 1
292 552 1
292 581 1
292 596 1
293 145 1
293 174 1
293 189 1
293 247 1
293 276 1
293 291 1
293 553 1
293 582 1
293 597 1
294 146 1
294 175 1
294 190 1
294 248 1
294 277 1
294 292 1
294 554 1
294 583 1
294 598 1
295 147 1
295 176 1
295 191 1
295 249 1
295 278 1
295 293 1
295 555 1
295 584 1
295 599 1
296 148 1
296 177 1
296 192 1
296 250 1
296 279 1
296 294 1
296 556 1
296 585 1
296 600 1
297 149 1
297 178 1
297 193 1
297 251 1
297 280 1
297 295 1
297 557 1
297 586 1
297 601 1
298 150 1
298 179 1
298 194 1
298 252 1
298 281 1
298 296 1
298 558 1
298 587 1
298 602 1
299 151 1
299 180 1
299 195 1
299 253 1
299 282 1
299 297 1
299 559 1
299 588 1
299 603 1
300 152 1
300 181 1
300 196 1
300 254 1
300 283 1
300 298 1
300 560 1
300 589 1
300 604 1
301 153 1
301 182 1
301 197 1
301 255 1
301 284 1
301 299 1
301 561 1
301 590 1
301 605 1
302 137 1
302 183 1
302 198 1
302 239 1
302 285 1
302 300 1
302 545 1
302 591 1
302 606 1
303 138 1
303 184 1
303 199 1
303 240 1
303 286 1
303 301 1
303 546 1
303 592 1
303 607 1
304 139 1
304 185 1
304 200 1
304 241 1
304 287 1
304 302 1
304 547 1
304 593 1
304 608 1
305 140 1
305 186 1
305 201 1
305 242 1
305 288 1
305 303 1
305 548 1
305 594 1
305 609 1
306 141 1
306 187 1
306 202 1
306 243 1
306 289 1
306 304 1
306 549 1
306 595 1
306 610 1
