%%MatrixMarket matrix coordinate integer general
144 288 1296
1 1 1
1 25 1
1 33 1
1 49 1
1 73 1
1 81 1
1 145 1
1 169 1
1 177 1
2 2 1
2 26 1
2 34 1
2 50 1
2 74 1
2 82 1
2 146 1
2 170 1
2 178 1
3 3 1
3 27 1
3 35 1
3 51 1
3 75 1
3 83 1
3 147 1
3 171 1
3 179 1
4 4 1
4 28 1
4 36 1
4 52 1
4 76 1
4 84 1
4 148 1
4 172 1
4 180 1
5 5 1
5 29 1
5 37 1
5 53 1
5 77 1
5 85 1
5 149 1
5 173 1
5 181 1
6 6 1
6 30 1
6 38 1
6 54 1
6 78 1
6 86 1
6 150 1
6 174 1
6 182 1
7 7 1
7 31 1
7 39 1
7 55 1
7 79 1
7 87 1
7 151 1
7 175 1
7 183 1
8 8 1
8 32 1
8 40 1
8 56 1
8 80 1
8 88 1
8 152 1
8 176 1
8 184 1
9 9 1
9 25 1
9 41 1
9 57 1
9 73 1
9 89 1
9 153 1
9 169 1
9 185 1
10 10 1
10 26 1
10 42 1
10 58 1
10 74 1
10 90 1
10 154 1
10 170 1
10 186 1
11 11 1
11 27 1
11 43 1
11 59 1
11 75 1
11 91 1
11 155 1
11 171 1
11 187 1
12 12 1
12 28 1
12 44 1
12 60 1
12 76 1
12 92 1
12 156 1
12 172 1
12 188 1
13 13 1
13 29 1
13 45 1
13 61 1
13 77 1
13 93 1
13 157 1
13 173 1
13 189 1
14 14 1
14 30 1
14 46 1
14 62 1
14 78 1
14 94 1
14 158 1
14 174 1
14 190 1
15 15 1
15 31 1
15 47 1
15 63 1
15 79 1
15 95 1
15 159 1
15 175 1
15 191 1
16 16 1
16 32 1
16 48 1
16 64 1
16 80 1
16 96 1
16 160 1
16 176 1
16 192 1
17 17 1
17 33 1
17 41 1
17 65 1
17 81 1
17 89 1
17 161 1
17 177 1
17 185 1
18 18 1
18 34 1
18 42 1
18 66 1
18 82 1
18 90 1
18 162 1
18 178 1
18 186 1
19 19 1
19 35 1
19 43 1
19 67 1
19 83 1
19 91 1
19 163 1
19 179 1
19 187 1
20 20 1
20 36 1
20 44 1
20 68 1
20 84 1
20 92 1
20 164 1
20 180 1
20 188 1
21 21 1
21 37 1
21 45 1
21 69 1
21 85 1
21 93 1
21 165 1
21 181 1
21 189 1
22 22 1
22 38 1
22 46 1
22 70 1
22 86 1
22 94 1
22 166 1
22 182 1
22 190 1
23 23 1
23 39 1
23 47 1
23 71 1
23 87 1
23 95 1
23 167 1
23 183 1
23 191 1
24 24 1
24 40 1
24 48 1
24 72 1
24 88 1
24 96 1
24 168 1
24 184 1
24 192 1
25 1 1
25 25 1
25 33 1
25 97 1
25 121 1
25 129 1
25 193 1
25 217 1
25 225 1
26 2 1
26 26 1
26 34 1
26 98 1
26 122 1
26 130 1
26 194 1
26 218 1
26 226 1
27 3 1
27 27 1
27 35 1
27 99 1
27 123 1
27 131 1
27 195 1
27 219 1
27 227 1
28 4 1
28 28 1
28 36 1
28 100 1
28 124 1
28 132 1
28 196 1
28 220 1
28 228 1
29 5 1
29 29 1
29 37 1
29 101 1
29 125 1
29 133 1
29 197 1
29 221 1
29 229 1
30 6 1
30 30 1
30 38 1
30 102 1
30 126 1
30 134 1
30 198 1
30 222 1
30 230 1
31 7 1
31 31 1
31 39 1
31 103 1
31 127 1
31 135 1
31 199 1
31 223 1
31 231 1
32 8 1
32 32 1
32 40 1
32 104 1
32 128 1
32 136 1
32 200 1
32 224 1
32 232 1
33 9 1
33 25 1
33 41 1
33 105 1
33 121 1
33 137 1
33 201 1
33 217 1
33 233 1
34 10 1
34 26 1
34 42 1
34 106 1
34 122 1
34 138 1
34 202 1
34 218 1
34 234 1
35 11 1
35 27 1
35 43 1
35 107 1
35 123 1
35 139 1
35 203 1
35 219 1
35 235 1
36 12 1
36 28 1
36 44 1
36 108 1
36 124 1
36 140 1
36 204 1
36 220 1
36 236 1
37 13 1
37 29 1
37 45 1
37 109 1
37 125 1
37 141 1
37 205 1
37 221 1
37 237 1
38 14 1
38 30 1
38 46 1
38 110 1
38 126 1
38 142 1
38 206 1
38 222 1
38 238 1
39 15 1
39 31 1
39 47 1
39 111 1
39 127 1
39 143 1
39 207 1
39 223 1
39 239 1
40 16 1
40 32 1
40 48 1
40 112 1
40 128 1
40 144 1
40 208 1
40 224 1
40 240 1
41 17 1
41 33 1
41 41 1
41 113 1
41 129 1
41 137 1
41 209 1
41 225 1
41 233 1
42 18 1
42 34 1
42 42 1
42 114 1
42 130 1
42 138 1
42 210 1
42 226 1
42 234 1
43 19 1
43 35 1
43 43 1
43 115 1
43 131 1
43 139 1
43 211 1
43 227 1
43 235 1
44 20 1
44 36 1
44 44 1
44 116 1
44 132 1
44 140 1
44 212 1
44 228 1
44 236 1
45 21 1
45 37 1
45 45 1
45 117 1
45 133 1
45 141 1
45 213 1
45 229 1
45 237 1
46 22 1
46 38 1
46 46 1
46 118 1
46 134 1
46 142 1
46 214 1
46 230 1
46 238 1
47 23 1
47 39 1
47 47 1
47 119 1
47 135 1
47 143 1
47 215 1
47 231 1
47 239 1
48 24 1
48 40 1
48 48 1
48 120 1
48 136 1
48 144 1
48 216 1
48 232 1
48 240 1
49 49 1
49 73 1
49 81 1
49 97 1
49 121 1
49 129 1
49 241 1
49 265 1
49 273 1
50 50 1
50 74 1
50 82 1
50 98 1
50 122 1
50 130 1
50 242 1
50 266 1
50 274 1
51 51 1
51 75 1
51 83 1
51 99 1
51 123 1
51 131 1
51 243 1
51 267 1
51 275 1
52 52 1
52 76 1
52 84 1
52 100 1
52 124 1
52 132 1
52 244 1
52 268 1
52 276 1
53 53 1
53 77 1
53 85 1
53 101 1
53 125 1
53 133 1
53 245 1
53 269 1
53 277 1
54 54 1
54 78 1
54 86 1
54 102 1
54 126 1
54 134 1
54 246 1
54 270 1
54 278 1
55 55 1
55 79 1
55 87 1
55 103 1
55 127 1
55 135 1
55 247 1
55 271 1
55 279 1
56 56 1
56 80 1
56 88 1
56 104 1
56 128 1
56 136 1
56 248 1
56 272 1
56 280 1
57 57 1
57 73 1
57 89 1
57 105 1
57 121 1
57 137 1
57 249 1
57 265 1
57 281 1
58 58 1
58 74 1
58 90 1
58 106 1
58 122 1
58 138 1
58 250 1
58 266 1
58 282 1
59 59 1
59 75 1
59 91 1
59 107 1
59 123 1
59 139 1
59 251 1
59 267 1
59 283 1
60 60 1
60 76 1
60 92 1
60 108 1
60 124 1
60 140 1
60 252 1
60 268 1
60 284 1
61 61 1
61 77 1
61 93 1
61 109 1
61 125 1
61 141 1
61 253 1
61 269 1
61 285 1
62 62 1
62 78 1
62 94 1
62 110 1
62 126 1
62 142 1
62 254 1
62 270 1
62 286 1
63 63 1
63 79 1
63 95 1
63 111 1
63 127 1
63 143 1
63 255 1
63 271 1
63 287 1
64 64 1
64 80 1
64 96 1
64 112 1
64 128 1
64 144 1
64 256 1
64 272 1
64 288 1
65 65 1
65 81 1
65 89 1
65 113 1
65 129 1
65 137 1
65 257 1
65 273 1
65 281 1
66 66 1
66 82 1
66 90 1
66 114 1
66 130 1
66 138 1
66 258 1
66 274 1
66 282 1
67 67 1
67 83 1
67 91 1
67 115 1
67 131 1
67 139 1
67 259 1
67 275 1
67 283 1
68 68 1
68 84 1
68 92 1
68 116 1
68 132 1
68 140 1
68 260 1
68 276 1
68 284 1
69 69 1
69 85 1
69 93 1
69 117 1
69 133 1
69 141 1
69 261 1
69 277 1
69 285 1
70 70 1
70 86 1
70 94 1
70 118 1
70 134 1
70 142 1
70 262 1
70 278 1
70 286 1
71 71 1
71 87 1
71 95 1
71 119 1
71 135 1
71 143 1
71 263 1
71 279 1
71 287 1
72 72 1
72 88 1
72 96 1
72 120 1
72 136 1
72 144 1
72 264 1
72 280 1
72 288 1
73 1 1
73 32 1
73 34 1
73 51 1
73 78 1
73 85 1
73 148 1
73 173 1
73 182 1
74 2 1
74 27 1
74 36 1
74 53 1
74 73 1
74 87 1
74 150 1
74 175 1
74 177 1
75 3 1
75 30 1
75 37 1
75 49 1
75 80 1
75 82 1
75 151 1
75 170 1
75 184 1
76 4 1
76 29 1
76 38 1
76 55 1
76 74 1
76 88 1
76 145 1
76 176 1
76 178 1
77 5 1
77 25 1
77 39 1
77 50 1
77 75 1
77 84 1
77 152 1
77 172 1
77 179 1
78 6 1
78 31 1
78 33 1
78 56 1
78 76 1
78 83 1
78 146 1
78 171 1
78 180 1
79 7 1
79 26 1
79 40 1
79 52 1
79 77 1
79 86 1
79 147 1
79 174 1
79 181 1
80 8 1
80 28 1
80 35 1
80 54 1
80 79 1
80 81 1
80 149 1
80 169 1
80 183 1
81 14 1
81 32 1
81 45 1
81 64 1
81 78 1
81 90 1
81 154 1
81 173 1
81 192 1
82 9 1
82 27 1
82 47 1
82 59 1
82 73 1
82 92 1
82 156 1
82 175 1
82 187 1
83 16 1
83 30 1
83 42 1
83 62 1
83 80 1
83 93 1
83 157 1
83 170 1
83 190 1
84 10 1
84 29 1
84 48 1
84 61 1
84 74 1
84 94 1
84 158 1
84 176 1
84 189 1
85 11 1
85 25 1
85 44 1
85 57 1
85 75 1
85 95 1
85 159 1
85 172 1
85 185 1
86 12 1
86 31 1
86 43 1
86 63 1
86 76 1
86 89 1
86 153 1
86 171 1
86 191 1
87 13 1
87 26 1
87 46 1
87 58 1
87 77 1
87 96 1
87 160 1
87 174 1
87 186 1
88 15 1
88 28 1
88 41 1
88 60 1
88 79 1
88 91 1
88 155 1
88 169 1
88 188 1
89 24 1
89 34 1
89 45 1
89 70 1
89 85 1
89 90 1
89 165 1
89 182 1
89 192 1
90 19 1
90 36 1
90 47 1
90 65 1
90 87 1
90 92 1
90 167 1
90 177 1
90 187 1
91 22 1
91 37 1
91 42 1
91 72 1
91 82 1
91 93 1
91 162 1
91 184 1
91 190 1
92 21 1
92 38 1
92 48 1
92 66 1
92 88 1
92 94 1
92 168 1
92 178 1
92 189 1
93 17 1
93 39 1
93 44 1
93 67 1
93 84 1
93 95 1
93 164 1
93 179 1
93 185 1
94 23 1
94 33 1
94 43 1
94 68 1
94 83 1
94 89 1
94 163 1
94 180 1
94 191 1
95 18 1
95 40 1
95 46 1
95 69 1
95 86 1
95 96 1
95 166 1
95 181 1
95 186 1
96 20 1
96 35 1
96 41 1
96 71 1
96 81 1
96 91 1
96 161 1
96 183 1
96 188 1
97 1 1
97 32 1
97 34 1
97 100 1
97 125 1
97 134 1
97 198 1
97 223 1
97 225 1
98 2 1
98 27 1
98 36 1
98 102 1
98 127 1
98 129 1
98 193 1
98 224 1
98 226 1
99 3 1
99 30 1
99 37 1
99 103 1
99 122 1
99 136 1
99 200 1
99 220 1
99 227 1
100 4 1
100 29 1
100 38 1
100 97 1
100 128 1
100 130 1
100 194 1
100 219 1
100 228 1
101 5 1
101 25 1
101 39 1
101 104 1
101 124 1
101 131 1
101 195 1
101 222 1
101 229 1
102 6 1
102 31 1
102 33 1
102 98 1
102 123 1
102 132 1
102 196 1
102 221 1
102 230 1
103 7 1
103 26 1
103 40 1
103 99 1
103 126 1
103 133 1
103 197 1
103 217 1
103 231 1
104 8 1
104 28 1
104 35 1
104 101 1
104 121 1
104 135 1
104 199 1
104 218 1
104 232 1
105 14 1
105 32 1
105 45 1
105 106 1
105 125 1
105 144 1
105 204 1
105 223 1
105 235 1
106 9 1
106 27 1
106 47 1
106 108 1
106 127 1
106 139 1
106 206 1
106 224 1
106 237 1
107 16 1
107 30 1
107 42 1
107 109 1
107 122 1
107 142 1
107 207 1
107 220 1
107 233 1
108 10 1
108 29 1
108 48 1
108 110 1
108 128 1
108 141 1
108 201 1
108 219 1
108 239 1
109 11 1
109 25 1
109 44 1
109 111 1
109 124 1
109 137 1
109 208 1
109 222 1
109 234 1
110 12 1
110 31 1
110 43 1
110 105 1
110 123 1
110 143 1
110 202 1
110 221 1
110 240 1
111 13 1
111 26 1
111 46 1
111 112 1
111 126 1
111 138 1
111 203 1
111 217 1
111 236 1
112 15 1
112 28 1
112 41 1
112 107 1
112 121 1
112 140 1
112 205 1
112 218 1
112 238 1
113 24 1
113 34 1
113 45 1
113 117 1
113 134 1
113 144 1
113 215 1
113 225 1
113 235 1
114 19 1
114 36 1
114 47 1
114 119 1
114 129 1
114 139 1
114 216 1
114 226 1
114 237 1
115 22 1
115 37 1
115 42 1
115 114 1
115 136 1
115 142 1
115 212 1
115 227 1
115 233 1
116 21 1
116 38 1
116 48 1
116 120 1
116 130 1
116 141 1
116 211 1
116 228 1
116 239 1
117 17 1
117 39 1
117 44 1
117 116 1
117 131 1
117 137 1
117 214 1
117 229 1
117 234 1
118 23 1
118 33 1
118 43 1
118 115 1
118 132 1
118 143 1
118 213 1
118 230 1
118 240 1
119 18 1
119 40 1
119 46 1
119 118 1
119 133 1
119 138 1
119 209 1
119 231 1
119 236 1
120 20 1
120 35 1
120 41 1
120 113 1
120 135 1
120 140 1
120 210 1
120 232 1
120 238 1
121 51 1
121 78 1
121 85 1
121 100 1
121 125 1
121 134 1
121 247 1
121 266 1
121 280 1
122 53 1
122 73 1
122 87 1
122 102 1
122 127 1
122 129 1
122 248 1
122 268 1
122 275 1
123 49 1
123 80 1
123 82 1
123 103 1
123 122 1
123 136 1
123 244 1
123 269 1
123 278 1
124 55 1
124 74 1
124 88 1
124 97 1
124 128 1
124 130 1
124 243 1
124 270 1
124 277 1
125 50 1
125 75 1
125 84 1
125 104 1
125 124 1
125 131 1
125 246 1
125 271 1
125 273 1
126 56 1
126 76 1
126 83 1
126 98 1
126 123 1
126 132 1
126 245 1
126 265 1
126 279 1
127 52 1
127 77 1
127 86 1
127 99 1
127 126 1
127 133 1
127 241 1
127 272 1
127 274 1
128 54 1
128 79 1
128 81 1
128 101 1
128 121 1
128 135 1
128 242 1
128 267 1
128 276 1
129 64 1
129 78 1
129 90 1
129 106 1
129 125 1
129 144 1
129 253 1
129 266 1
129 286 1
130 59 1
130 73 1
130 92 1
130 108 1
130 127 1
130 139 1
130 255 1
130 268 1
130 281 1
131 62 1
131 80 1
131 93 1
131 109 1
131 122 1
131 142 1
131 250 1
131 269 1
131 288 1
132 61 1
132 74 1
132 94 1
132 110 1
132 128 1
132 141 1
132 256 1
132 270 1
132 282 1
133 57 1
133 75 1
133 95 1
133 111 1
133 124 1
133 137 1
133 252 1
133 271 1
133 283 1
134 63 1
134 76 1
134 89 1
134 105 1
134 123 1
134 143 1
134 251 1
134 265 1
134 284 1
135 58 1
135 77 1
135 96 1
135 112 1
135 126 1
135 138 1
135 254 1
135 272 1
135 285 1
136 60 1
136 79 1
136 91 1
136 107 1
136 121 1
136 140 1
136 249 1
136 267 1
136 287 1
137 70 1
137 85 1
137 90 1
137 117 1
137 134 1
137 144 1
137 258 1
137 280 1
137 286 1
138 65 1
138 87 1
138 92 1
138 119 1
138 129 1
138 139 1
138 260 1
138 275 1
138 281 1
139 72 1
139 82 1
139 93 1
139 114 1
139 136 1
139 142 1
139 261 1
139 278 1
139 288 1
140 66 1
140 88 1
140 94 1
140 120 1
140 130 1
140 141 1
140 262 1
140 277 1
140 282 1
141 67 1
141 84 1
141 95 1
141 116 1
141 131 1
141 137 1
141 263 1
141 273 1
141 283 1
142 68 1
142 83 1
142 89 1
142 115 1
142 132 1
142 143 1
142 257 1
142 279 1
142 284 1
143 69 1
143 86 1
143 96 1
143 118 1
143 133 1
143 138 1
143 264 1
143 274 1
143 285 1
144 71 1
144 81 1
144 91 1
144 113 1
144 135 1
144 140 1
144 259 1
144 276 1
144 287 1
