%%MatrixMarket matrix coordinate integer general
270 540 2430
1 1 1
1 46 1
1 61 1
1 91 1
1 136 1
1 151 1
1 271 1
1 316 1
1 331 1
2 2 1
2 47 1
2 62 1
2 92 1
2 137 1
2 152 1
2 272 1
2 317 1
2 332 1
3 3 1
3 48 1
3 63 1
3 93 1
3 138 1
3 153 1
3 273 1
3 318 1
3 333 1
4 4 1
4 49 1
4 64 1
4 94 1
4 139 1
4 154 1
4 274 1
4 319 1
4 334 1
5 5 1
5 50 1
5 65 1
5 95 1
5 140 1
5 155 1
5 275 1
5 320 1
5 335 1
6 6 1
6 51 1
6 66 1
6 96 1
6 141 1
6 156 1
6 276 1
6 321 1
6 336 1
7 7 1
7 52 1
7 67 1
7 97 1
7 142 1
7 157 1
7 277 1
7 322 1
7 337 1
8 8 1
8 53 1
8 68 1
8 98 1
8 143 1
8 158 1
8 278 1
8 323 1
8 338 1
9 9 1
9 54 1
9 69 1
9 99 1
9 144 1
9 159 1
9 279 1
9 324 1
9 339 1
10 10 1
10 55 1
10 70 1
10 100 1
10 145 1
10 160 1
10 280 1
10 325 1
10 340 1
11 11 1
11 56 1
11 71 1
11 101 1
11 146 1
11 161 1
11 281 1
11 326 1
11 341 1
12 12 1
12 57 1
12 72 1
12 102 1
12 147 1
12 162 1
12 282 1
12 327 1
12 342 1
13 13 1
13 58 1
13 73 1
13 103 1
13 148 1
13 163 1
13 283 1
13 328 1
13 343 1
14 14 1
14 59 1
14 74 1
14 104 1
14 149 1
14 164 1
14 284 1
14 329 1
14 344 1
15 15 1
15 60 1
15 75 1
15 105 1
15 150 1
15 165 1
15 285 1
15 330 1
15 345 1
16 16 1
16 46 1
16 76 1
16 106 1
16 136 1
16 166 1
16 286 1
16 316 1
16 346 1
17 17 1
17 47 1
17 77 1
17 107 1
17 137 1
17 167 1
17 287 1
17 317 1
17 347 1
18 18 1
18 48 1
18 78 1
18 108 1
18 138 1
18 168 1
18 288 1
18 318 1
18 348 1
19 19 1
19 49 1
19 79 1
19 109 1
19 139 1
19 169 1
19 289 1
19 319 1
19 349 1
20 20 1
20 50 1
20 80 1
20 110 1
20 140 1
20 170 1
20 290 1
20 320 1
20 350 1
21 21 1
21 51 1
21 81 1
21 111 1
21 141 1
21 171 1
21 291 1
21 321 1
21 351 1
22 22 1
22 52 1
22 82 1
22 112 1
22 142 1
22 172 1
22 292 1
22 322 1
22 352 1
23 23 1
23 53 1
23 83 1
23 113 1
23 143 1
23 173 1
23 293 1
23 323 1
23 353 1
24 24 1
24 54 1
24 84 1
24 114 1
24 144 1
24 174 1
24 294 1
24 324 1
24 354 1
25 25 1
25 55 1
25 85 1
25 115 1
25 145 1
25 175 1
25 295 1
25 325 1
25 355 1
26 26 1
26 56 1
26 86 1
26 116 1
26 146 1
26 176 1
26 296 1
26 326 1
26 356 1
27 27 1
27 57 1
27 87 1
27 117 1
27 147 1
27 177 1
27 297 1
27 327 1
27 357 1
28 28 1
28 58 1
28 88 1
28 118 1
28 148 1
28 178 1
28 298 1
28 328 1
28 358 1
29 29 1
29 59 1
29 89 1
29 119 1
29 149 1
29 179 1
29 299 1
29 329 1
29 359 1
30 30 1
30 60 1
30 90 1
30 120 1
30 150 1
30 180 1
30 300 1
30 330 1
30 360 1
31 31 1
31 61 1
31 76 1
31 121 1
31 151 1
31 166 1
31 301 1
31 331 1
31 346 1
32 32 1
32 62 1
32 77 1
32 122 1
32 152 1
32 167 1
32 302 1
32 332 1
32 347 1
33 33 1
33 63 1
33 78 1
33 123 1
33 153 1
33 168 1
33 303 1
33 333 1
33 348 1
34 34 1
34 64 1
34 79 1
34 124 1
34 154 1
34 169 1
34 304 1
34 334 1
34 349 1
35 35 1
35 65 1
35 80 1
35 125 1
35 155 1
35 170 1
35 305 1
35 335 1
35 350 1
36 36 1
36 66 1
36 81 1
36 126 1
36 156 1
36 171 1
36 306 1
36 336 1
36 351 1
37 37 1
37 67 1
37 82 1
37 127 1
37 157 1
37 172 1
37 307 1
37 337 1
37 352 1
38 38 1
38 68 1
38 83 1
38 128 1
38 158 1
38 173 1
38 308 1
38 338 1
38 353 1
39 39 1
39 69 1
39 84 1
39 129 1
39 159 1
39 174 1
39 309 1
39 339 1
39 354 1
40 40 1
40 70 1
40 85 1
40 130 1
40 160 1
40 175 1
40 310 1
40 340 1
40 355 1
41 41 1
41 71 1
41 86 1
41 131 1
41 161 1
41 176 1
41 311 1
41 341 1
41 356 1
42 42 1
42 72 1
42 87 1
42 132 1
42 162 1
42 177 1
42 312 1
42 342 1
42 357 1
43 43 1
43 73 1
43 88 1
43 133 1
43 163 1
43 178 1
43 313 1
43 343 1
43 358 1
44 44 1
44 74 1
44 89 1
44 134 1
44 164 1
44 179 1
44 314 1
44 344 1
44 359 1
45 45 1
45 75 1
45 90 1
45 135 1
45 165 1
45 180 1
45 315 1
45 345 1
45 360 1
46 1 1
46 46 1
46 61 1
46 181 1
46 226 1
46 241 1
46 361 1
46 406 1
46 421 1
47 2 1
47 47 1
47 62 1
47 182 1
47 227 1
47 242 1
47 362 1
47 407 1
47 422 1
48 3 1
48 48 1
48 63 1
48 183 1
48 228 1
48 243 1
48 363 1
48 408 1
48 423 1
49 4 1
49 49 1
49 64 1
49 184 1
49 229 1
49 244 1
49 364 1
49 409 1
49 424 1
50 5 1
50 50 1
50 65 1
50 185 1
50 230 1
50 245 1
50 365 1
50 410 1
50 425 1
51 6 1
51 51 1
51 66 1
51 186 1
51 231 1
51 246 1
51 366 1
51 411 1
51 426 1
52 7 1
52 52 1
52 67 1
52 187 1
52 232 1
52 247 1
52 367 1
52 412 1
52 427 1
53 8 1
53 53 1
53 68 1
53 188 1
53 233 1
53 248 1
53 368 1
53 413 1
53 428 1
54 9 1
54 54 1
54 69 1
54 189 1
54 234 1
54 249 1
54 369 1
54 414 1
54 429 1
55 10 1
55 55 1
55 70 1
55 190 1
55 235 1
55 250 1
55 370 1
55 415 1
55 430 1
56 11 1
56 56 1
56 71 1
56 191 1
56 236 1
56 251 1
56 371 1
56 416 1
56 431 1
57 12 1
57 57 1
57 72 1
57 192 1
57 237 1
57 252 1
57 372 1
57 417 1
57 432 1
58 13 1
58 58 1
58 73 1
58 193 1
58 238 1
58 253 1
58 373 1
58 418 1
58 433 1
59 14 1
59 59 1
59 74 1
59 194 1
59 239 1
59 254 1
59 374 1
59 419 1
59 434 1
60 15 1
60 60 1
60 75 1
60 195 1
60 240 1
60 255 1
60 375 1
60 420 1
60 435 1
61 16 1
61 46 1
61 76 1
61 196 1
61 226 1
61 256 1
61 376 1
61 406 1
61 436 1
62 17 1
62 47 1
62 77 1
62 197 1
62 227 1
62 257 1
62 377 1
62 407 1
62 437 1
63 18 1
63 48 1
63 78 1
63 198 1
63 228 1
63 258 1
63 378 1
63 408 1
63 438 1
64 19 1
64 49 1
64 79 1
64 199 1
64 229 1
64 259 1
64 379 1
64 409 1
64 439 1
65 20 1
65 50 1
65 80 1
65 200 1
65 230 1
65 260 1
65 380 1
65 410 1
65 440 1
66 21 1
66 51 1
66 81 1
66 201 1
66 231 1
66 261 1
66 381 1
66 411 1
66 441 1
67 22 1
67 52 1
67 82 1
67 202 1
67 232 1
67 262 1
67 382 1
67 412 1
67 442 1
68 23 1
68 53 1
68 83 1
68 203 1
68 233 1
68 263 1
68 383 1
68 413 1
68 443 1
69 24 1
69 54 1
69 84 1
69 204 1
69 234 1
69 264 1
69 384 1
69 414 1
69 444 1
70 25 1
70 55 1
70 85 1
70 205 1
70 235 1
70 265 1
70 385 1
70 415 1
70 445 1
71 26 1
71 56 1
71 86 1
71 206 1
71 236 1
71 266 1
71 386 1
71 416 1
71 446 1
72 27 1
72 57 1
72 87 1
72 207 1
72 237 1
72 267 1
72 387 1
72 417 1
72 447 1
73 28 1
73 58 1
73 88 1
73 208 1
73 238 1
73 268 1
73 388 1
73 418 1
73 448 1
74 29 1
74 59 1
74 89 1
74 209 1
74 239 1
74 269 1
74 389 1
74 419 1
74 449 1
75 30 1
75 60 1
75 90 1
75 210 1
75 240 1
75 270 1
75 390 1
75 420 1
75 450 1
76 31 1
76 61 1
76 76 1
76 211 1
76 241 1
76 256 1
76 391 1
76 421 1
76 436 1
77 32 1
77 62 1
77 77 1
77 212 1
77 242 1
77 257 1
77 392 1
77 422 1
77 437 1
78 33 1
78 63 1
78 78 1
78 213 1
78 243 1
78 258 1
78 393 1
78 423 1
78 438 1
79 34 1
79 64 1
79 79 1
79 214 1
79 244 1
79 259 1
79 394 1
79 424 1
79 439 1
80 35 1
80 65 1
80 80 1
80 215 1
80 245 1
80 260 1
80 395 1
80 425 1
80 440 1
81 36 1
81 66 1
81 81 1
81 216 1
81 246 1
81 261 1
81 396 1
81 426 1
81 441 1
82 37 1
82 67 1
82 82 1
82 217 1
82 247 1
82 262 1
82 397 1
82 427 1
82 442 1
83 38 1
83 68 1
83 83 1
83 218 1
83 248 1
83 263 1
83 398 1
83 428 1
83 443 1
84 39 1
84 69 1
84 84 1
84 219 1
84 249 1
84 264 1
84 399 1
84 429 1
84 444 1
85 40 1
85 70 1
85 85 1
85 220 1
85 250 1
85 265 1
85 400 1
85 430 1
85 445 1
86 41 1
86 71 1
86 86 1
86 221 1
86 251 1
86 266 1
86 401 1
86 431 1
86 446 1
87 42 1
87 72 1
87 87 1
87 222 1
87 252 1
87 267 1
87 402 1
87 432 1
87 447 1
88 43 1
88 73 1
88 88 1
88 223 1
88 253 1
88 268 1
88 403 1
88 433 1
88 448 1
89 44 1
89 74 1
89 89 1
89 224 1
89 254 1
89 269 1
89 404 1
89 434 1
89 449 1
90 45 1
90 75 1
90 90 1
90 225 1
90 255 1
90 270 1
90 405 1
90 435 1
90 450 1
91 91 1
91 136 1
91 151 1
91 181 1
91 226 1
91 241 1
91 451 1
91 496 1
91 511 1
92 92 1
92 137 1
92 152 1
92 182 1
92 227 1
92 242 1
92 452 1
92 497 1
92 512 1
93 93 1
93 138 1
93 153 1
93 183 1
93 228 1
93 243 1
93 453 1
93 498 1
93 513 1
94 94 1
94 139 1
94 154 1
94 184 1
94 229 1
94 244 1
94 454 1
94 499 1
94 514 1
95 95 1
95 140 1
95 155 1
95 185 1
95 230 1
95 245 1
95 455 1
95 500 1
95 515 1
96 96 1
96 141 1
96 156 1
96 186 1
96 231 1
96 246 1
96 456 1
96 501 1
96 516 1
97 97 1
97 142 1
97 157 1
97 187 1
97 232 1
97 247 1
97 457 1
97 502 1
97 517 1
98 98 1
98 143 1
98 158 1
98 188 1
98 233 1
98 248 1
98 458 1
98 503 1
98 518 1
99 99 1
99 144 1
99 159 1
99 189 1
99 234 1
99 249 1
99 459 1
99 504 1
99 519 1
100 100 1
100 145 1
100 160 1
100 190 1
100 235 1
100 250 1
100 460 1
100 505 1
100 520 1
101 101 1
101 146 1
101 161 1
101 191 1
101 236 1
101 251 1
101 461 1
101 506 1
101 521 1
102 102 1
102 147 1
102 162 1
102 192 1
102 237 1
102 252 1
102 462 1
102 507 1
102 522 1
103 103 1
103 148 1
103 163 1
103 193 1
103 238 1
103 253 1
103 463 1
103 508 1
103 523 1
104 104 1
104 149 1
104 164 1
104 194 1
104 239 1
104 254 1
104 464 1
104 509 1
104 524 1
105 105 1
105 150 1
105 165 1
105 195 1
105 240 1
105 255 1
105 465 1
105 510 1
105 525 1
106 106 1
106 136 1
106 166 1
106 196 1
106 226 1
106 256 1
106 466 1
106 496 1
106 526 1
107 107 1
107 137 1
107 167 1
107 197 1
107 227 1
107 257 1
107 467 1
107 497 1
107 527 1
108 108 1
108 138 1
108 168 1
108 198 1
108 228 1
108 258 1
108 468 1
108 498 1
108 528 1
109 109 1
109 139 1
109 169 1
109 199 1
109 229 1
109 259 1
109 469 1
109 499 1
109 529 1
110 110 1
110 140 1
110 170 1
110 200 1
110 230 1
110 260 1
110 470 1
110 500 1
110 530 1
111 111 1
111 141 1
111 171 1
111 201 1
111 231 1
111 261 1
111 471 1
111 501 1
111 531 1
112 112 1
112 142 1
112 172 1
112 202 1
112 232 1
112 262 1
112 472 1
112 502 1
112 532 1
113 113 1
113 143 1
113 173 1
113 203 1
113 233 1
113 263 1
113 473 1
113 503 1
113 533 1
114 114 1
114 144 1
114 174 1
114 204 1
114 234 1
114 264 1
114 474 1
114 504 1
114 534 1
115 115 1
115 145 1
115 175 1
115 205 1
115 235 1
115 265 1
115 475 1
115 505 1
115 535 1
116 116 1
116 146 1
116 176 1
116 206 1
116 236 1
116 266 1
116 476 1
116 506 1
116 536 1
117 117 1
117 147 1
117 177 1
117 207 1
117 237 1
117 267 1
117 477 1
117 507 1
117 537 1
118 118 1
118 148 1
118 178 1
118 208 1
118 238 1
118 268 1
118 478 1
118 508 1
118 538 1
119 119 1
119 149 1
119 179 1
119 209 1
119 239 1
119 269 1
119 479 1
119 509 1
119 539 1
120 120 1
120 150 1
120 180 1
120 210 1
120 240 1
120 270 1
120 480 1
120 510 1
120 540 1
121 121 1
121 151 1
121 166 1
121 211 1
121 241 1
121 256 1
121 481 1
121 511 1
121 526 1
122 122 1
122 152 1
122 167 1
122 212 1
122 242 1
122 257 1
122 482 1
122 512 1
122 527 1
123 123 1
123 153 1
123 168 1
123 213 1
123 243 1
123 258 1
123 483 1
123 513 1
123 528 1
124 124 1
124 154 1
124 169 1
124 214 1
124 244 1
124 259 1
124 484 1
124 514 1
124 529 1
125 125 1
125 155 1
125 170 1
125 215 1
125 245 1
125 260 1
125 485 1
125 515 1
125 530 1
126 126 1
126 156 1
126 171 1
126 216 1
126 246 1
126 261 1
126 486 1
126 516 1
126 531 1
127 127 1
127 157 1
127 172 1
127 217 1
127 247 1
127 262 1
127 487 1
127 517 1
127 532 1
128 128 1
128 158 1
128 173 1
128 218 1
128 248 1
128 263 1
128 488 1
128 518 1
128 533 1
129 129 1
129 159 1
129 174 1
129 219 1
129 249 1
129 264 1
129 489 1
129 519 1
129 534 1
130 130 1
130 160 1
130 175 1
130 220 1
130 250 1
130 265 1
130 490 1
130 520 1
130 535 1
131 131 1
131 161 1
131 176 1
131 221 1
131 251 1
131 266 1
131 491 1
131 521 1
131 536 1
132 132 1
132 162 1
132 177 1
132 222 1
132 252 1
132 267 1
132 492 1
132 522 1
132 537 1
133 133 1
133 163 1
133 178 1
133 223 1
133 253 1
133 268 1
133 493 1
133 523 1
133 538 1
134 134 1
134 164 1
134 179 1
134 224 1
134 254 1
134 269 1
134 494 1
134 524 1
134 539 1
135 135 1
135 165 1
135 180 1
135 225 1
135 255 1
135 270 1
135 495 1
135 525 1
135 540 1
136 1 1
136 54 1
136 71 1
136 94 1
136 148 1
136 159 1
136 185 1
136 239 1
136 255 1
137 2 1
137 56 1
137 73 1
137 91 1
137 144 1
137 161 1
137 187 1
137 240 1
137 252 1
138 3 1
138 57 1
138 74 1
138 97 1
138 150 1
138 162 1
138 188 1
138 227 1
138 244 1
139 4 1
139 58 1
139 69 1
139 92 1
139 146 1
139 163 1
139 183 1
139 237 1
139 254 1
140 5 1
140 59 1
140 75 1
140 93 1
140 147 1
140 164 1
140 190 1
140 229 1
140 241 1
141 6 1
141 46 1
141 62 1
141 100 1
141 139 1
141 151 1
141 191 1
141 230 1
141 247 1
142 7 1
142 60 1
142 72 1
142 95 1
142 149 1
142 165 1
142 186 1
142 226 1
142 242 1
143 8 1
143 47 1
143 64 1
143 96 1
143 136 1
143 152 1
143 193 1
143 232 1
143 243 1
144 9 1
144 48 1
144 65 1
144 103 1
144 142 1
144 153 1
144 194 1
144 233 1
144 250 1
145 10 1
145 49 1
145 61 1
145 98 1
145 137 1
145 154 1
145 189 1
145 228 1
145 245 1
146 11 1
146 50 1
146 67 1
146 99 1
146 138 1
146 155 1
146 195 1
146 235 1
146 246 1
147 12 1
147 51 1
147 68 1
147 105 1
147 145 1
147 156 1
147 182 1
147 236 1
147 253 1
148 13 1
148 52 1
148 63 1
148 101 1
148 140 1
148 157 1
148 192 1
148 231 1
148 248 1
149 14 1
149 53 1
149 70 1
149 102 1
149 141 1
149 158 1
149 184 1
149 238 1
149 249 1
150 15 1
150 55 1
150 66 1
150 104 1
150 143 1
150 160 1
150 181 1
150 234 1
150 251 1
151 19 1
151 54 1
151 85 1
151 107 1
151 148 1
151 173 1
151 198 1
151 239 1
151 264 1
152 16 1
152 56 1
152 81 1
152 109 1
152 144 1
152 175 1
152 200 1
152 240 1
152 266 1
153 22 1
153 57 1
153 88 1
153 110 1
153 150 1
153 176 1
153 201 1
153 227 1
153 267 1
154 17 1
154 58 1
154 83 1
154 106 1
154 146 1
154 171 1
154 202 1
154 237 1
154 268 1
155 18 1
155 59 1
155 84 1
155 112 1
155 147 1
155 178 1
155 203 1
155 229 1
155 269 1
156 25 1
156 46 1
156 90 1
156 113 1
156 139 1
156 179 1
156 204 1
156 230 1
156 256 1
157 20 1
157 60 1
157 86 1
157 108 1
157 149 1
157 174 1
157 205 1
157 226 1
157 270 1
158 21 1
158 47 1
158 87 1
158 115 1
158 136 1
158 180 1
158 206 1
158 232 1
158 257 1
159 28 1
159 48 1
159 79 1
159 116 1
159 142 1
159 167 1
159 207 1
159 233 1
159 258 1
160 23 1
160 49 1
160 89 1
160 111 1
160 137 1
160 177 1
160 208 1
160 228 1
160 259 1
161 24 1
161 50 1
161 76 1
161 118 1
161 138 1
161 169 1
161 209 1
161 235 1
161 260 1
162 30 1
162 51 1
162 82 1
162 119 1
162 145 1
162 170 1
162 196 1
162 236 1
162 261 1
163 26 1
163 52 1
163 77 1
163 114 1
163 140 1
163 166 1
163 210 1
163 231 1
163 262 1
164 27 1
164 53 1
164 78 1
164 120 1
164 141 1
164 172 1
164 197 1
164 238 1
164 263 1
165 29 1
165 55 1
165 80 1
165 117 1
165 143 1
165 168 1
165 199 1
165 234 1
165 265 1
166 39 1
166 71 1
166 85 1
166 133 1
166 159 1
166 173 1
166 224 1
166 255 1
166 264 1
167 41 1
167 73 1
167 81 1
167 129 1
167 161 1
167 175 1
167 225 1
167 252 1
167 266 1
168 42 1
168 74 1
168 88 1
168 135 1
168 162 1
168 176 1
168 212 1
168 244 1
168 267 1
169 43 1
169 69 1
169 83 1
169 131 1
169 163 1
169 171 1
169 222 1
169 254 1
169 268 1
170 44 1
170 75 1
170 84 1
170 132 1
170 164 1
170 178 1
170 214 1
170 241 1
170 269 1
171 31 1
171 62 1
171 90 1
171 124 1
171 151 1
171 179 1
171 215 1
171 247 1
171 256 1
172 45 1
172 72 1
172 86 1
172 134 1
172 165 1
172 174 1
172 211 1
172 242 1
172 270 1
173 32 1
173 64 1
173 87 1
173 121 1
173 152 1
173 180 1
173 217 1
173 243 1
173 257 1
174 33 1
174 65 1
174 79 1
174 127 1
174 153 1
174 167 1
174 218 1
174 250 1
174 258 1
175 34 1
175 61 1
175 89 1
175 122 1
175 154 1
175 177 1
175 213 1
175 245 1
175 259 1
176 35 1
176 67 1
176 76 1
176 123 1
176 155 1
176 169 1
176 220 1
176 246 1
176 260 1
177 36 1
177 68 1
177 82 1
177 130 1
177 156 1
177 170 1
177 221 1
177 253 1
177 261 1
178 37 1
178 63 1
178 77 1
178 125 1
178 157 1
178 166 1
178 216 1
178 248 1
178 262 1
179 38 1
179 70 1
179 78 1
179 126 1
179 158 1
179 172 1
179 223 1
179 249 1
179 263 1
180 40 1
180 66 1
180 80 1
180 128 1
180 160 1
180 168 1
180 219 1
180 251 1
180 265 1
181 1 1
181 54 1
181 71 1
181 278 1
181 317 1
181 334 1
181 463 1
181 502 1
181 513 1
182 2 1
182 56 1
182 73 1
182 280 1
182 319 1
182 331 1
182 459 1
182 498 1
182 515 1
183 3 1
183 57 1
183 74 1
183 281 1
183 320 1
183 337 1
183 465 1
183 505 1
183 516 1
184 4 1
184 58 1
184 69 1
184 276 1
184 316 1
184 332 1
184 461 1
184 500 1
184 517 1
185 5 1
185 59 1
185 75 1
185 283 1
185 322 1
185 333 1
185 462 1
185 501 1
185 518 1
186 6 1
186 46 1
186 62 1
186 284 1
186 323 1
186 340 1
186 454 1
186 508 1
186 519 1
187 7 1
187 60 1
187 72 1
187 279 1
187 318 1
187 335 1
187 464 1
187 503 1
187 520 1
188 8 1
188 47 1
188 64 1
188 285 1
188 325 1
188 336 1
188 451 1
188 504 1
188 521 1
189 9 1
189 48 1
189 65 1
189 272 1
189 326 1
189 343 1
189 457 1
189 510 1
189 522 1
190 10 1
190 49 1
190 61 1
190 282 1
190 321 1
190 338 1
190 452 1
190 506 1
190 523 1
191 11 1
191 50 1
191 67 1
191 274 1
191 328 1
191 339 1
191 453 1
191 507 1
191 524 1
192 12 1
192 51 1
192 68 1
192 275 1
192 329 1
192 345 1
192 460 1
192 499 1
192 511 1
193 13 1
193 52 1
193 63 1
193 271 1
193 324 1
193 341 1
193 455 1
193 509 1
193 525 1
194 14 1
194 53 1
194 70 1
194 277 1
194 330 1
194 342 1
194 456 1
194 496 1
194 512 1
195 15 1
195 55 1
195 66 1
195 273 1
195 327 1
195 344 1
195 458 1
195 497 1
195 514 1
196 19 1
196 54 1
196 85 1
196 291 1
196 317 1
196 357 1
196 476 1
196 502 1
196 527 1
197 16 1
197 56 1
197 81 1
197 293 1
197 319 1
197 359 1
197 478 1
197 498 1
197 529 1
198 22 1
198 57 1
198 88 1
198 294 1
198 320 1
198 346 1
198 479 1
198 505 1
198 530 1
199 17 1
199 58 1
199 83 1
199 295 1
199 316 1
199 360 1
199 474 1
199 500 1
199 526 1
200 18 1
200 59 1
200 84 1
200 296 1
200 322 1
200 347 1
200 480 1
200 501 1
200 532 1
201 25 1
201 46 1
201 90 1
201 297 1
201 323 1
201 348 1
201 467 1
201 508 1
201 533 1
202 20 1
202 60 1
202 86 1
202 298 1
202 318 1
202 349 1
202 477 1
202 503 1
202 528 1
203 21 1
203 47 1
203 87 1
203 299 1
203 325 1
203 350 1
203 469 1
203 504 1
203 535 1
204 28 1
204 48 1
204 79 1
204 286 1
204 326 1
204 351 1
204 470 1
204 510 1
204 536 1
205 23 1
205 49 1
205 89 1
205 300 1
205 321 1
205 352 1
205 466 1
205 506 1
205 531 1
206 24 1
206 50 1
206 76 1
206 287 1
206 328 1
206 353 1
206 472 1
206 507 1
206 538 1
207 30 1
207 51 1
207 82 1
207 288 1
207 329 1
207 354 1
207 473 1
207 499 1
207 539 1
208 26 1
208 52 1
208 77 1
208 289 1
208 324 1
208 355 1
208 468 1
208 509 1
208 534 1
209 27 1
209 53 1
209 78 1
209 290 1
209 330 1
209 356 1
209 475 1
209 496 1
209 540 1
210 29 1
210 55 1
210 80 1
210 292 1
210 327 1
210 358 1
210 471 1
210 497 1
210 537 1
211 39 1
211 71 1
211 85 1
211 302 1
211 334 1
211 357 1
211 487 1
211 513 1
211 527 1
212 41 1
212 73 1
212 81 1
212 304 1
212 331 1
212 359 1
212 483 1
212 515 1
212 529 1
213 42 1
213 74 1
213 88 1
213 305 1
213 337 1
213 346 1
213 490 1
213 516 1
213 530 1
214 43 1
214 69 1
214 83 1
214 301 1
214 332 1
214 360 1
214 485 1
214 517 1
214 526 1
215 44 1
215 75 1
215 84 1
215 307 1
215 333 1
215 347 1
215 486 1
215 518 1
215 532 1
216 31 1
216 62 1
216 90 1
216 308 1
216 340 1
216 348 1
216 493 1
216 519 1
216 533 1
217 45 1
217 72 1
217 86 1
217 303 1
217 335 1
217 349 1
217 488 1
217 520 1
217 528 1
218 32 1
218 64 1
218 87 1
218 310 1
218 336 1
218 350 1
218 489 1
218 521 1
218 535 1
219 33 1
219 65 1
219 79 1
219 311 1
219 343 1
219 351 1
219 495 1
219 522 1
219 536 1
220 34 1
220 61 1
220 89 1
220 306 1
220 338 1
220 352 1
220 491 1
220 523 1
220 531 1
221 35 1
221 67 1
221 76 1
221 313 1
221 339 1
221 353 1
221 492 1
221 524 1
221 538 1
222 36 1
222 68 1
222 82 1
222 314 1
222 345 1
222 354 1
222 484 1
222 511 1
222 539 1
223 37 1
223 63 1
223 77 1
223 309 1
223 341 1
223 355 1
223 494 1
223 525 1
223 534 1
224 38 1
224 70 1
224 78 1
224 315 1
224 342 1
224 356 1
224 481 1
224 512 1
224 540 1
225 40 1
225 66 1
225 80 1
225 312 1
225 344 1
225 358 1
225 482 1
225 514 1
225 537 1
226 94 1
226 148 1
226 159 1
226 369 1
226 408 1
226 425 1
226 463 1
226 502 1
226 513 1
227 91 1
227 144 1
227 161 1
227 371 1
227 410 1
227 427 1
227 459 1
227 498 1
227 515 1
228 97 1
228 150 1
228 162 1
228 372 1
228 411 1
228 428 1
228 465 1
228 505 1
228 516 1
229 92 1
229 146 1
229 163 1
229 373 1
229 412 1
229 423 1
229 461 1
229 500 1
229 517 1
230 93 1
230 147 1
230 164 1
230 374 1
230 413 1
230 430 1
230 462 1
230 501 1
230 518 1
231 100 1
231 139 1
231 151 1
231 361 1
231 414 1
231 431 1
231 454 1
231 508 1
231 519 1
232 95 1
232 149 1
232 165 1
232 375 1
232 415 1
232 426 1
232 464 1
232 503 1
232 520 1
233 96 1
233 136 1
233 152 1
233 362 1
233 416 1
233 433 1
233 451 1
233 504 1
233 521 1
234 103 1
234 142 1
234 153 1
234 363 1
234 417 1
234 434 1
234 457 1
234 510 1
234 522 1
235 98 1
235 137 1
235 154 1
235 364 1
235 418 1
235 429 1
235 452 1
235 506 1
235 523 1
236 99 1
236 138 1
236 155 1
236 365 1
236 419 1
236 435 1
236 453 1
236 507 1
236 524 1
237 105 1
237 145 1
237 156 1
237 366 1
237 406 1
237 422 1
237 460 1
237 499 1
237 511 1
238 101 1
238 140 1
238 157 1
238 367 1
238 420 1
238 432 1
238 455 1
238 509 1
238 525 1
239 102 1
239 141 1
239 158 1
239 368 1
239 407 1
239 424 1
239 456 1
239 496 1
239 512 1
240 104 1
240 143 1
240 160 1
240 370 1
240 409 1
240 421 1
240 458 1
240 497 1
240 514 1
241 107 1
241 148 1
241 173 1
241 388 1
241 408 1
241 439 1
241 476 1
241 502 1
241 527 1
242 109 1
242 144 1
242 175 1
242 384 1
242 410 1
242 436 1
242 478 1
242 498 1
242 529 1
243 110 1
243 150 1
243 176 1
243 390 1
243 411 1
243 442 1
243 479 1
243 505 1
243 530 1
244 106 1
244 146 1
244 171 1
244 386 1
244 412 1
244 437 1
244 474 1
244 500 1
244 526 1
245 112 1
245 147 1
245 178 1
245 387 1
245 413 1
245 438 1
245 480 1
245 501 1
245 532 1
246 113 1
246 139 1
246 179 1
246 379 1
246 414 1
246 445 1
246 467 1
246 508 1
246 533 1
247 108 1
247 149 1
247 174 1
247 389 1
247 415 1
247 440 1
247 477 1
247 503 1
247 528 1
248 115 1
248 136 1
248 180 1
248 376 1
248 416 1
248 441 1
248 469 1
248 504 1
248 535 1
249 116 1
249 142 1
249 167 1
249 382 1
249 417 1
249 448 1
249 470 1
249 510 1
249 536 1
250 111 1
250 137 1
250 177 1
250 377 1
250 418 1
250 443 1
250 466 1
250 506 1
250 531 1
251 118 1
251 138 1
251 169 1
251 378 1
251 419 1
251 444 1
251 472 1
251 507 1
251 538 1
252 119 1
252 145 1
252 170 1
252 385 1
252 406 1
252 450 1
252 473 1
252 499 1
252 539 1
253 114 1
253 140 1
253 166 1
253 380 1
253 420 1
253 446 1
253 468 1
253 509 1
253 534 1
254 120 1
254 141 1
254 172 1
254 381 1
254 407 1
254 447 1
254 475 1
254 496 1
254 540 1
255 117 1
255 143 1
255 168 1
255 383 1
255 409 1
255 449 1
255 471 1
255 497 1
255 537 1
256 133 1
256 159 1
256 173 1
256 393 1
256 425 1
256 439 1
256 487 1
256 513 1
256 527 1
257 129 1
257 161 1
257 175 1
257 395 1
257 427 1
257 436 1
257 483 1
257 515 1
257 529 1
258 135 1
258 162 1
258 176 1
258 396 1
258 428 1
258 442 1
258 490 1
258 516 1
258 530 1
259 131 1
259 163 1
259 171 1
259 397 1
259 423 1
259 437 1
259 485 1
259 517 1
259 526 1
260 132 1
260 164 1
260 178 1
260 398 1
260 430 1
260 438 1
260 486 1
260 518 1
260 532 1
261 124 1
261 151 1
261 179 1
261 399 1
261 431 1
261 445 1
261 493 1
261 519 1
261 533 1
262 134 1
262 165 1
262 174 1
262 400 1
262 426 1
262 440 1
262 488 1
262 520 1
262 528 1
263 121 1
263 152 1
263 180 1
263 401 1
263 433 1
263 441 1
263 489 1
263 521 1
263 535 1
264 127 1
264 153 1
264 167 1
264 402 1
264 434 1
264 448 1
264 495 1
264 522 1
264 536 1
265 122 1
265 154 1
265 177 1
265 403 1
265 429 1
265 443 1
265 491 1
265 523 1
265 531 1
266 123 1
266 155 1
266 169 1
266 404 1
266 435 1
266 444 1
266 492 1
266 524 1
266 538 1
267 130 1
267 156 1
267 170 1
267 391 1
267 422 1
267 450 1
267 484 1
267 511 1
267 539 1
268 125 1
268 157 1
268 166 1
268 405 1
268 432 1
268 446 1
268 494 1
268 525 1
268 534 1
269 126 1
269 158 1
269 172 1
269 392 1
269 424 1
269 447 1
269 481 1
269 512 1
269 540 1
270 128 1
270 160 1
270 168 1
270 394 1
270 421 1
270 449 1
270 482 1
270 514 1
270 537 1
