%%MatrixMarket matrix coordinate integer general
288 576 2592
1 1 1
1 36 1
1 79 1
1 289 1
1 324 1
1 367 1
1 385 1
1 420 1
1 463 1
2 2 1
2 39 1
2 80 1
2 290 1
2 327 1
2 368 1
2 386 1
2 423 1
2 464 1
3 3 1
3 41 1
3 68 1
3 291 1
3 329 1
3 356 1
3 387 1
3 425 1
3 452 1
4 4 1
4 33 1
4 74 1
4 292 1
4 321 1
4 362 1
4 388 1
4 417 1
4 458 1
5 5 1
5 43 1
5 73 1
5 293 1
5 331 1
5 361 1
5 389 1
5 427 1
5 457 1
6 6 1
6 44 1
6 71 1
6 294 1
6 332 1
6 359 1
6 390 1
6 428 1
6 455 1
7 7 1
7 34 1
7 77 1
7 295 1
7 322 1
7 365 1
7 391 1
7 418 1
7 461 1
8 8 1
8 46 1
8 76 1
8 296 1
8 334 1
8 364 1
8 392 1
8 430 1
8 460 1
9 9 1
9 35 1
9 65 1
9 297 1
9 323 1
9 353 1
9 393 1
9 419 1
9 449 1
10 10 1
10 47 1
10 75 1
10 298 1
10 335 1
10 363 1
10 394 1
10 431 1
10 459 1
11 11 1
11 37 1
11 67 1
11 299 1
11 325 1
11 355 1
11 395 1
11 421 1
11 451 1
12 12 1
12 38 1
12 66 1
12 300 1
12 326 1
12 354 1
12 396 1
12 422 1
12 450 1
13 13 1
13 48 1
13 78 1
13 301 1
13 336 1
13 366 1
13 397 1
13 432 1
13 462 1
14 14 1
14 40 1
14 70 1
14 302 1
14 328 1
14 358 1
14 398 1
14 424 1
14 454 1
15 15 1
15 42 1
15 69 1
15 303 1
15 330 1
15 357 1
15 399 1
15 426 1
15 453 1
16 16 1
16 45 1
16 72 1
16 304 1
16 333 1
16 360 1
16 400 1
16 429 1
16 456 1
17 1 1
17 50 1
17 92 1
17 289 1
17 338 1
17 380 1
17 385 1
17 434 1
17 476 1
18 2 1
18 52 1
18 83 1
18 290 1
18 340 1
18 371 1
18 386 1
18 436 1
18 467 1
19 3 1
19 54 1
19 94 1
19 291 1
19 342 1
19 382 1
19 387 1
19 438 1
19 478 1
20 4 1
20 55 1
20 86 1
20 292 1
20 343 1
20 374 1
20 388 1
20 439 1
20 470 1
21 5 1
21 56 1
21 96 1
21 293 1
21 344 1
21 384 1
21 389 1
21 440 1
21 480 1
22 6 1
22 57 1
22 85 1
22 294 1
22 345 1
22 373 1
22 390 1
22 441 1
22 469 1
23 7 1
23 49 1
23 89 1
23 295 1
23 337 1
23 377 1
23 391 1
23 433 1
23 473 1
24 8 1
24 59 1
24 90 1
24 296 1
24 347 1
24 378 1
24 392 1
24 443 1
24 474 1
25 9 1
25 60 1
25 88 1
25 297 1
25 348 1
25 376 1
25 393 1
25 444 1
25 472 1
26 10 1
26 61 1
26 87 1
26 298 1
26 349 1
26 375 1
26 394 1
26 445 1
26 471 1
27 11 1
27 62 1
27 93 1
27 299 1
27 350 1
27 381 1
27 395 1
27 446 1
27 477 1
28 12 1
28 51 1
28 91 1
28 300 1
28 339 1
28 379 1
28 396 1
28 435 1
28 475 1
29 13 1
29 63 1
29 81 1
29 301 1
29 351 1
29 369 1
29 397 1
29 447 1
29 465 1
30 14 1
30 53 1
30 95 1
30 302 1
30 341 1
30 383 1
30 398 1
30 437 1
30 479 1
31 15 1
31 64 1
31 82 1
31 303 1
31 352 1
31 370 1
31 399 1
31 448 1
31 466 1
32 16 1
32 58 1
32 84 1
32 304 1
32 346 1
32 372 1
32 400 1
32 442 1
32 468 1
33 23 1
33 36 1
33 50 1
33 311 1
33 324 1
33 338 1
33 407 1
33 420 1
33 434 1
34 17 1
34 39 1
34 52 1
34 305 1
34 327 1
34 340 1
34 401 1
34 423 1
34 436 1
35 28 1
35 41 1
35 54 1
35 316 1
35 329 1
35 342 1
35 412 1
35 425 1
35 438 1
36 18 1
36 33 1
36 55 1
36 306 1
36 321 1
36 343 1
36 402 1
36 417 1
36 439 1
37 30 1
37 43 1
37 56 1
37 318 1
37 331 1
37 344 1
37 414 1
37 427 1
37 440 1
38 19 1
38 44 1
38 57 1
38 307 1
38 332 1
38 345 1
38 403 1
38 428 1
38 441 1
39 20 1
39 34 1
39 49 1
39 308 1
39 322 1
39 337 1
39 404 1
39 418 1
39 433 1
40 21 1
40 46 1
40 59 1
40 309 1
40 334 1
40 347 1
40 405 1
40 430 1
40 443 1
41 22 1
41 35 1
41 60 1
41 310 1
41 323 1
41 348 1
41 406 1
41 419 1
41 444 1
42 32 1
42 47 1
42 61 1
42 320 1
42 335 1
42 349 1
42 416 1
42 431 1
42 445 1
43 24 1
43 37 1
43 62 1
43 312 1
43 325 1
43 350 1
43 408 1
43 421 1
43 446 1
44 25 1
44 38 1
44 51 1
44 313 1
44 326 1
44 339 1
44 409 1
44 422 1
44 435 1
45 26 1
45 48 1
45 63 1
45 314 1
45 336 1
45 351 1
45 410 1
45 432 1
45 447 1
46 27 1
46 40 1
46 53 1
46 315 1
46 328 1
46 341 1
46 411 1
46 424 1
46 437 1
47 29 1
47 42 1
47 64 1
47 317 1
47 330 1
47 352 1
47 413 1
47 426 1
47 448 1
48 31 1
48 45 1
48 58 1
48 319 1
48 333 1
48 346 1
48 415 1
48 429 1
48 442 1
49 97 1
49 132 1
49 175 1
49 289 1
49 324 1
49 367 1
49 481 1
49 516 1
49 559 1
50 98 1
50 135 1
50 176 1
50 290 1
50 327 1
50 368 1
50 482 1
50 519 1
50 560 1
51 99 1
51 137 1
51 164 1
51 291 1
51 329 1
51 356 1
51 483 1
51 521 1
51 548 1
52 100 1
52 129 1
52 170 1
52 292 1
52 321 1
52 362 1
52 484 1
52 513 1
52 554 1
53 101 1
53 139 1
53 169 1
53 293 1
53 331 1
53 361 1
53 485 1
53 523 1
53 553 1
54 102 1
54 140 1
54 167 1
54 294 1
54 332 1
54 359 1
54 486 1
54 524 1
54 551 1
55 103 1
55 130 1
55 173 1
55 295 1
55 322 1
55 365 1
55 487 1
55 514 1
55 557 1
56 104 1
56 142 1
56 172 1
56 296 1
56 334 1
56 364 1
56 488 1
56 526 1
56 556 1
57 105 1
57 131 1
57 161 1
57 297 1
57 323 1
57 353 1
57 489 1
57 515 1
57 545 1
58 106 1
58 143 1
58 171 1
58 298 1
58 335 1
58 363 1
58 490 1
58 527 1
58 555 1
59 107 1
59 133 1
59 163 1
59 299 1
59 325 1
59 355 1
59 491 1
59 517 1
59 547 1
60 108 1
60 134 1
60 162 1
60 300 1
60 326 1
60 354 1
60 492 1
60 518 1
60 546 1
61 109 1
61 144 1
61 174 1
61 301 1
61 336 1
61 366 1
61 493 1
61 528 1
61 558 1
62 110 1
62 136 1
62 166 1
62 302 1
62 328 1
62 358 1
62 494 1
62 520 1
62 550 1
63 111 1
63 138 1
63 165 1
63 303 1
63 330 1
63 357 1
63 495 1
63 522 1
63 549 1
64 112 1
64 141 1
64 168 1
64 304 1
64 333 1
64 360 1
64 496 1
64 525 1
64 552 1
65 97 1
65 146 1
65 188 1
65 289 1
65 338 1
65 380 1
65 481 1
65 530 1
65 572 1
66 98 1
66 148 1
66 179 1
66 290 1
66 340 1
66 371 1
66 482 1
66 532 1
66 563 1
67 99 1
67 150 1
67 190 1
67 291 1
67 342 1
67 382 1
67 483 1
67 534 1
67 574 1
68 100 1
68 151 1
68 182 1
68 292 1
68 343 1
68 374 1
68 484 1
68 535 1
68 566 1
69 101 1
69 152 1
69 192 1
69 293 1
69 344 1
69 384 1
69 485 1
69 536 1
69 576 1
70 102 1
70 153 1
70 181 1
70 294 1
70 345 1
70 373 1
70 486 1
70 537 1
70 565 1
71 103 1
71 145 1
71 185 1
71 295 1
71 337 1
71 377 1
71 487 1
71 529 1
71 569 1
72 104 1
72 155 1
72 186 1
72 296 1
72 347 1
72 378 1
72 488 1
72 539 1
72 570 1
73 105 1
73 156 1
73 184 1
73 297 1
73 348 1
73 376 1
73 489 1
73 540 1
73 568 1
74 106 1
74 157 1
74 183 1
74 298 1
74 349 1
74 375 1
74 490 1
74 541 1
74 567 1
75 107 1
75 158 1
75 189 1
75 299 1
75 350 1
75 381 1
75 491 1
75 542 1
75 573 1
76 108 1
76 147 1
76 187 1
76 300 1
76 339 1
76 379 1
76 492 1
76 531 1
76 571 1
77 109 1
77 159 1
77 177 1
77 301 1
77 351 1
77 369 1
77 493 1
77 543 1
77 561 1
78 110 1
78 149 1
78 191 1
78 302 1
78 341 1
78 383 1
78 494 1
78 533 1
78 575 1
79 111 1
79 160 1
79 178 1
79 303 1
79 352 1
79 370 1
79 495 1
79 544 1
79 562 1
80 112 1
80 154 1
80 180 1
80 304 1
80 346 1
80 372 1
80 496 1
80 538 1
80 564 1
81 119 1
81 132 1
81 146 1
81 311 1
81 324 1
81 338 1
81 503 1
81 516 1
81 530 1
82 113 1
82 135 1
82 148 1
82 305 1
82 327 1
82 340 1
82 497 1
82 519 1
82 532 1
83 124 1
83 137 1
83 150 1
83 316 1
83 329 1
83 342 1
83 508 1
83 521 1
83 534 1
84 114 1
84 129 1
84 151 1
84 306 1
84 321 1
84 343 1
84 498 1
84 513 1
84 535 1
85 126 1
85 139 1
85 152 1
85 318 1
85 331 1
85 344 1
85 510 1
85 523 1
85 536 1
86 115 1
86 140 1
86 153 1
86 307 1
86 332 1
86 345 1
86 499 1
86 524 1
86 537 1
87 116 1
87 130 1
87 145 1
87 308 1
87 322 1
87 337 1
87 500 1
87 514 1
87 529 1
88 117 1
88 142 1
88 155 1
88 309 1
88 334 1
88 347 1
88 501 1
88 526 1
88 539 1
89 118 1
89 131 1
89 156 1
89 310 1
89 323 1
89 348 1
89 502 1
89 515 1
89 540 1
90 128 1
90 143 1
90 157 1
90 320 1
90 335 1
90 349 1
90 512 1
90 527 1
90 541 1
91 120 1
91 133 1
91 158 1
91 312 1
91 325 1
91 350 1
91 504 1
91 517 1
91 542 1
92 121 1
92 134 1
92 147 1
92 313 1
92 326 1
92 339 1
92 505 1
92 518 1
92 531 1
93 122 1
93 144 1
93 159 1
93 314 1
93 336 1
93 351 1
93 506 1
93 528 1
93 543 1
94 123 1
94 136 1
94 149 1
94 315 1
94 328 1
94 341 1
94 507 1
94 520 1
94 533 1
95 125 1
95 138 1
95 160 1
95 317 1
95 330 1
95 352 1
95 509 1
95 522 1
95 544 1
96 127 1
96 141 1
96 154 1
96 319 1
96 333 1
96 346 1
96 511 1
96 525 1
96 538 1
97 193 1
97 228 1
97 271 1
97 385 1
97 420 1
97 463 1
97 481 1
97 516 1
97 559 1
98 194 1
98 231 1
98 272 1
98 386 1
98 423 1
98 464 1
98 482 1
98 519 1
98 560 1
99 195 1
99 233 1
99 260 1
99 387 1
99 425 1
99 452 1
99 483 1
99 521 1
99 548 1
100 196 1
100 225 1
100 266 1
100 388 1
100 417 1
100 458 1
100 484 1
100 513 1
100 554 1
101 197 1
101 235 1
101 265 1
101 389 1
101 427 1
101 457 1
101 485 1
101 523 1
101 553 1
102 198 1
102 236 1
102 263 1
102 390 1
102 428 1
102 455 1
102 486 1
102 524 1
102 551 1
103 199 1
103 226 1
103 269 1
103 391 1
103 418 1
103 461 1
103 487 1
103 514 1
103 557 1
104 200 1
104 238 1
104 268 1
104 392 1
104 430 1
104 460 1
104 488 1
104 526 1
104 556 1
105 201 1
105 227 1
105 257 1
105 393 1
105 419 1
105 449 1
105 489 1
105 515 1
105 545 1
106 202 1
106 239 1
106 267 1
106 394 1
106 431 1
106 459 1
106 490 1
106 527 1
106 555 1
107 203 1
107 229 1
107 259 1
107 395 1
107 421 1
107 451 1
107 491 1
107 517 1
107 547 1
108 204 1
108 230 1
108 258 1
108 396 1
108 422 1
108 450 1
108 492 1
108 518 1
108 546 1
109 205 1
109 240 1
109 270 1
109 397 1
109 432 1
109 462 1
109 493 1
109 528 1
109 558 1
110 206 1
110 232 1
110 262 1
110 398 1
110 424 1
110 454 1
110 494 1
110 520 1
110 550 1
111 207 1
111 234 1
111 261 1
111 399 1
111 426 1
111 453 1
111 495 1
111 522 1
111 549 1
112 208 1
112 237 1
112 264 1
112 400 1
112 429 1
112 456 1
112 496 1
112 525 1
112 552 1
113 193 1
113 242 1
113 284 1
113 385 1
113 434 1
113 476 1
113 481 1
113 530 1
113 572 1
114 194 1
114 244 1
114 275 1
114 386 1
114 436 1
114 467 1
114 482 1
114 532 1
114 563 1
115 195 1
115 246 1
115 286 1
115 387 1
115 438 1
115 478 1
115 483 1
115 534 1
115 574 1
116 196 1
116 247 1
116 278 1
116 388 1
116 439 1
116 470 1
116 484 1
116 535 1
116 566 1
117 197 1
117 248 1
117 288 1
117 389 1
117 440 1
117 480 1
117 485 1
117 536 1
117 576 1
118 198 1
118 249 1
118 277 1
118 390 1
118 441 1
118 469 1
118 486 1
118 537 1
118 565 1
119 199 1
119 241 1
119 281 1
119 391 1
119 433 1
119 473 1
119 487 1
119 529 1
119 569 1
120 200 1
120 251 1
120 282 1
120 392 1
120 443 1
120 474 1
120 488 1
120 539 1
120 570 1
121 201 1
121 252 1
121 280 1
121 393 1
121 444 1
121 472 1
121 489 1
121 540 1
121 568 1
122 202 1
122 253 1
122 279 1
122 394 1
122 445 1
122 471 1
122 490 1
122 541 1
122 567 1
123 203 1
123 254 1
123 285 1
123 395 1
123 446 1
123 477 1
123 491 1
123 542 1
123 573 1
124 204 1
124 243 1
124 283 1
124 396 1
124 435 1
124 475 1
124 492 1
124 531 1
124 571 1
125 205 1
125 255 1
125 273 1
125 397 1
125 447 1
125 465 1
125 493 1
125 543 1
125 561 1
126 206 1
126 245 1
126 287 1
126 398 1
126 437 1
126 479 1
126 494 1
126 533 1
126 575 1
127 207 1
127 256 1
127 274 1
127 399 1
127 448 1
127 466 1
127 495 1
127 544 1
127 562 1
128 208 1
128 250 1
128 276 1
128 400 1
128 442 1
128 468 1
128 496 1
128 538 1
128 564 1
129 215 1
129 228 1
129 242 1
129 407 1
129 420 1
129 434 1
129 503 1
129 516 1
129 530 1
130 209 1
130 231 1
130 244 1
130 401 1
130 423 1
130 436 1
130 497 1
130 519 1
130 532 1
131 220 1
131 233 1
131 246 1
131 412 1
131 425 1
131 438 1
131 508 1
131 521 1
131 534 1
132 210 1
132 225 1
132 247 1
132 402 1
132 417 1
132 439 1
132 498 1
132 513 1
132 535 1
133 222 1
133 235 1
133 248 1
133 414 1
133 427 1
133 440 1
133 510 1
133 523 1
133 536 1
134 211 1
134 236 1
134 249 1
134 403 1
134 428 1
134 441 1
134 499 1
134 524 1
134 537 1
135 212 1
135 226 1
135 241 1
135 404 1
135 418 1
135 433 1
135 500 1
135 514 1
135 529 1
136 213 1
136 238 1
136 251 1
136 405 1
136 430 1
136 443 1
136 501 1
136 526 1
136 539 1
137 214 1
137 227 1
137 252 1
137 406 1
137 419 1
137 444 1
137 502 1
137 515 1
137 540 1
138 224 1
138 239 1
138 253 1
138 416 1
138 431 1
138 445 1
138 512 1
138 527 1
138 541 1
139 216 1
139 229 1
139 254 1
139 408 1
139 421 1
139 446 1
139 504 1
139 517 1
139 542 1
140 217 1
140 230 1
140 243 1
140 409 1
140 422 1
140 435 1
140 505 1
140 518 1
140 531 1
141 218 1
141 240 1
141 255 1
141 410 1
141 432 1
141 447 1
141 506 1
141 528 1
141 543 1
142 219 1
142 232 1
142 245 1
142 411 1
142 424 1
142 437 1
142 507 1
142 520 1
142 533 1
143 221 1
143 234 1
143 256 1
143 413 1
143 426 1
143 448 1
143 509 1
143 522 1
143 544 1
144 223 1
144 237 1
144 250 1
144 415 1
144 429 1
144 442 1
144 511 1
144 525 1
144 538 1
145 1 1
145 17 1
145 49 1
145 396 1
145 412 1
145 444 1
145 492 1
145 508 1
145 540 1
146 2 1
146 18 1
146 50 1
146 387 1
146 403 1
146 435 1
146 483 1
146 499 1
146 531 1
147 3 1
147 19 1
147 51 1
147 398 1
147 414 1
147 446 1
147 494 1
147 510 1
147 542 1
148 4 1
148 20 1
148 52 1
148 390 1
148 406 1
148 438 1
148 486 1
148 502 1
148 534 1
149 5 1
149 21 1
149 53 1
149 400 1
149 416 1
149 448 1
149 496 1
149 512 1
149 544 1
150 6 1
150 22 1
150 54 1
150 389 1
150 405 1
150 437 1
150 485 1
150 501 1
150 533 1
151 7 1
151 23 1
151 55 1
151 393 1
151 409 1
151 441 1
151 489 1
151 505 1
151 537 1
152 8 1
152 24 1
152 56 1
152 394 1
152 410 1
152 442 1
152 490 1
152 506 1
152 538 1
153 9 1
153 25 1
153 57 1
153 392 1
153 408 1
153 440 1
153 488 1
153 504 1
153 536 1
154 10 1
154 26 1
154 58 1
154 391 1
154 407 1
154 439 1
154 487 1
154 503 1
154 535 1
155 11 1
155 27 1
155 59 1
155 397 1
155 413 1
155 445 1
155 493 1
155 509 1
155 541 1
156 12 1
156 28 1
156 60 1
156 395 1
156 411 1
156 443 1
156 491 1
156 507 1
156 539 1
157 13 1
157 29 1
157 61 1
157 385 1
157 401 1
157 433 1
157 481 1
157 497 1
157 529 1
158 14 1
158 30 1
158 62 1
158 399 1
158 415 1
158 447 1
158 495 1
158 511 1
158 543 1
159 15 1
159 31 1
159 63 1
159 386 1
159 402 1
159 434 1
159 482 1
159 498 1
159 530 1
160 16 1
160 32 1
160 64 1
160 388 1
160 404 1
160 436 1
160 484 1
160 500 1
160 532 1
161 1 1
161 33 1
161 65 1
161 396 1
161 428 1
161 460 1
161 492 1
161 524 1
161 556 1
162 2 1
162 34 1
162 66 1
162 387 1
162 419 1
162 451 1
162 483 1
162 515 1
162 547 1
163 3 1
163 35 1
163 67 1
163 398 1
163 430 1
163 462 1
163 494 1
163 526 1
163 558 1
164 4 1
164 36 1
164 68 1
164 390 1
164 422 1
164 454 1
164 486 1
164 518 1
164 550 1
165 5 1
165 37 1
165 69 1
165 400 1
165 432 1
165 464 1
165 496 1
165 528 1
165 560 1
166 6 1
166 38 1
166 70 1
166 389 1
166 421 1
166 453 1
166 485 1
166 517 1
166 549 1
167 7 1
167 39 1
167 71 1
167 393 1
167 425 1
167 457 1
167 489 1
167 521 1
167 553 1
168 8 1
168 40 1
168 72 1
168 394 1
168 426 1
168 458 1
168 490 1
168 522 1
168 554 1
169 9 1
169 41 1
169 73 1
169 392 1
169 424 1
169 456 1
169 488 1
169 520 1
169 552 1
170 10 1
170 42 1
170 74 1
170 391 1
170 423 1
170 455 1
170 487 1
170 519 1
170 551 1
171 11 1
171 43 1
171 75 1
171 397 1
171 429 1
171 461 1
171 493 1
171 525 1
171 557 1
172 12 1
172 44 1
172 76 1
172 395 1
172 427 1
172 459 1
172 491 1
172 523 1
172 555 1
173 13 1
173 45 1
173 77 1
173 385 1
173 417 1
173 449 1
173 481 1
173 513 1
173 545 1
174 14 1
174 46 1
174 78 1
174 399 1
174 431 1
174 463 1
174 495 1
174 527 1
174 559 1
175 15 1
175 47 1
175 79 1
175 386 1
175 418 1
175 450 1
175 482 1
175 514 1
175 546 1
176 16 1
176 48 1
176 80 1
176 388 1
176 420 1
176 452 1
176 484 1
176 516 1
176 548 1
177 17 1
177 33 1
177 81 1
177 412 1
177 428 1
177 476 1
177 508 1
177 524 1
177 572 1
178 18 1
178 34 1
178 82 1
178 403 1
178 419 1
178 467 1
178 499 1
178 515 1
178 563 1
179 19 1
179 35 1
179 83 1
179 414 1
179 430 1
179 478 1
179 510 1
179 526 1
179 574 1
180 20 1
180 36 1
180 84 1
180 406 1
180 422 1
180 470 1
180 502 1
180 518 1
180 566 1
181 21 1
181 37 1
181 85 1
181 416 1
181 432 1
181 480 1
181 512 1
181 528 1
181 576 1
182 22 1
182 38 1
182 86 1
182 405 1
182 421 1
182 469 1
182 501 1
182 517 1
182 565 1
183 23 1
183 39 1
183 87 1
183 409 1
183 425 1
183 473 1
183 505 1
183 521 1
183 569 1
184 24 1
184 40 1
184 88 1
184 410 1
184 426 1
184 474 1
184 506 1
184 522 1
184 570 1
185 25 1
185 41 1
185 89 1
185 408 1
185 424 1
185 472 1
185 504 1
185 520 1
185 568 1
186 26 1
186 42 1
186 90 1
186 407 1
186 423 1
186 471 1
186 503 1
186 519 1
186 567 1
187 27 1
187 43 1
187 91 1
187 413 1
187 429 1
187 477 1
187 509 1
187 525 1
187 573 1
188 28 1
188 44 1
188 92 1
188 411 1
188 427 1
188 475 1
188 507 1
188 523 1
188 571 1
189 29 1
189 45 1
189 93 1
189 401 1
189 417 1
189 465 1
189 497 1
189 513 1
189 561 1
190 30 1
190 46 1
190 94 1
190 415 1
190 431 1
190 479 1
190 511 1
190 527 1
190 575 1
191 31 1
191 47 1
191 95 1
191 402 1
191 418 1
191 466 1
191 498 1
191 514 1
191 562 1
192 32 1
192 48 1
192 96 1
192 404 1
192 420 1
192 468 1
192 500 1
192 516 1
192 564 1
193 97 1
193 113 1
193 145 1
193 194 1
193 210 1
193 242 1
193 492 1
193 508 1
193 540 1
194 98 1
194 114 1
194 146 1
194 196 1
194 212 1
194 244 1
194 483 1
194 499 1
194 531 1
195 99 1
195 115 1
195 147 1
195 198 1
195 214 1
195 246 1
195 494 1
195 510 1
195 542 1
196 100 1
196 116 1
196 148 1
196 199 1
196 215 1
196 247 1
196 486 1
196 502 1
196 534 1
197 101 1
197 117 1
197 149 1
197 200 1
197 216 1
197 248 1
197 496 1
197 512 1
197 544 1
198 102 1
198 118 1
198 150 1
198 201 1
198 217 1
198 249 1
198 485 1
198 501 1
198 533 1
199 103 1
199 119 1
199 151 1
199 193 1
199 209 1
199 241 1
199 489 1
199 505 1
199 537 1
200 104 1
200 120 1
200 152 1
200 203 1
200 219 1
200 251 1
200 490 1
200 506 1
200 538 1
201 105 1
201 121 1
201 153 1
201 204 1
201 220 1
201 252 1
201 488 1
201 504 1
201 536 1
202 106 1
202 122 1
202 154 1
202 205 1
202 221 1
202 253 1
202 487 1
202 503 1
202 535 1
203 107 1
203 123 1
203 155 1
203 206 1
203 222 1
203 254 1
203 493 1
203 509 1
203 541 1
204 108 1
204 124 1
204 156 1
204 195 1
204 211 1
204 243 1
204 491 1
204 507 1
204 539 1
205 109 1
205 125 1
205 157 1
205 207 1
205 223 1
205 255 1
205 481 1
205 497 1
205 529 1
206 110 1
206 126 1
206 158 1
206 197 1
206 213 1
206 245 1
206 495 1
206 511 1
206 543 1
207 111 1
207 127 1
207 159 1
207 208 1
207 224 1
207 256 1
207 482 1
207 498 1
207 530 1
208 112 1
208 128 1
208 160 1
208 202 1
208 218 1
208 250 1
208 484 1
208 500 1
208 532 1
209 97 1
209 129 1
209 161 1
209 194 1
209 226 1
209 258 1
209 492 1
209 524 1
209 556 1
210 98 1
210 130 1
210 162 1
210 196 1
210 228 1
210 260 1
210 483 1
210 515 1
210 547 1
211 99 1
211 131 1
211 163 1
211 198 1
211 230 1
211 262 1
211 494 1
211 526 1
211 558 1
212 100 1
212 132 1
212 164 1
212 199 1
212 231 1
212 263 1
212 486 1
212 518 1
212 550 1
213 101 1
213 133 1
213 165 1
213 200 1
213 232 1
213 264 1
213 496 1
213 528 1
213 560 1
214 102 1
214 134 1
214 166 1
214 201 1
214 233 1
214 265 1
214 485 1
214 517 1
214 549 1
215 103 1
215 135 1
215 167 1
215 193 1
215 225 1
215 257 1
215 489 1
215 521 1
215 553 1
216 104 1
216 136 1
216 168 1
216 203 1
216 235 1
216 267 1
216 490 1
216 522 1
216 554 1
217 105 1
217 137 1
217 169 1
217 204 1
217 236 1
217 268 1
217 488 1
217 520 1
217 552 1
218 106 1
218 138 1
218 170 1
218 205 1
218 237 1
218 269 1
218 487 1
218 519 1
218 551 1
219 107 1
219 139 1
219 171 1
219 206 1
219 238 1
219 270 1
219 493 1
219 525 1
219 557 1
220 108 1
220 140 1
220 172 1
220 195 1
220 227 1
220 259 1
220 491 1
220 523 1
220 555 1
221 109 1
221 141 1
221 173 1
221 207 1
221 239 1
221 271 1
221 481 1
221 513 1
221 545 1
222 110 1
222 142 1
222 174 1
222 197 1
222 229 1
222 261 1
222 495 1
222 527 1
222 559 1
223 111 1
223 143 1
223 175 1
223 208 1
223 240 1
223 272 1
223 482 1
223 514 1
223 546 1
224 112 1
224 144 1
224 176 1
224 202 1
224 234 1
224 266 1
224 484 1
224 516 1
224 548 1
225 113 1
225 129 1
225 177 1
225 210 1
225 226 1
225 274 1
225 508 1
225 524 1
225 572 1
226 114 1
226 130 1
226 178 1
226 212 1
226 228 1
226 276 1
226 499 1
226 515 1
226 563 1
227 115 1
227 131 1
227 179 1
227 214 1
227 230 1
227 278 1
227 510 1
227 526 1
227 574 1
228 116 1
228 132 1
228 180 1
228 215 1
228 231 1
228 279 1
228 502 1
228 518 1
228 566 1
229 117 1
229 133 1
229 181 1
229 216 1
229 232 1
229 280 1
229 512 1
229 528 1
229 576 1
230 118 1
230 134 1
230 182 1
230 217 1
230 233 1
230 281 1
230 501 1
230 517 1
230 565 1
231 119 1
231 135 1
231 183 1
231 209 1
231 225 1
231 273 1
231 505 1
231 521 1
231 569 1
232 120 1
232 136 1
232 184 1
232 219 1
232 235 1
232 283 1
232 506 1
232 522 1
232 570 1
233 121 1
233 137 1
233 185 1
233 220 1
233 236 1
233 284 1
233 504 1
233 520 1
233 568 1
234 122 1
234 138 1
234 186 1
234 221 1
234 237 1
234 285 1
234 503 1
234 519 1
234 567 1
235 123 1
235 139 1
235 187 1
235 222 1
235 238 1
235 286 1
235 509 1
235 525 1
235 573 1
236 124 1
236 140 1
236 188 1
236 211 1
236 227 1
236 275 1
236 507 1
236 523 1
236 571 1
237 125 1
237 141 1
237 189 1
237 223 1
237 239 1
237 287 1
237 497 1
237 513 1
237 561 1
238 126 1
238 142 1
238 190 1
238 213 1
238 229 1
238 277 1
238 511 1
238 527 1
238 575 1
239 127 1
239 143 1
239 191 1
239 224 1
239 240 1
239 288 1
239 498 1
239 514 1
239 562 1
240 128 1
240 144 1
240 192 1
240 218 1
240 234 1
240 282 1
240 500 1
240 516 1
240 564 1
241 194 1
241 210 1
241 242 1
241 299 1
241 315 1
241 347 1
241 396 1
241 412 1
241 444 1
242 196 1
242 212 1
242 244 1
242 302 1
242 318 1
242 350 1
242 387 1
242 403 1
242 435 1
243 198 1
243 214 1
243 246 1
243 303 1
243 319 1
243 351 1
243 398 1
243 414 1
243 446 1
244 199 1
244 215 1
244 247 1
244 293 1
244 309 1
244 341 1
244 390 1
244 406 1
244 438 1
245 200 1
245 216 1
245 248 1
245 292 1
245 308 1
245 340 1
245 400 1
245 416 1
245 448 1
246 201 1
246 217 1
246 249 1
246 304 1
246 320 1
246 352 1
246 389 1
246 405 1
246 437 1
247 193 1
247 209 1
247 241 1
247 296 1
247 312 1
247 344 1
247 393 1
247 409 1
247 441 1
248 203 1
248 219 1
248 251 1
248 295 1
248 311 1
248 343 1
248 394 1
248 410 1
248 442 1
249 204 1
249 220 1
249 252 1
249 298 1
249 314 1
249 346 1
249 392 1
249 408 1
249 440 1
250 205 1
250 221 1
250 253 1
250 297 1
250 313 1
250 345 1
250 391 1
250 407 1
250 439 1
251 206 1
251 222 1
251 254 1
251 289 1
251 305 1
251 337 1
251 397 1
251 413 1
251 445 1
252 195 1
252 211 1
252 243 1
252 301 1
252 317 1
252 349 1
252 395 1
252 411 1
252 443 1
253 207 1
253 223 1
253 255 1
253 300 1
253 316 1
253 348 1
253 385 1
253 401 1
253 433 1
254 197 1
254 213 1
254 245 1
254 290 1
254 306 1
254 338 1
254 399 1
254 415 1
254 447 1
255 208 1
255 224 1
255 256 1
255 291 1
255 307 1
255 339 1
255 386 1
255 402 1
255 434 1
256 202 1
256 218 1
256 250 1
256 294 1
256 310 1
256 342 1
256 388 1
256 404 1
256 436 1
257 194 1
257 226 1
257 258 1
257 299 1
257 331 1
257 363 1
257 396 1
257 428 1
257 460 1
258 196 1
258 228 1
258 260 1
258 302 1
258 334 1
258 366 1
258 387 1
258 419 1
258 451 1
259 198 1
259 230 1
259 262 1
259 303 1
259 335 1
259 367 1
259 398 1
259 430 1
259 462 1
260 199 1
260 231 1
260 263 1
260 293 1
260 325 1
260 357 1
260 390 1
260 422 1
260 454 1
261 200 1
261 232 1
261 264 1
261 292 1
261 324 1
261 356 1
261 400 1
261 432 1
261 464 1
262 201 1
262 233 1
262 265 1
262 304 1
262 336 1
262 368 1
262 389 1
262 421 1
262 453 1
263 193 1
263 225 1
263 257 1
263 296 1
263 328 1
263 360 1
263 393 1
263 425 1
263 457 1
264 203 1
264 235 1
264 267 1
264 295 1
264 327 1
264 359 1
264 394 1
264 426 1
264 458 1
265 204 1
265 236 1
265 268 1
265 298 1
265 330 1
265 362 1
265 392 1
265 424 1
265 456 1
266 205 1
266 237 1
266 269 1
266 297 1
266 329 1
266 361 1
266 391 1
266 423 1
266 455 1
267 206 1
267 238 1
267 270 1
267 289 1
267 321 1
267 353 1
267 397 1
267 429 1
267 461 1
268 195 1
268 227 1
268 259 1
268 301 1
268 333 1
268 365 1
268 395 1
268 427 1
268 459 1
269 207 1
269 239 1
269 271 1
269 300 1
269 332 1
269 364 1
269 385 1
269 417 1
269 449 1
270 197 1
270 229 1
270 261 1
270 290 1
270 322 1
270 354 1
270 399 1
270 431 1
270 463 1
271 208 1
271 240 1
271 272 1
271 291 1
271 323 1
271 355 1
271 386 1
271 418 1
271 450 1
272 202 1
272 234 1
272 266 1
272 294 1
272 326 1
272 358 1
272 388 1
272 420 1
272 452 1
273 210 1
273 226 1
273 274 1
273 315 1
273 331 1
273 379 1
273 412 1
273 428 1
273 476 1
274 212 1
274 228 1
274 276 1
274 318 1
274 334 1
274 382 1
274 403 1
274 419 1
274 467 1
275 214 1
275 230 1
275 278 1
275 319 1
275 335 1
275 383 1
275 414 1
275 430 1
275 478 1
276 215 1
276 231 1
276 279 1
276 309 1
276 325 1
276 373 1
276 406 1
276 422 1
276 470 1
277 216 1
277 232 1
277 280 1
277 308 1
277 324 1
277 372 1
277 416 1
277 432 1
277 480 1
278 217 1
278 233 1
278 281 1
278 320 1
278 336 1
278 384 1
278 405 1
278 421 1
278 469 1
279 209 1
279 225 1
279 273 1
279 312 1
279 328 1
279 376 1
279 409 1
279 425 1
279 473 1
280 219 1
280 235 1
280 283 1
280 311 1
280 327 1
280 375 1
280 410 1
280 426 1
280 474 1
281 220 1
281 236 1
281 284 1
281 314 1
281 330 1
281 378 1
281 408 1
281 424 1
281 472 1
282 221 1
282 237 1
282 285 1
282 313 1
282 329 1
282 377 1
282 407 1
282 423 1
282 471 1
283 222 1
283 238 1
283 286 1
283 305 1
283 321 1
283 369 1
283 413 1
283 429 1
283 477 1
284 211 1
284 227 1
284 275 1
284 317 1
284 333 1
284 381 1
284 411 1
284 427 1
284 475 1
285 223 1
285 239 1
285 287 1
285 316 1
285 332 1
285 380 1
285 401 1
285 417 1
285 465 1
286 213 1
286 229 1
286 277 1
286 306 1
286 322 1
286 370 1
286 415 1
286 431 1
286 479 1
287 224 1
287 240 1
287 288 1
287 307 1
287 323 1
287 371 1
287 402 1
287 418 1
287 466 1
288 218 1
288 234 1
288 282 1
288 310 1
288 326 1
288 374 1
288 404 1
288 420 1
288 468 1
