%%MatrixMarket matrix coordinate integer general
144 288 1296
1 1 1
1 10 1
1 28 1
1 145 1
1 154 1
1 172 1
1 193 1
1 202 1
1 220 1
2 2 1
2 9 1
2 30 1
2 146 1
2 153 1
2 174 1
2 194 1
2 201 1
2 222 1
3 3 1
3 16 1
3 31 1
3 147 1
3 160 1
3 175 1
3 195 1
3 208 1
3 223 1
4 4 1
4 14 1
4 25 1
4 148 1
4 158 1
4 169 1
4 196 1
4 206 1
4 217 1
5 5 1
5 15 1
5 32 1
5 149 1
5 159 1
5 176 1
5 197 1
5 207 1
5 224 1
6 6 1
6 12 1
6 26 1
6 150 1
6 156 1
6 170 1
6 198 1
6 204 1
6 218 1
7 7 1
7 13 1
7 27 1
7 151 1
7 157 1
7 171 1
7 199 1
7 205 1
7 219 1
8 8 1
8 11 1
8 29 1
8 152 1
8 155 1
8 173 1
8 200 1
8 203 1
8 221 1
9 1 1
9 18 1
9 40 1
9 145 1
9 162 1
9 184 1
9 193 1
9 210 1
9 232 1
10 2 1
10 17 1
10 39 1
10 146 1
10 161 1
10 183 1
10 194 1
10 209 1
10 231 1
11 3 1
11 24 1
11 34 1
11 147 1
11 168 1
11 178 1
11 195 1
11 216 1
11 226 1
12 4 1
12 22 1
12 37 1
12 148 1
12 166 1
12 181 1
12 196 1
12 214 1
12 229 1
13 5 1
13 23 1
13 33 1
13 149 1
13 167 1
13 177 1
13 197 1
13 215 1
13 225 1
14 6 1
14 20 1
14 35 1
14 150 1
14 164 1
14 179 1
14 198 1
14 212 1
14 227 1
15 7 1
15 21 1
15 38 1
15 151 1
15 165 1
15 182 1
15 199 1
15 213 1
15 230 1
16 8 1
16 19 1
16 36 1
16 152 1
16 163 1
16 180 1
16 200 1
16 211 1
16 228 1
17 10 1
17 40 1
17 47 1
17 154 1
17 184 1
17 191 1
17 202 1
17 232 1
17 239 1
18 9 1
18 39 1
18 48 1
18 153 1
18 183 1
18 192 1
18 201 1
18 231 1
18 240 1
19 16 1
19 34 1
19 44 1
19 160 1
19 178 1
19 188 1
19 208 1
19 226 1
19 236 1
20 14 1
20 37 1
20 43 1
20 158 1
20 181 1
20 187 1
20 206 1
20 229 1
20 235 1
21 15 1
21 33 1
21 46 1
21 159 1
21 177 1
21 190 1
21 207 1
21 225 1
21 238 1
22 12 1
22 35 1
22 45 1
22 156 1
22 179 1
22 189 1
22 204 1
22 227 1
22 237 1
23 13 1
23 38 1
23 41 1
23 157 1
23 182 1
23 185 1
23 205 1
23 230 1
23 233 1
24 11 1
24 36 1
24 42 1
24 155 1
24 180 1
24 186 1
24 203 1
24 228 1
24 234 1
25 49 1
25 58 1
25 76 1
25 145 1
25 154 1
25 172 1
25 241 1
25 250 1
25 268 1
26 50 1
26 57 1
26 78 1
26 146 1
26 153 1
26 174 1
26 242 1
26 249 1
26 270 1
27 51 1
27 64 1
27 79 1
27 147 1
27 160 1
27 175 1
27 243 1
27 256 1
27 271 1
28 52 1
28 62 1
28 73 1
28 148 1
28 158 1
28 169 1
28 244 1
28 254 1
28 265 1
29 53 1
29 63 1
29 80 1
29 149 1
29 159 1
29 176 1
29 245 1
29 255 1
29 272 1
30 54 1
30 60 1
30 74 1
30 150 1
30 156 1
30 170 1
30 246 1
30 252 1
30 266 1
31 55 1
31 61 1
31 75 1
31 151 1
31 157 1
31 171 1
31 247 1
31 253 1
31 267 1
32 56 1
32 59 1
32 77 1
32 152 1
32 155 1
32 173 1
32 248 1
32 251 1
32 269 1
33 49 1
33 66 1
33 88 1
33 145 1
33 162 1
33 184 1
33 241 1
33 258 1
33 280 1
34 50 1
34 65 1
34 87 1
34 146 1
34 161 1
34 183 1
34 242 1
34 257 1
34 279 1
35 51 1
35 72 1
35 82 1
35 147 1
35 168 1
35 178 1
35 243 1
35 264 1
35 274 1
36 52 1
36 70 1
36 85 1
36 148 1
36 166 1
36 181 1
36 244 1
36 262 1
36 277 1
37 53 1
37 71 1
37 81 1
37 149 1
37 167 1
37 177 1
37 245 1
37 263 1
37 273 1
38 54 1
38 68 1
38 83 1
38 150 1
38 164 1
38 179 1
38 246 1
38 260 1
38 275 1
39 55 1
39 69 1
39 86 1
39 151 1
39 165 1
39 182 1
39 247 1
39 261 1
39 278 1
40 56 1
40 67 1
40 84 1
40 152 1
40 163 1
40 180 1
40 248 1
40 259 1
40 276 1
41 58 1
41 88 1
41 95 1
41 154 1
41 184 1
41 191 1
41 250 1
41 280 1
41 287 1
42 57 1
42 87 1
42 96 1
42 153 1
42 183 1
42 192 1
42 249 1
42 279 1
42 288 1
43 64 1
43 82 1
43 92 1
43 160 1
43 178 1
43 188 1
43 256 1
43 274 1
43 284 1
44 62 1
44 85 1
44 91 1
44 158 1
44 181 1
44 187 1
44 254 1
44 277 1
44 283 1
45 63 1
45 81 1
45 94 1
45 159 1
45 177 1
45 190 1
45 255 1
45 273 1
45 286 1
46 60 1
46 83 1
46 93 1
46 156 1
46 179 1
46 189 1
46 252 1
46 275 1
46 285 1
47 61 1
47 86 1
47 89 1
47 157 1
47 182 1
47 185 1
47 253 1
47 278 1
47 281 1
48 59 1
48 84 1
48 90 1
48 155 1
48 180 1
48 186 1
48 251 1
48 276 1
48 282 1
49 97 1
49 106 1
49 124 1
49 193 1
49 202 1
49 220 1
49 241 1
49 250 1
49 268 1
50 98 1
50 105 1
50 126 1
50 194 1
50 201 1
50 222 1
50 242 1
50 249 1
50 270 1
51 99 1
51 112 1
51 127 1
51 195 1
51 208 1
51 223 1
51 243 1
51 256 1
51 271 1
52 100 1
52 110 1
52 121 1
52 196 1
52 206 1
52 217 1
52 244 1
52 254 1
52 265 1
53 101 1
53 111 1
53 128 1
53 197 1
53 207 1
53 224 1
53 245 1
53 255 1
53 272 1
54 102 1
54 108 1
54 122 1
54 198 1
54 204 1
54 218 1
54 246 1
54 252 1
54 266 1
55 103 1
55 109 1
55 123 1
55 199 1
55 205 1
55 219 1
55 247 1
55 253 1
55 267 1
56 104 1
56 107 1
56 125 1
56 200 1
56 203 1
56 221 1
56 248 1
56 251 1
56 269 1
57 97 1
57 114 1
57 136 1
57 193 1
57 210 1
57 232 1
57 241 1
57 258 1
57 280 1
58 98 1
58 113 1
58 135 1
58 194 1
58 209 1
58 231 1
58 242 1
58 257 1
58 279 1
59 99 1
59 120 1
59 130 1
59 195 1
59 216 1
59 226 1
59 243 1
59 264 1
59 274 1
60 100 1
60 118 1
60 133 1
60 196 1
60 214 1
60 229 1
60 244 1
60 262 1
60 277 1
61 101 1
61 119 1
61 129 1
61 197 1
61 215 1
61 225 1
61 245 1
61 263 1
61 273 1
62 102 1
62 116 1
62 131 1
62 198 1
62 212 1
62 227 1
62 246 1
62 260 1
62 275 1
63 103 1
63 117 1
63 134 1
63 199 1
63 213 1
63 230 1
63 247 1
63 261 1
63 278 1
64 104 1
64 115 1
64 132 1
64 200 1
64 211 1
64 228 1
64 248 1
64 259 1
64 276 1
65 106 1
65 136 1
65 143 1
65 202 1
65 232 1
65 239 1
65 250 1
65 280 1
65 287 1
66 105 1
66 135 1
66 144 1
66 201 1
66 231 1
66 240 1
66 249 1
66 279 1
66 288 1
67 112 1
67 130 1
67 140 1
67 208 1
67 226 1
67 236 1
67 256 1
67 274 1
67 284 1
68 110 1
68 133 1
68 139 1
68 206 1
68 229 1
68 235 1
68 254 1
68 277 1
68 283 1
69 111 1
69 129 1
69 142 1
69 207 1
69 225 1
69 238 1
69 255 1
69 273 1
69 286 1
70 108 1
70 131 1
70 141 1
70 204 1
70 227 1
70 237 1
70 252 1
70 275 1
70 285 1
71 109 1
71 134 1
71 137 1
71 205 1
71 230 1
71 233 1
71 253 1
71 278 1
71 281 1
72 107 1
72 132 1
72 138 1
72 203 1
72 228 1
72 234 1
72 251 1
72 276 1
72 282 1
73 1 1
73 9 1
73 25 1
73 148 1
73 156 1
73 172 1
73 248 1
73 256 1
73 272 1
74 2 1
74 10 1
74 26 1
74 150 1
74 158 1
74 174 1
74 243 1
74 251 1
74 267 1
75 3 1
75 11 1
75 27 1
75 151 1
75 159 1
75 175 1
75 246 1
75 254 1
75 270 1
76 4 1
76 12 1
76 28 1
76 145 1
76 153 1
76 169 1
76 245 1
76 253 1
76 269 1
77 5 1
77 13 1
77 29 1
77 152 1
77 160 1
77 176 1
77 241 1
77 249 1
77 265 1
78 6 1
78 14 1
78 30 1
78 146 1
78 154 1
78 170 1
78 247 1
78 255 1
78 271 1
79 7 1
79 15 1
79 31 1
79 147 1
79 155 1
79 171 1
79 242 1
79 250 1
79 266 1
80 8 1
80 16 1
80 32 1
80 149 1
80 157 1
80 173 1
80 244 1
80 252 1
80 268 1
81 1 1
81 17 1
81 33 1
81 148 1
81 164 1
81 180 1
81 248 1
81 264 1
81 280 1
82 2 1
82 18 1
82 34 1
82 150 1
82 166 1
82 182 1
82 243 1
82 259 1
82 275 1
83 3 1
83 19 1
83 35 1
83 151 1
83 167 1
83 183 1
83 246 1
83 262 1
83 278 1
84 4 1
84 20 1
84 36 1
84 145 1
84 161 1
84 177 1
84 245 1
84 261 1
84 277 1
85 5 1
85 21 1
85 37 1
85 152 1
85 168 1
85 184 1
85 241 1
85 257 1
85 273 1
86 6 1
86 22 1
86 38 1
86 146 1
86 162 1
86 178 1
86 247 1
86 263 1
86 279 1
87 7 1
87 23 1
87 39 1
87 147 1
87 163 1
87 179 1
87 242 1
87 258 1
87 274 1
88 8 1
88 24 1
88 40 1
88 149 1
88 165 1
88 181 1
88 244 1
88 260 1
88 276 1
89 9 1
89 17 1
89 41 1
89 156 1
89 164 1
89 188 1
89 256 1
89 264 1
89 288 1
90 10 1
90 18 1
90 42 1
90 158 1
90 166 1
90 190 1
90 251 1
90 259 1
90 283 1
91 11 1
91 19 1
91 43 1
91 159 1
91 167 1
91 191 1
91 254 1
91 262 1
91 286 1
92 12 1
92 20 1
92 44 1
92 153 1
92 161 1
92 185 1
92 253 1
92 261 1
92 285 1
93 13 1
93 21 1
93 45 1
93 160 1
93 168 1
93 192 1
93 249 1
93 257 1
93 281 1
94 14 1
94 22 1
94 46 1
94 154 1
94 162 1
94 186 1
94 255 1
94 263 1
94 287 1
95 15 1
95 23 1
95 47 1
95 155 1
95 163 1
95 187 1
95 250 1
95 258 1
95 282 1
96 16 1
96 24 1
96 48 1
96 157 1
96 165 1
96 189 1
96 252 1
96 260 1
96 284 1
97 51 1
97 59 1
97 75 1
97 148 1
97 156 1
97 172 1
97 197 1
97 205 1
97 221 1
98 56 1
98 64 1
98 80 1
98 150 1
98 158 1
98 174 1
98 199 1
98 207 1
98 223 1
99 49 1
99 57 1
99 73 1
99 151 1
99 159 1
99 175 1
99 194 1
99 202 1
99 218 1
100 55 1
100 63 1
100 79 1
100 145 1
100 153 1
100 169 1
100 200 1
100 208 1
100 224 1
101 54 1
101 62 1
101 78 1
101 152 1
101 160 1
101 176 1
101 196 1
101 204 1
101 220 1
102 53 1
102 61 1
102 77 1
102 146 1
102 154 1
102 170 1
102 195 1
102 203 1
102 219 1
103 52 1
103 60 1
103 76 1
103 147 1
103 155 1
103 171 1
103 198 1
103 206 1
103 222 1
104 50 1
104 58 1
104 74 1
104 149 1
104 157 1
104 173 1
104 193 1
104 201 1
104 217 1
105 51 1
105 67 1
105 83 1
105 148 1
105 164 1
105 180 1
105 197 1
105 213 1
105 229 1
106 56 1
106 72 1
106 88 1
106 150 1
106 166 1
106 182 1
106 199 1
106 215 1
106 231 1
107 49 1
107 65 1
107 81 1
107 151 1
107 167 1
107 183 1
107 194 1
107 210 1
107 226 1
108 55 1
108 71 1
108 87 1
108 145 1
108 161 1
108 177 1
108 200 1
108 216 1
108 232 1
109 54 1
109 70 1
109 86 1
109 152 1
109 168 1
109 184 1
109 196 1
109 212 1
109 228 1
110 53 1
110 69 1
110 85 1
110 146 1
110 162 1
110 178 1
110 195 1
110 211 1
110 227 1
111 52 1
111 68 1
111 84 1
111 147 1
111 163 1
111 179 1
111 198 1
111 214 1
111 230 1
112 50 1
112 66 1
112 82 1
112 149 1
112 165 1
112 181 1
112 193 1
112 209 1
112 225 1
113 59 1
113 67 1
113 91 1
113 156 1
113 164 1
113 188 1
113 205 1
113 213 1
113 237 1
114 64 1
114 72 1
114 96 1
114 158 1
114 166 1
114 190 1
114 207 1
114 215 1
114 239 1
115 57 1
115 65 1
115 89 1
115 159 1
115 167 1
115 191 1
115 202 1
115 210 1
115 234 1
116 63 1
116 71 1
116 95 1
116 153 1
116 161 1
116 185 1
116 208 1
116 216 1
116 240 1
117 62 1
117 70 1
117 94 1
117 160 1
117 168 1
117 192 1
117 204 1
117 212 1
117 236 1
118 61 1
118 69 1
118 93 1
118 154 1
118 162 1
118 186 1
118 203 1
118 211 1
118 235 1
119 60 1
119 68 1
119 92 1
119 155 1
119 163 1
119 187 1
119 206 1
119 214 1
119 238 1
120 58 1
120 66 1
120 90 1
120 157 1
120 165 1
120 189 1
120 201 1
120 209 1
120 233 1
121 100 1
121 108 1
121 124 1
121 197 1
121 205 1
121 221 1
121 248 1
121 256 1
121 272 1
122 102 1
122 110 1
122 126 1
122 199 1
122 207 1
122 223 1
122 243 1
122 251 1
122 267 1
123 103 1
123 111 1
123 127 1
123 194 1
123 202 1
123 218 1
123 246 1
123 254 1
123 270 1
124 97 1
124 105 1
124 121 1
124 200 1
124 208 1
124 224 1
124 245 1
124 253 1
124 269 1
125 104 1
125 112 1
125 128 1
125 196 1
125 204 1
125 220 1
125 241 1
125 249 1
125 265 1
126 98 1
126 106 1
126 122 1
126 195 1
126 203 1
126 219 1
126 247 1
126 255 1
126 271 1
127 99 1
127 107 1
127 123 1
127 198 1
127 206 1
127 222 1
127 242 1
127 250 1
127 266 1
128 101 1
128 109 1
128 125 1
128 193 1
128 201 1
128 217 1
128 244 1
128 252 1
128 268 1
129 100 1
129 116 1
129 132 1
129 197 1
129 213 1
129 229 1
129 248 1
129 264 1
129 280 1
130 102 1
130 118 1
130 134 1
130 199 1
130 215 1
130 231 1
130 243 1
130 259 1
130 275 1
131 103 1
131 119 1
131 135 1
131 194 1
131 210 1
131 226 1
131 246 1
131 262 1
131 278 1
132 97 1
132 113 1
132 129 1
132 200 1
132 216 1
132 232 1
132 245 1
132 261 1
132 277 1
133 104 1
133 120 1
133 136 1
133 196 1
133 212 1
133 228 1
133 241 1
133 257 1
133 273 1
134 98 1
134 114 1
134 130 1
134 195 1
134 211 1
134 227 1
134 247 1
134 263 1
134 279 1
135 99 1
135 115 1
135 131 1
135 198 1
135 214 1
135 230 1
135 242 1
135 258 1
135 274 1
136 101 1
136 117 1
136 133 1
136 193 1
136 209 1
136 225 1
136 244 1
136 260 1
136 276 1
137 108 1
137 116 1
137 140 1
137 205 1
137 213 1
137 237 1
137 256 1
137 264 1
137 288 1
138 110 1
138 118 1
138 142 1
138 207 1
138 215 1
138 239 1
138 251 1
138 259 1
138 283 1
139 111 1
139 119 1
139 143 1
139 202 1
139 210 1
139 234 1
139 254 1
139 262 1
139 286 1
140 105 1
140 113 1
140 137 1
140 208 1
140 216 1
140 240 1
140 253 1
140 261 1
140 285 1
141 112 1
141 120 1
141 144 1
141 204 1
141 212 1
141 236 1
141 249 1
141 257 1
141 281 1
142 106 1
142 114 1
142 138 1
142 203 1
142 211 1
142 235 1
142 255 1
142 263 1
142 287 1
143 107 1
143 115 1
143 139 1
143 206 1
143 214 1
143 238 1
143 250 1
143 258 1
143 282 1
144 109 1
144 117 1
144 141 1
144 201 1
144 209 1
144 233 1
144 252 1
144 260 1
144 284 1
