%%MatrixMarket matrix coordinate integer general
288 576 2592
1 1 1
1 49 1
1 65 1
1 97 1
1 145 1
1 161 1
1 289 1
1 337 1
1 353 1
2 2 1
2 50 1
2 66 1
2 98 1
2 146 1
2 162 1
2 290 1
2 338 1
2 354 1
3 3 1
3 51 1
3 67 1
3 99 1
3 147 1
3 163 1
3 291 1
3 339 1
3 355 1
4 4 1
4 52 1
4 68 1
4 100 1
4 148 1
4 164 1
4 292 1
4 340 1
4 356 1
5 5 1
5 53 1
5 69 1
5 101 1
5 149 1
5 165 1
5 293 1
5 341 1
5 357 1
6 6 1
6 54 1
6 70 1
6 102 1
6 150 1
6 166 1
6 294 1
6 342 1
6 358 1
7 7 1
7 55 1
7 71 1
7 103 1
7 151 1
7 167 1
7 295 1
7 343 1
7 359 1
8 8 1
8 56 1
8 72 1
8 104 1
8 152 1
8 168 1
8 296 1
8 344 1
8 360 1
9 9 1
9 57 1
9 73 1
9 105 1
9 153 1
9 169 1
9 297 1
9 345 1
9 361 1
10 10 1
10 58 1
10 74 1
10 106 1
10 154 1
10 170 1
10 298 1
10 346 1
10 362 1
11 11 1
11 59 1
11 75 1
11 107 1
11 155 1
11 171 1
11 299 1
11 347 1
11 363 1
12 12 1
12 60 1
12 76 1
12 108 1
12 156 1
12 172 1
12 300 1
12 348 1
12 364 1
13 13 1
13 61 1
13 77 1
13 109 1
13 157 1
13 173 1
13 301 1
13 349 1
13 365 1
14 14 1
14 62 1
14 78 1
14 110 1
14 158 1
14 174 1
14 302 1
14 350 1
14 366 1
15 15 1
15 63 1
15 79 1
15 111 1
15 159 1
15 175 1
15 303 1
15 351 1
15 367 1
16 16 1
16 64 1
16 80 1
16 112 1
16 160 1
16 176 1
16 304 1
16 352 1
16 368 1
17 17 1
17 49 1
17 81 1
17 113 1
17 145 1
17 177 1
17 305 1
17 337 1
17 369 1
18 18 1
18 50 1
18 82 1
18 114 1
18 146 1
18 178 1
18 306 1
18 338 1
18 370 1
19 19 1
19 51 1
19 83 1
19 115 1
19 147 1
19 179 1
19 307 1
19 339 1
19 371 1
20 20 1
20 52 1
20 84 1
20 116 1
20 148 1
20 180 1
20 308 1
20 340 1
20 372 1
21 21 1
21 53 1
21 85 1
21 117 1
21 149 1
21 181 1
21 309 1
21 341 1
21 373 1
22 22 1
22 54 1
22 86 1
22 118 1
22 150 1
22 182 1
22 310 1
22 342 1
22 374 1
23 23 1
23 55 1
23 87 1
23 119 1
23 151 1
23 183 1
23 311 1
23 343 1
23 375 1
24 24 1
24 56 1
24 88 1
24 120 1
24 152 1
24 184 1
24 312 1
24 344 1
24 376 1
25 25 1
25 57 1
25 89 1
25 121 1
25 153 1
25 185 1
25 313 1
25 345 1
25 377 1
26 26 1
26 58 1
26 90 1
26 122 1
26 154 1
26 186 1
26 314 1
26 346 1
26 378 1
27 27 1
27 59 1
27 91 1
27 123 1
27 155 1
27 187 1
27 315 1
27 347 1
27 379 1
28 28 1
28 60 1
28 92 1
28 124 1
28 156 1
28 188 1
28 316 1
28 348 1
28 380 1
29 29 1
29 61 1
29 93 1
29 125 1
29 157 1
29 189 1
29 317 1
29 349 1
29 381 1
30 30 1
30 62 1
30 94 1
30 126 1
30 158 1
30 190 1
30 318 1
30 350 1
30 382 1
31 31 1
31 63 1
31 95 1
31 127 1
31 159 1
31 191 1
31 319 1
31 351 1
31 383 1
32 32 1
32 64 1
32 96 1
32 128 1
32 160 1
32 192 1
32 320 1
32 352 1
32 384 1
33 33 1
33 65 1
33 81 1
33 129 1
33 161 1
33 177 1
33 321 1
33 353 1
33 369 1
34 34 1
34 66 1
34 82 1
34 130 1
34 162 1
34 178 1
34 322 1
34 354 1
34 370 1
35 35 1
35 67 1
35 83 1
35 131 1
35 163 1
35 179 1
35 323 1
35 355 1
35 371 1
36 36 1
36 68 1
36 84 1
36 132 1
36 164 1
36 180 1
36 324 1
36 356 1
36 372 1
37 37 1
37 69 1
37 85 1
37 133 1
37 165 1
37 181 1
37 325 1
37 357 1
37 373 1
38 38 1
38 70 1
38 86 1
38 134 1
38 166 1
38 182 1
38 326 1
38 358 1
38 374 1
39 39 1
39 71 1
39 87 1
39 135 1
39 167 1
39 183 1
39 327 1
39 359 1
39 375 1
40 40 1
40 72 1
40 88 1
40 136 1
40 168 1
40 184 1
40 328 1
40 360 1
40 376 1
41 41 1
41 73 1
41 89 1
41 137 1
41 169 1
41 185 1
41 329 1
41 361 1
41 377 1
42 42 1
42 74 1
42 90 1
42 138 1
42 170 1
42 186 1
42 330 1
42 362 1
42 378 1
43 43 1
43 75 1
43 91 1
43 139 1
43 171 1
43 187 1
43 331 1
43 363 1
43 379 1
44 44 1
44 76 1
44 92 1
44 140 1
44 172 1
44 188 1
44 332 1
44 364 1
44 380 1
45 45 1
45 77 1
45 93 1
45 141 1
45 173 1
45 189 1
45 333 1
45 365 1
45 381 1
46 46 1
46 78 1
46 94 1
46 142 1
46 174 1
46 190 1
46 334 1
46 366 1
46 382 1
47 47 1
47 79 1
47 95 1
47 143 1
47 175 1
47 191 1
47 335 1
47 367 1
47 383 1
48 48 1
48 80 1
48 96 1
48 144 1
48 176 1
48 192 1
48 336 1
48 368 1
48 384 1
49 1 1
49 49 1
49 65 1
49 193 1
49 241 1
49 257 1
49 385 1
49 433 1
49 449 1
50 2 1
50 50 1
50 66 1
50 194 1
50 242 1
50 258 1
50 386 1
50 434 1
50 450 1
51 3 1
51 51 1
51 67 1
51 195 1
51 243 1
51 259 1
51 387 1
51 435 1
51 451 1
52 4 1
52 52 1
52 68 1
52 196 1
52 244 1
52 260 1
52 388 1
52 436 1
52 452 1
53 5 1
53 53 1
53 69 1
53 197 1
53 245 1
53 261 1
53 389 1
53 437 1
53 453 1
54 6 1
54 54 1
54 70 1
54 198 1
54 246 1
54 262 1
54 390 1
54 438 1
54 454 1
55 7 1
55 55 1
55 71 1
55 199 1
55 247 1
55 263 1
55 391 1
55 439 1
55 455 1
56 8 1
56 56 1
56 72 1
56 200 1
56 248 1
56 264 1
56 392 1
56 440 1
56 456 1
57 9 1
57 57 1
57 73 1
57 201 1
57 249 1
57 265 1
57 393 1
57 441 1
57 457 1
58 10 1
58 58 1
58 74 1
58 202 1
58 250 1
58 266 1
58 394 1
58 442 1
58 458 1
59 11 1
59 59 1
59 75 1
59 203 1
59 251 1
59 267 1
59 395 1
59 443 1
59 459 1
60 12 1
60 60 1
60 76 1
60 204 1
60 252 1
60 268 1
60 396 1
60 444 1
60 460 1
61 13 1
61 61 1
61 77 1
61 205 1
61 253 1
61 269 1
61 397 1
61 445 1
61 461 1
62 14 1
62 62 1
62 78 1
62 206 1
62 254 1
62 270 1
62 398 1
62 446 1
62 462 1
63 15 1
63 63 1
63 79 1
63 207 1
63 255 1
63 271 1
63 399 1
63 447 1
63 463 1
64 16 1
64 64 1
64 80 1
64 208 1
64 256 1
64 272 1
64 400 1
64 448 1
64 464 1
65 17 1
65 49 1
65 81 1
65 209 1
65 241 1
65 273 1
65 401 1
65 433 1
65 465 1
66 18 1
66 50 1
66 82 1
66 210 1
66 242 1
66 274 1
66 402 1
66 434 1
66 466 1
67 19 1
67 51 1
67 83 1
67 211 1
67 243 1
67 275 1
67 403 1
67 435 1
67 467 1
68 20 1
68 52 1
68 84 1
68 212 1
68 244 1
68 276 1
68 404 1
68 436 1
68 468 1
69 21 1
69 53 1
69 85 1
69 213 1
69 245 1
69 277 1
69 405 1
69 437 1
69 469 1
70 22 1
70 54 1
70 86 1
70 214 1
70 246 1
70 278 1
70 406 1
70 438 1
70 470 1
71 23 1
71 55 1
71 87 1
71 215 1
71 247 1
71 279 1
71 407 1
71 439 1
71 471 1
72 24 1
72 56 1
72 88 1
72 216 1
72 248 1
72 280 1
72 408 1
72 440 1
72 472 1
73 25 1
73 57 1
73 89 1
73 217 1
73 249 1
73 281 1
73 409 1
73 441 1
73 473 1
74 26 1
74 58 1
74 90 1
74 218 1
74 250 1
74 282 1
74 410 1
74 442 1
74 474 1
75 27 1
75 59 1
75 91 1
75 219 1
75 251 1
75 283 1
75 411 1
75 443 1
75 475 1
76 28 1
76 60 1
76 92 1
76 220 1
76 252 1
76 284 1
76 412 1
76 444 1
76 476 1
77 29 1
77 61 1
77 93 1
77 221 1
77 253 1
77 285 1
77 413 1
77 445 1
77 477 1
78 30 1
78 62 1
78 94 1
78 222 1
78 254 1
78 286 1
78 414 1
78 446 1
78 478 1
79 31 1
79 63 1
79 95 1
79 223 1
79 255 1
79 287 1
79 415 1
79 447 1
79 479 1
80 32 1
80 64 1
80 96 1
80 224 1
80 256 1
80 288 1
80 416 1
80 448 1
80 480 1
81 33 1
81 65 1
81 81 1
81 225 1
81 257 1
81 273 1
81 417 1
81 449 1
81 465 1
82 34 1
82 66 1
82 82 1
82 226 1
82 258 1
82 274 1
82 418 1
82 450 1
82 466 1
83 35 1
83 67 1
83 83 1
83 227 1
83 259 1
83 275 1
83 419 1
83 451 1
83 467 1
84 36 1
84 68 1
84 84 1
84 228 1
84 260 1
84 276 1
84 420 1
84 452 1
84 468 1
85 37 1
85 69 1
85 85 1
85 229 1
85 261 1
85 277 1
85 421 1
85 453 1
85 469 1
86 38 1
86 70 1
86 86 1
86 230 1
86 262 1
86 278 1
86 422 1
86 454 1
86 470 1
87 39 1
87 71 1
87 87 1
87 231 1
87 263 1
87 279 1
87 423 1
87 455 1
87 471 1
88 40 1
88 72 1
88 88 1
88 232 1
88 264 1
88 280 1
88 424 1
88 456 1
88 472 1
89 41 1
89 73 1
89 89 1
89 233 1
89 265 1
89 281 1
89 425 1
89 457 1
89 473 1
90 42 1
90 74 1
90 90 1
90 234 1
90 266 1
90 282 1
90 426 1
90 458 1
90 474 1
91 43 1
91 75 1
91 91 1
91 235 1
91 267 1
91 283 1
91 427 1
91 459 1
91 475 1
92 44 1
92 76 1
92 92 1
92 236 1
92 268 1
92 284 1
92 428 1
92 460 1
92 476 1
93 45 1
93 77 1
93 93 1
93 237 1
93 269 1
93 285 1
93 429 1
93 461 1
93 477 1
94 46 1
94 78 1
94 94 1
94 238 1
94 270 1
94 286 1
94 430 1
94 462 1
94 478 1
95 47 1
95 79 1
95 95 1
95 239 1
95 271 1
95 287 1
95 431 1
95 463 1
95 479 1
96 48 1
96 80 1
96 96 1
96 240 1
96 272 1
96 288 1
96 432 1
96 464 1
96 480 1
97 97 1
97 145 1
97 161 1
97 193 1
97 241 1
97 257 1
97 481 1
97 529 1
97 545 1
98 98 1
98 146 1
98 162 1
98 194 1
98 242 1
98 258 1
98 482 1
98 530 1
98 546 1
99 99 1
99 147 1
99 163 1
99 195 1
99 243 1
99 259 1
99 483 1
99 531 1
99 547 1
100 100 1
100 148 1
100 164 1
100 196 1
100 244 1
100 260 1
100 484 1
100 532 1
100 548 1
101 101 1
101 149 1
101 165 1
101 197 1
101 245 1
101 261 1
101 485 1
101 533 1
101 549 1
102 102 1
102 150 1
102 166 1
102 198 1
102 246 1
102 262 1
102 486 1
102 534 1
102 550 1
103 103 1
103 151 1
103 167 1
103 199 1
103 247 1
103 263 1
103 487 1
103 535 1
103 551 1
104 104 1
104 152 1
104 168 1
104 200 1
104 248 1
104 264 1
104 488 1
104 536 1
104 552 1
105 105 1
105 153 1
105 169 1
105 201 1
105 249 1
105 265 1
105 489 1
105 537 1
105 553 1
106 106 1
106 154 1
106 170 1
106 202 1
106 250 1
106 266 1
106 490 1
106 538 1
106 554 1
107 107 1
107 155 1
107 171 1
107 203 1
107 251 1
107 267 1
107 491 1
107 539 1
107 555 1
108 108 1
108 156 1
108 172 1
108 204 1
108 252 1
108 268 1
108 492 1
108 540 1
108 556 1
109 109 1
109 157 1
109 173 1
109 205 1
109 253 1
109 269 1
109 493 1
109 541 1
109 557 1
110 110 1
110 158 1
110 174 1
110 206 1
110 254 1
110 270 1
110 494 1
110 542 1
110 558 1
111 111 1
111 159 1
111 175 1
111 207 1
111 255 1
111 271 1
111 495 1
111 543 1
111 559 1
112 112 1
112 160 1
112 176 1
112 208 1
112 256 1
112 272 1
112 496 1
112 544 1
112 560 1
113 113 1
113 145 1
113 177 1
113 209 1
113 241 1
113 273 1
113 497 1
113 529 1
113 561 1
114 114 1
114 146 1
114 178 1
114 210 1
114 242 1
114 274 1
114 498 1
114 530 1
114 562 1
115 115 1
115 147 1
115 179 1
115 211 1
115 243 1
115 275 1
115 499 1
115 531 1
115 563 1
116 116 1
116 148 1
116 180 1
116 212 1
116 244 1
116 276 1
116 500 1
116 532 1
116 564 1
117 117 1
117 149 1
117 181 1
117 213 1
117 245 1
117 277 1
117 501 1
117 533 1
117 565 1
118 118 1
118 150 1
118 182 1
118 214 1
118 246 1
118 278 1
118 502 1
118 534 1
118 566 1
119 119 1
119 151 1
119 183 1
119 215 1
119 247 1
119 279 1
119 503 1
119 535 1
119 567 1
120 120 1
120 152 1
120 184 1
120 216 1
120 248 1
120 280 1
120 504 1
120 536 1
120 568 1
121 121 1
121 153 1
121 185 1
121 217 1
121 249 1
121 281 1
121 505 1
121 537 1
121 569 1
122 122 1
122 154 1
122 186 1
122 218 1
122 250 1
122 282 1
122 506 1
122 538 1
122 570 1
123 123 1
123 155 1
123 187 1
123 219 1
123 251 1
123 283 1
123 507 1
123 539 1
123 571 1
124 124 1
124 156 1
124 188 1
124 220 1
124 252 1
124 284 1
124 508 1
124 540 1
124 572 1
125 125 1
125 157 1
125 189 1
125 221 1
125 253 1
125 285 1
125 509 1
125 541 1
125 573 1
126 126 1
126 158 1
126 190 1
126 222 1
126 254 1
126 286 1
126 510 1
126 542 1
126 574 1
127 127 1
127 159 1
127 191 1
127 223 1
127 255 1
127 287 1
127 511 1
127 543 1
127 575 1
128 128 1
128 160 1
128 192 1
128 224 1
128 256 1
128 288 1
128 512 1
128 544 1
128 576 1
129 129 1
129 161 1
129 177 1
129 225 1
129 257 1
129 273 1
129 513 1
129 545 1
129 561 1
130 130 1
130 162 1
130 178 1
130 226 1
130 258 1
130 274 1
130 514 1
130 546 1
130 562 1
131 131 1
131 163 1
131 179 1
131 227 1
131 259 1
131 275 1
131 515 1
131 547 1
131 563 1
132 132 1
132 164 1
132 180 1
132 228 1
132 260 1
132 276 1
132 516 1
132 548 1
132 564 1
133 133 1
133 165 1
133 181 1
133 229 1
133 261 1
133 277 1
133 517 1
133 549 1
133 565 1
134 134 1
134 166 1
134 182 1
134 230 1
134 262 1
134 278 1
134 518 1
134 550 1
134 566 1
135 135 1
135 167 1
135 183 1
135 231 1
135 263 1
135 279 1
135 519 1
135 551 1
135 567 1
136 136 1
136 168 1
136 184 1
136 232 1
136 264 1
136 280 1
136 520 1
136 552 1
136 568 1
137 137 1
137 169 1
137 185 1
137 233 1
137 265 1
137 281 1
137 521 1
137 553 1
137 569 1
138 138 1
138 170 1
138 186 1
138 234 1
138 266 1
138 282 1
138 522 1
138 554 1
138 570 1
139 139 1
139 171 1
139 187 1
139 235 1
139 267 1
139 283 1
139 523 1
139 555 1
139 571 1
140 140 1
140 172 1
140 188 1
140 236 1
140 268 1
140 284 1
140 524 1
140 556 1
140 572 1
141 141 1
141 173 1
141 189 1
141 237 1
141 269 1
141 285 1
141 525 1
141 557 1
141 573 1
142 142 1
142 174 1
142 190 1
142 238 1
142 270 1
142 286 1
142 526 1
142 558 1
142 574 1
143 143 1
143 175 1
143 191 1
143 239 1
143 271 1
143 287 1
143 527 1
143 559 1
143 575 1
144 144 1
144 176 1
144 192 1
144 240 1
144 272 1
144 288 1
144 528 1
144 560 1
144 576 1
145 1 1
145 42 1
145 76 1
145 98 1
145 141 1
145 163 1
145 195 1
145 225 1
145 270 1
146 2 1
146 45 1
146 67 1
146 100 1
146 143 1
146 166 1
146 198 1
146 226 1
146 261 1
147 3 1
147 33 1
147 78 1
147 102 1
147 130 1
147 165 1
147 197 1
147 227 1
147 272 1
148 4 1
148 47 1
148 70 1
148 103 1
148 144 1
148 169 1
148 201 1
148 228 1
148 264 1
149 5 1
149 35 1
149 80 1
149 104 1
149 134 1
149 170 1
149 202 1
149 229 1
149 263 1
150 6 1
150 34 1
150 69 1
150 105 1
150 132 1
150 168 1
150 200 1
150 230 1
150 266 1
151 7 1
151 48 1
151 73 1
151 97 1
151 138 1
151 172 1
151 204 1
151 231 1
151 267 1
152 8 1
152 38 1
152 74 1
152 107 1
152 137 1
152 173 1
152 205 1
152 232 1
152 257 1
153 9 1
153 36 1
153 72 1
153 108 1
153 135 1
153 171 1
153 203 1
153 233 1
153 269 1
154 10 1
154 37 1
154 71 1
154 109 1
154 136 1
154 161 1
154 193 1
154 234 1
154 268 1
155 11 1
155 41 1
155 77 1
155 110 1
155 140 1
155 175 1
155 207 1
155 235 1
155 258 1
156 12 1
156 39 1
156 75 1
156 99 1
156 129 1
156 174 1
156 206 1
156 236 1
156 271 1
157 13 1
157 40 1
157 65 1
157 111 1
157 139 1
157 162 1
157 194 1
157 237 1
157 259 1
158 14 1
158 44 1
158 79 1
158 101 1
158 131 1
158 176 1
158 208 1
158 238 1
158 260 1
159 15 1
159 43 1
159 66 1
159 112 1
159 142 1
159 164 1
159 196 1
159 239 1
159 262 1
160 16 1
160 46 1
160 68 1
160 106 1
160 133 1
160 167 1
160 199 1
160 240 1
160 265 1
161 23 1
161 42 1
161 86 1
161 113 1
161 141 1
161 185 1
161 220 1
161 225 1
161 280 1
162 17 1
162 45 1
162 89 1
162 114 1
162 143 1
162 188 1
162 211 1
162 226 1
162 283 1
163 28 1
163 33 1
163 88 1
163 115 1
163 130 1
163 187 1
163 222 1
163 227 1
163 285 1
164 18 1
164 47 1
164 92 1
164 116 1
164 144 1
164 179 1
164 214 1
164 228 1
164 286 1
165 30 1
165 35 1
165 93 1
165 117 1
165 134 1
165 191 1
165 224 1
165 229 1
165 274 1
166 19 1
166 34 1
166 91 1
166 118 1
166 132 1
166 190 1
166 213 1
166 230 1
166 287 1
167 20 1
167 48 1
167 83 1
167 119 1
167 138 1
167 182 1
167 217 1
167 231 1
167 277 1
168 21 1
168 38 1
168 95 1
168 120 1
168 137 1
168 192 1
168 218 1
168 232 1
168 276 1
169 22 1
169 36 1
169 94 1
169 121 1
169 135 1
169 181 1
169 216 1
169 233 1
169 288 1
170 32 1
170 37 1
170 82 1
170 122 1
170 136 1
170 180 1
170 215 1
170 234 1
170 278 1
171 24 1
171 41 1
171 96 1
171 123 1
171 140 1
171 186 1
171 221 1
171 235 1
171 279 1
172 25 1
172 39 1
172 85 1
172 124 1
172 129 1
172 184 1
172 219 1
172 236 1
172 282 1
173 26 1
173 40 1
173 84 1
173 125 1
173 139 1
173 183 1
173 209 1
173 237 1
173 281 1
174 27 1
174 44 1
174 90 1
174 126 1
174 131 1
174 189 1
174 223 1
174 238 1
174 273 1
175 29 1
175 43 1
175 87 1
175 127 1
175 142 1
175 177 1
175 210 1
175 239 1
175 284 1
176 31 1
176 46 1
176 81 1
176 128 1
176 133 1
176 178 1
176 212 1
176 240 1
176 275 1
177 52 1
177 76 1
177 86 1
177 151 1
177 163 1
177 185 1
177 249 1
177 270 1
177 280 1
178 55 1
178 67 1
178 89 1
178 145 1
178 166 1
178 188 1
178 252 1
178 261 1
178 283 1
179 57 1
179 78 1
179 88 1
179 156 1
179 165 1
179 187 1
179 251 1
179 272 1
179 285 1
180 49 1
180 70 1
180 92 1
180 146 1
180 169 1
180 179 1
180 243 1
180 264 1
180 286 1
181 59 1
181 80 1
181 93 1
181 158 1
181 170 1
181 191 1
181 255 1
181 263 1
181 274 1
182 60 1
182 69 1
182 91 1
182 147 1
182 168 1
182 190 1
182 254 1
182 266 1
182 287 1
183 50 1
183 73 1
183 83 1
183 148 1
183 172 1
183 182 1
183 246 1
183 267 1
183 277 1
184 62 1
184 74 1
184 95 1
184 149 1
184 173 1
184 192 1
184 256 1
184 257 1
184 276 1
185 51 1
185 72 1
185 94 1
185 150 1
185 171 1
185 181 1
185 245 1
185 269 1
185 288 1
186 63 1
186 71 1
186 82 1
186 160 1
186 161 1
186 180 1
186 244 1
186 268 1
186 278 1
187 53 1
187 77 1
187 96 1
187 152 1
187 175 1
187 186 1
187 250 1
187 258 1
187 279 1
188 54 1
188 75 1
188 85 1
188 153 1
188 174 1
188 184 1
188 248 1
188 271 1
188 282 1
189 64 1
189 65 1
189 84 1
189 154 1
189 162 1
189 183 1
189 247 1
189 259 1
189 281 1
190 56 1
190 79 1
190 90 1
190 155 1
190 176 1
190 189 1
190 253 1
190 260 1
190 273 1
191 58 1
191 66 1
191 87 1
191 157 1
191 164 1
191 177 1
191 241 1
191 262 1
191 284 1
192 61 1
192 68 1
192 81 1
192 159 1
192 167 1
192 178 1
192 242 1
192 265 1
192 275 1
193 1 1
193 42 1
193 76 1
193 292 1
193 335 1
193 358 1
193 395 1
193 425 1
193 461 1
194 2 1
194 45 1
194 67 1
194 295 1
194 336 1
194 361 1
194 398 1
194 428 1
194 463 1
195 3 1
195 33 1
195 78 1
195 297 1
195 324 1
195 360 1
195 399 1
195 427 1
195 450 1
196 4 1
196 47 1
196 70 1
196 289 1
196 330 1
196 364 1
196 389 1
196 419 1
196 464 1
197 5 1
197 35 1
197 80 1
197 299 1
197 329 1
197 365 1
197 388 1
197 431 1
197 454 1
198 6 1
198 34 1
198 69 1
198 300 1
198 327 1
198 363 1
198 400 1
198 430 1
198 452 1
199 7 1
199 48 1
199 73 1
199 290 1
199 333 1
199 355 1
199 392 1
199 422 1
199 458 1
200 8 1
200 38 1
200 74 1
200 302 1
200 332 1
200 367 1
200 391 1
200 432 1
200 457 1
201 9 1
201 36 1
201 72 1
201 291 1
201 321 1
201 366 1
201 394 1
201 421 1
201 455 1
202 10 1
202 37 1
202 71 1
202 303 1
202 331 1
202 354 1
202 393 1
202 420 1
202 456 1
203 11 1
203 41 1
203 77 1
203 293 1
203 323 1
203 368 1
203 385 1
203 426 1
203 460 1
204 12 1
204 39 1
204 75 1
204 294 1
204 322 1
204 357 1
204 397 1
204 424 1
204 449 1
205 13 1
205 40 1
205 65 1
205 304 1
205 334 1
205 356 1
205 396 1
205 423 1
205 459 1
206 14 1
206 44 1
206 79 1
206 296 1
206 326 1
206 362 1
206 386 1
206 429 1
206 451 1
207 15 1
207 43 1
207 66 1
207 298 1
207 325 1
207 359 1
207 387 1
207 417 1
207 462 1
208 16 1
208 46 1
208 68 1
208 301 1
208 328 1
208 353 1
208 390 1
208 418 1
208 453 1
209 23 1
209 42 1
209 86 1
209 306 1
209 335 1
209 380 1
209 408 1
209 425 1
209 480 1
210 17 1
210 45 1
210 89 1
210 308 1
210 336 1
210 371 1
210 411 1
210 428 1
210 474 1
211 28 1
211 33 1
211 88 1
211 310 1
211 324 1
211 382 1
211 413 1
211 427 1
211 471 1
212 18 1
212 47 1
212 92 1
212 311 1
212 330 1
212 374 1
212 414 1
212 419 1
212 477 1
213 30 1
213 35 1
213 93 1
213 312 1
213 329 1
213 384 1
213 402 1
213 431 1
213 476 1
214 19 1
214 34 1
214 91 1
214 313 1
214 327 1
214 373 1
214 415 1
214 430 1
214 465 1
215 20 1
215 48 1
215 83 1
215 305 1
215 333 1
215 377 1
215 405 1
215 422 1
215 479 1
216 21 1
216 38 1
216 95 1
216 315 1
216 332 1
216 378 1
216 404 1
216 432 1
216 467 1
217 22 1
217 36 1
217 94 1
217 316 1
217 321 1
217 376 1
217 416 1
217 421 1
217 466 1
218 32 1
218 37 1
218 82 1
218 317 1
218 331 1
218 375 1
218 406 1
218 420 1
218 478 1
219 24 1
219 41 1
219 96 1
219 318 1
219 323 1
219 381 1
219 407 1
219 426 1
219 470 1
220 25 1
220 39 1
220 85 1
220 307 1
220 322 1
220 379 1
220 410 1
220 424 1
220 468 1
221 26 1
221 40 1
221 84 1
221 319 1
221 334 1
221 369 1
221 409 1
221 423 1
221 469 1
222 27 1
222 44 1
222 90 1
222 309 1
222 326 1
222 383 1
222 401 1
222 429 1
222 473 1
223 29 1
223 43 1
223 87 1
223 320 1
223 325 1
223 370 1
223 412 1
223 417 1
223 472 1
224 31 1
224 46 1
224 81 1
224 314 1
224 328 1
224 372 1
224 403 1
224 418 1
224 475 1
225 52 1
225 76 1
225 86 1
225 337 1
225 358 1
225 380 1
225 437 1
225 461 1
225 480 1
226 55 1
226 67 1
226 89 1
226 338 1
226 361 1
226 371 1
226 440 1
226 463 1
226 474 1
227 57 1
227 78 1
227 88 1
227 339 1
227 360 1
227 382 1
227 442 1
227 450 1
227 471 1
228 49 1
228 70 1
228 92 1
228 340 1
228 364 1
228 374 1
228 443 1
228 464 1
228 477 1
229 59 1
229 80 1
229 93 1
229 341 1
229 365 1
229 384 1
229 433 1
229 454 1
229 476 1
230 60 1
230 69 1
230 91 1
230 342 1
230 363 1
230 373 1
230 445 1
230 452 1
230 465 1
231 50 1
231 73 1
231 83 1
231 343 1
231 355 1
231 377 1
231 446 1
231 458 1
231 479 1
232 62 1
232 74 1
232 95 1
232 344 1
232 367 1
232 378 1
232 434 1
232 457 1
232 467 1
233 51 1
233 72 1
233 94 1
233 345 1
233 366 1
233 376 1
233 447 1
233 455 1
233 466 1
234 63 1
234 71 1
234 82 1
234 346 1
234 354 1
234 375 1
234 435 1
234 456 1
234 478 1
235 53 1
235 77 1
235 96 1
235 347 1
235 368 1
235 381 1
235 436 1
235 460 1
235 470 1
236 54 1
236 75 1
236 85 1
236 348 1
236 357 1
236 379 1
236 448 1
236 449 1
236 468 1
237 64 1
237 65 1
237 84 1
237 349 1
237 356 1
237 369 1
237 438 1
237 459 1
237 469 1
238 56 1
238 79 1
238 90 1
238 350 1
238 362 1
238 383 1
238 439 1
238 451 1
238 473 1
239 58 1
239 66 1
239 87 1
239 351 1
239 359 1
239 370 1
239 441 1
239 462 1
239 472 1
240 61 1
240 68 1
240 81 1
240 352 1
240 353 1
240 372 1
240 444 1
240 453 1
240 475 1
241 98 1
241 141 1
241 163 1
241 292 1
241 335 1
241 358 1
241 493 1
241 520 1
241 545 1
242 100 1
242 143 1
242 166 1
242 295 1
242 336 1
242 361 1
242 495 1
242 523 1
242 546 1
243 102 1
243 130 1
243 165 1
243 297 1
243 324 1
243 360 1
243 482 1
243 525 1
243 547 1
244 103 1
244 144 1
244 169 1
244 289 1
244 330 1
244 364 1
244 496 1
244 526 1
244 548 1
245 104 1
245 134 1
245 170 1
245 299 1
245 329 1
245 365 1
245 486 1
245 514 1
245 549 1
246 105 1
246 132 1
246 168 1
246 300 1
246 327 1
246 363 1
246 484 1
246 527 1
246 550 1
247 97 1
247 138 1
247 172 1
247 290 1
247 333 1
247 355 1
247 490 1
247 517 1
247 551 1
248 107 1
248 137 1
248 173 1
248 302 1
248 332 1
248 367 1
248 489 1
248 516 1
248 552 1
249 108 1
249 135 1
249 171 1
249 291 1
249 321 1
249 366 1
249 487 1
249 528 1
249 553 1
250 109 1
250 136 1
250 161 1
250 303 1
250 331 1
250 354 1
250 488 1
250 518 1
250 554 1
251 110 1
251 140 1
251 175 1
251 293 1
251 323 1
251 368 1
251 492 1
251 519 1
251 555 1
252 99 1
252 129 1
252 174 1
252 294 1
252 322 1
252 357 1
252 481 1
252 522 1
252 556 1
253 111 1
253 139 1
253 162 1
253 304 1
253 334 1
253 356 1
253 491 1
253 521 1
253 557 1
254 101 1
254 131 1
254 176 1
254 296 1
254 326 1
254 362 1
254 483 1
254 513 1
254 558 1
255 112 1
255 142 1
255 164 1
255 298 1
255 325 1
255 359 1
255 494 1
255 524 1
255 559 1
256 106 1
256 133 1
256 167 1
256 301 1
256 328 1
256 353 1
256 485 1
256 515 1
256 560 1
257 113 1
257 141 1
257 185 1
257 306 1
257 335 1
257 380 1
257 506 1
257 520 1
257 564 1
258 114 1
258 143 1
258 188 1
258 308 1
258 336 1
258 371 1
258 509 1
258 523 1
258 567 1
259 115 1
259 130 1
259 187 1
259 310 1
259 324 1
259 382 1
259 497 1
259 525 1
259 569 1
260 116 1
260 144 1
260 179 1
260 311 1
260 330 1
260 374 1
260 511 1
260 526 1
260 561 1
261 117 1
261 134 1
261 191 1
261 312 1
261 329 1
261 384 1
261 499 1
261 514 1
261 571 1
262 118 1
262 132 1
262 190 1
262 313 1
262 327 1
262 373 1
262 498 1
262 527 1
262 572 1
263 119 1
263 138 1
263 182 1
263 305 1
263 333 1
263 377 1
263 512 1
263 517 1
263 562 1
264 120 1
264 137 1
264 192 1
264 315 1
264 332 1
264 378 1
264 502 1
264 516 1
264 574 1
265 121 1
265 135 1
265 181 1
265 316 1
265 321 1
265 376 1
265 500 1
265 528 1
265 563 1
266 122 1
266 136 1
266 180 1
266 317 1
266 331 1
266 375 1
266 501 1
266 518 1
266 575 1
267 123 1
267 140 1
267 186 1
267 318 1
267 323 1
267 381 1
267 505 1
267 519 1
267 565 1
268 124 1
268 129 1
268 184 1
268 307 1
268 322 1
268 379 1
268 503 1
268 522 1
268 566 1
269 125 1
269 139 1
269 183 1
269 319 1
269 334 1
269 369 1
269 504 1
269 521 1
269 576 1
270 126 1
270 131 1
270 189 1
270 309 1
270 326 1
270 383 1
270 508 1
270 513 1
270 568 1
271 127 1
271 142 1
271 177 1
271 320 1
271 325 1
271 370 1
271 507 1
271 524 1
271 570 1
272 128 1
272 133 1
272 178 1
272 314 1
272 328 1
272 372 1
272 510 1
272 515 1
272 573 1
273 151 1
273 163 1
273 185 1
273 337 1
273 358 1
273 380 1
273 544 1
273 545 1
273 564 1
274 145 1
274 166 1
274 188 1
274 338 1
274 361 1
274 371 1
274 538 1
274 546 1
274 567 1
275 156 1
275 165 1
275 187 1
275 339 1
275 360 1
275 382 1
275 535 1
275 547 1
275 569 1
276 146 1
276 169 1
276 179 1
276 340 1
276 364 1
276 374 1
276 541 1
276 548 1
276 561 1
277 158 1
277 170 1
277 191 1
277 341 1
277 365 1
277 384 1
277 540 1
277 549 1
277 571 1
278 147 1
278 168 1
278 190 1
278 342 1
278 363 1
278 373 1
278 529 1
278 550 1
278 572 1
279 148 1
279 172 1
279 182 1
279 343 1
279 355 1
279 377 1
279 543 1
279 551 1
279 562 1
280 149 1
280 173 1
280 192 1
280 344 1
280 367 1
280 378 1
280 531 1
280 552 1
280 574 1
281 150 1
281 171 1
281 181 1
281 345 1
281 366 1
281 376 1
281 530 1
281 553 1
281 563 1
282 160 1
282 161 1
282 180 1
282 346 1
282 354 1
282 375 1
282 542 1
282 554 1
282 575 1
283 152 1
283 175 1
283 186 1
283 347 1
283 368 1
283 381 1
283 534 1
283 555 1
283 565 1
284 153 1
284 174 1
284 184 1
284 348 1
284 357 1
284 379 1
284 532 1
284 556 1
284 566 1
285 154 1
285 162 1
285 183 1
285 349 1
285 356 1
285 369 1
285 533 1
285 557 1
285 576 1
286 155 1
286 176 1
286 189 1
286 350 1
286 362 1
286 383 1
286 537 1
286 558 1
286 568 1
287 157 1
287 164 1
287 177 1
287 351 1
287 359 1
287 370 1
287 536 1
287 559 1
287 570 1
288 159 1
288 167 1
288 178 1
288 352 1
288 353 1
288 372 1
288 539 1
288 560 1
288 573 1
