%%MatrixMarket matrix coordinate integer general
324 648 2916
1 1 1
1 23 1
1 106 1
1 325 1
1 347 1
1 430 1
1 433 1
1 455 1
1 538 1
2 2 1
2 21 1
2 104 1
2 326 1
2 345 1
2 428 1
2 434 1
2 453 1
2 536 1
3 3 1
3 20 1
3 102 1
3 327 1
3 344 1
3 426 1
3 435 1
3 452 1
3 534 1
4 4 1
4 34 1
4 101 1
4 328 1
4 358 1
4 425 1
4 436 1
4 466 1
4 533 1
5 5 1
5 19 1
5 99 1
5 329 1
5 343 1
5 423 1
5 437 1
5 451 1
5 531 1
6 6 1
6 32 1
6 98 1
6 330 1
6 356 1
6 422 1
6 438 1
6 464 1
6 530 1
7 7 1
7 36 1
7 105 1
7 331 1
7 360 1
7 429 1
7 439 1
7 468 1
7 537 1
8 8 1
8 30 1
8 96 1
8 332 1
8 354 1
8 420 1
8 440 1
8 462 1
8 528 1
9 9 1
9 29 1
9 95 1
9 333 1
9 353 1
9 419 1
9 441 1
9 461 1
9 527 1
10 10 1
10 35 1
10 103 1
10 334 1
10 359 1
10 427 1
10 442 1
10 467 1
10 535 1
11 11 1
11 27 1
11 94 1
11 335 1
11 351 1
11 418 1
11 443 1
11 459 1
11 526 1
12 12 1
12 26 1
12 93 1
12 336 1
12 350 1
12 417 1
12 444 1
12 458 1
12 525 1
13 13 1
13 33 1
13 100 1
13 337 1
13 357 1
13 424 1
13 445 1
13 465 1
13 532 1
14 14 1
14 24 1
14 92 1
14 338 1
14 348 1
14 416 1
14 446 1
14 456 1
14 524 1
15 15 1
15 31 1
15 97 1
15 339 1
15 355 1
15 421 1
15 447 1
15 463 1
15 529 1
16 16 1
16 22 1
16 91 1
16 340 1
16 346 1
16 415 1
16 448 1
16 454 1
16 523 1
17 17 1
17 28 1
17 108 1
17 341 1
17 352 1
17 432 1
17 449 1
17 460 1
17 540 1
18 18 1
18 25 1
18 107 1
18 342 1
18 349 1
18 431 1
18 450 1
18 457 1
18 539 1
19 1 1
19 66 1
19 80 1
19 325 1
19 390 1
19 404 1
19 433 1
19 498 1
19 512 1
20 2 1
20 63 1
20 83 1
20 326 1
20 387 1
20 407 1
20 434 1
20 495 1
20 515 1
21 3 1
21 69 1
21 85 1
21 327 1
21 393 1
21 409 1
21 435 1
21 501 1
21 517 1
22 4 1
22 60 1
22 86 1
22 328 1
22 384 1
22 410 1
22 436 1
22 492 1
22 518 1
23 5 1
23 67 1
23 87 1
23 329 1
23 391 1
23 411 1
23 437 1
23 499 1
23 519 1
24 6 1
24 58 1
24 88 1
24 330 1
24 382 1
24 412 1
24 438 1
24 490 1
24 520 1
25 7 1
25 65 1
25 81 1
25 331 1
25 389 1
25 405 1
25 439 1
25 497 1
25 513 1
26 8 1
26 64 1
26 89 1
26 332 1
26 388 1
26 413 1
26 440 1
26 496 1
26 521 1
27 9 1
27 56 1
27 75 1
27 333 1
27 380 1
27 399 1
27 441 1
27 488 1
27 507 1
28 10 1
28 62 1
28 84 1
28 334 1
28 386 1
28 408 1
28 442 1
28 494 1
28 516 1
29 11 1
29 61 1
29 90 1
29 335 1
29 385 1
29 414 1
29 443 1
29 493 1
29 522 1
30 12 1
30 55 1
30 77 1
30 336 1
30 379 1
30 401 1
30 444 1
30 487 1
30 509 1
31 13 1
31 59 1
31 73 1
31 337 1
31 383 1
31 397 1
31 445 1
31 491 1
31 505 1
32 14 1
32 72 1
32 79 1
32 338 1
32 396 1
32 403 1
32 446 1
32 504 1
32 511 1
33 15 1
33 57 1
33 74 1
33 339 1
33 381 1
33 398 1
33 447 1
33 489 1
33 506 1
34 16 1
34 71 1
34 82 1
34 340 1
34 395 1
34 406 1
34 448 1
34 503 1
34 514 1
35 17 1
35 70 1
35 76 1
35 341 1
35 394 1
35 400 1
35 449 1
35 502 1
35 508 1
36 18 1
36 68 1
36 78 1
36 342 1
36 392 1
36 402 1
36 450 1
36 500 1
36 510 1
37 23 1
37 40 1
37 66 1
37 347 1
37 364 1
37 390 1
37 455 1
37 472 1
37 498 1
38 21 1
38 42 1
38 63 1
38 345 1
38 366 1
38 387 1
38 453 1
38 474 1
38 495 1
39 20 1
39 44 1
39 69 1
39 344 1
39 368 1
39 393 1
39 452 1
39 476 1
39 501 1
40 34 1
40 45 1
40 60 1
40 358 1
40 369 1
40 384 1
40 466 1
40 477 1
40 492 1
41 19 1
41 47 1
41 67 1
41 343 1
41 371 1
41 391 1
41 451 1
41 479 1
41 499 1
42 32 1
42 48 1
42 58 1
42 356 1
42 372 1
42 382 1
42 464 1
42 480 1
42 490 1
43 36 1
43 49 1
43 65 1
43 360 1
43 373 1
43 389 1
43 468 1
43 481 1
43 497 1
44 30 1
44 50 1
44 64 1
44 354 1
44 374 1
44 388 1
44 462 1
44 482 1
44 496 1
45 29 1
45 37 1
45 56 1
45 353 1
45 361 1
45 380 1
45 461 1
45 469 1
45 488 1
46 35 1
46 51 1
46 62 1
46 359 1
46 375 1
46 386 1
46 467 1
46 483 1
46 494 1
47 27 1
47 52 1
47 61 1
47 351 1
47 376 1
47 385 1
47 459 1
47 484 1
47 493 1
48 26 1
48 38 1
48 55 1
48 350 1
48 362 1
48 379 1
48 458 1
48 470 1
48 487 1
49 33 1
49 53 1
49 59 1
49 357 1
49 377 1
49 383 1
49 465 1
49 485 1
49 491 1
50 24 1
50 39 1
50 72 1
50 348 1
50 363 1
50 396 1
50 456 1
50 471 1
50 504 1
51 31 1
51 54 1
51 57 1
51 355 1
51 378 1
51 381 1
51 463 1
51 486 1
51 489 1
52 22 1
52 41 1
52 71 1
52 346 1
52 365 1
52 395 1
52 454 1
52 473 1
52 503 1
53 28 1
53 43 1
53 70 1
53 352 1
53 367 1
53 394 1
53 460 1
53 475 1
53 502 1
54 25 1
54 46 1
54 68 1
54 349 1
54 370 1
54 392 1
54 457 1
54 478 1
54 500 1
55 109 1
55 131 1
55 214 1
55 325 1
55 347 1
55 430 1
55 541 1
55 563 1
55 646 1
56 110 1
56 129 1
56 212 1
56 326 1
56 345 1
56 428 1
56 542 1
56 561 1
56 644 1
57 111 1
57 128 1
57 210 1
57 327 1
57 344 1
57 426 1
57 543 1
57 560 1
57 642 1
58 112 1
58 142 1
58 209 1
58 328 1
58 358 1
58 425 1
58 544 1
58 574 1
58 641 1
59 113 1
59 127 1
59 207 1
59 329 1
59 343 1
59 423 1
59 545 1
59 559 1
59 639 1
60 114 1
60 140 1
60 206 1
60 330 1
60 356 1
60 422 1
60 546 1
60 572 1
60 638 1
61 115 1
61 144 1
61 213 1
61 331 1
61 360 1
61 429 1
61 547 1
61 576 1
61 645 1
62 116 1
62 138 1
62 204 1
62 332 1
62 354 1
62 420 1
62 548 1
62 570 1
62 636 1
63 117 1
63 137 1
63 203 1
63 333 1
63 353 1
63 419 1
63 549 1
63 569 1
63 635 1
64 118 1
64 143 1
64 211 1
64 334 1
64 359 1
64 427 1
64 550 1
64 575 1
64 643 1
65 119 1
65 135 1
65 202 1
65 335 1
65 351 1
65 418 1
65 551 1
65 567 1
65 634 1
66 120 1
66 134 1
66 201 1
66 336 1
66 350 1
66 417 1
66 552 1
66 566 1
66 633 1
67 121 1
67 141 1
67 208 1
67 337 1
67 357 1
67 424 1
67 553 1
67 573 1
67 640 1
68 122 1
68 132 1
68 200 1
68 338 1
68 348 1
68 416 1
68 554 1
68 564 1
68 632 1
69 123 1
69 139 1
69 205 1
69 339 1
69 355 1
69 421 1
69 555 1
69 571 1
69 637 1
70 124 1
70 130 1
70 199 1
70 340 1
70 346 1
70 415 1
70 556 1
70 562 1
70 631 1
71 125 1
71 136 1
71 216 1
71 341 1
71 352 1
71 432 1
71 557 1
71 568 1
71 648 1
72 126 1
72 133 1
72 215 1
72 342 1
72 349 1
72 431 1
72 558 1
72 565 1
72 647 1
73 109 1
73 174 1
73 188 1
73 325 1
73 390 1
73 404 1
73 541 1
73 606 1
73 620 1
74 110 1
74 171 1
74 191 1
74 326 1
74 387 1
74 407 1
74 542 1
74 603 1
74 623 1
75 111 1
75 177 1
75 193 1
75 327 1
75 393 1
75 409 1
75 543 1
75 609 1
75 625 1
76 112 1
76 168 1
76 194 1
76 328 1
76 384 1
76 410 1
76 544 1
76 600 1
76 626 1
77 113 1
77 175 1
77 195 1
77 329 1
77 391 1
77 411 1
77 545 1
77 607 1
77 627 1
78 114 1
78 166 1
78 196 1
78 330 1
78 382 1
78 412 1
78 546 1
78 598 1
78 628 1
79 115 1
79 173 1
79 189 1
79 331 1
79 389 1
79 405 1
79 547 1
79 605 1
79 621 1
80 116 1
80 172 1
80 197 1
80 332 1
80 388 1
80 413 1
80 548 1
80 604 1
80 629 1
81 117 1
81 164 1
81 183 1
81 333 1
81 380 1
81 399 1
81 549 1
81 596 1
81 615 1
82 118 1
82 170 1
82 192 1
82 334 1
82 386 1
82 408 1
82 550 1
82 602 1
82 624 1
83 119 1
83 169 1
83 198 1
83 335 1
83 385 1
83 414 1
83 551 1
83 601 1
83 630 1
84 120 1
84 163 1
84 185 1
84 336 1
84 379 1
84 401 1
84 552 1
84 595 1
84 617 1
85 121 1
85 167 1
85 181 1
85 337 1
85 383 1
85 397 1
85 553 1
85 599 1
85 613 1
86 122 1
86 180 1
86 187 1
86 338 1
86 396 1
86 403 1
86 554 1
86 612 1
86 619 1
87 123 1
87 165 1
87 182 1
87 339 1
87 381 1
87 398 1
87 555 1
87 597 1
87 614 1
88 124 1
88 179 1
88 190 1
88 340 1
88 395 1
88 406 1
88 556 1
88 611 1
88 622 1
89 125 1
89 178 1
89 184 1
89 341 1
89 394 1
89 400 1
89 557 1
89 610 1
89 616 1
90 126 1
90 176 1
90 186 1
90 342 1
90 392 1
90 402 1
90 558 1
90 608 1
90 618 1
91 131 1
91 148 1
91 174 1
91 347 1
91 364 1
91 390 1
91 563 1
91 580 1
91 606 1
92 129 1
92 150 1
92 171 1
92 345 1
92 366 1
92 387 1
92 561 1
92 582 1
92 603 1
93 128 1
93 152 1
93 177 1
93 344 1
93 368 1
93 393 1
93 560 1
93 584 1
93 609 1
94 142 1
94 153 1
94 168 1
94 358 1
94 369 1
94 384 1
94 574 1
94 585 1
94 600 1
95 127 1
95 155 1
95 175 1
95 343 1
95 371 1
95 391 1
95 559 1
95 587 1
95 607 1
96 140 1
96 156 1
96 166 1
96 356 1
96 372 1
96 382 1
96 572 1
96 588 1
96 598 1
97 144 1
97 157 1
97 173 1
97 360 1
97 373 1
97 389 1
97 576 1
97 589 1
97 605 1
98 138 1
98 158 1
98 172 1
98 354 1
98 374 1
98 388 1
98 570 1
98 590 1
98 604 1
99 137 1
99 145 1
99 164 1
99 353 1
99 361 1
99 380 1
99 569 1
99 577 1
99 596 1
100 143 1
100 159 1
100 170 1
100 359 1
100 375 1
100 386 1
100 575 1
100 591 1
100 602 1
101 135 1
101 160 1
101 169 1
101 351 1
101 376 1
101 385 1
101 567 1
101 592 1
101 601 1
102 134 1
102 146 1
102 163 1
102 350 1
102 362 1
102 379 1
102 566 1
102 578 1
102 595 1
103 141 1
103 161 1
103 167 1
103 357 1
103 377 1
103 383 1
103 573 1
103 593 1
103 599 1
104 132 1
104 147 1
104 180 1
104 348 1
104 363 1
104 396 1
104 564 1
104 579 1
104 612 1
105 139 1
105 162 1
105 165 1
105 355 1
105 378 1
105 381 1
105 571 1
105 594 1
105 597 1
106 130 1
106 149 1
106 179 1
106 346 1
106 365 1
106 395 1
106 562 1
106 581 1
106 611 1
107 136 1
107 151 1
107 178 1
107 352 1
107 367 1
107 394 1
107 568 1
107 583 1
107 610 1
108 133 1
108 154 1
108 176 1
108 349 1
108 370 1
108 392 1
108 565 1
108 586 1
108 608 1
109 217 1
109 239 1
109 322 1
109 433 1
109 455 1
109 538 1
109 541 1
109 563 1
109 646 1
110 218 1
110 237 1
110 320 1
110 434 1
110 453 1
110 536 1
110 542 1
110 561 1
110 644 1
111 219 1
111 236 1
111 318 1
111 435 1
111 452 1
111 534 1
111 543 1
111 560 1
111 642 1
112 220 1
112 250 1
112 317 1
112 436 1
112 466 1
112 533 1
112 544 1
112 574 1
112 641 1
113 221 1
113 235 1
113 315 1
113 437 1
113 451 1
113 531 1
113 545 1
113 559 1
113 639 1
114 222 1
114 248 1
114 314 1
114 438 1
114 464 1
114 530 1
114 546 1
114 572 1
114 638 1
115 223 1
115 252 1
115 321 1
115 439 1
115 468 1
115 537 1
115 547 1
115 576 1
115 645 1
116 224 1
116 246 1
116 312 1
116 440 1
116 462 1
116 528 1
116 548 1
116 570 1
116 636 1
117 225 1
117 245 1
117 311 1
117 441 1
117 461 1
117 527 1
117 549 1
117 569 1
117 635 1
118 226 1
118 251 1
118 319 1
118 442 1
118 467 1
118 535 1
118 550 1
118 575 1
118 643 1
119 227 1
119 243 1
119 310 1
119 443 1
119 459 1
119 526 1
119 551 1
119 567 1
119 634 1
120 228 1
120 242 1
120 309 1
120 444 1
120 458 1
120 525 1
120 552 1
120 566 1
120 633 1
121 229 1
121 249 1
121 316 1
121 445 1
121 465 1
121 532 1
121 553 1
121 573 1
121 640 1
122 230 1
122 240 1
122 308 1
122 446 1
122 456 1
122 524 1
122 554 1
122 564 1
122 632 1
123 231 1
123 247 1
123 313 1
123 447 1
123 463 1
123 529 1
123 555 1
123 571 1
123 637 1
124 232 1
124 238 1
124 307 1
124 448 1
124 454 1
124 523 1
124 556 1
124 562 1
124 631 1
125 233 1
125 244 1
125 324 1
125 449 1
125 460 1
125 540 1
125 557 1
125 568 1
125 648 1
126 234 1
126 241 1
126 323 1
126 450 1
126 457 1
126 539 1
126 558 1
126 565 1
126 647 1
127 217 1
127 282 1
127 296 1
127 433 1
127 498 1
127 512 1
127 541 1
127 606 1
127 620 1
128 218 1
128 279 1
128 299 1
128 434 1
128 495 1
128 515 1
128 542 1
128 603 1
128 623 1
129 219 1
129 285 1
129 301 1
129 435 1
129 501 1
129 517 1
129 543 1
129 609 1
129 625 1
130 220 1
130 276 1
130 302 1
130 436 1
130 492 1
130 518 1
130 544 1
130 600 1
130 626 1
131 221 1
131 283 1
131 303 1
131 437 1
131 499 1
131 519 1
131 545 1
131 607 1
131 627 1
132 222 1
132 274 1
132 304 1
132 438 1
132 490 1
132 520 1
132 546 1
132 598 1
132 628 1
133 223 1
133 281 1
133 297 1
133 439 1
133 497 1
133 513 1
133 547 1
133 605 1
133 621 1
134 224 1
134 280 1
134 305 1
134 440 1
134 496 1
134 521 1
134 548 1
134 604 1
134 629 1
135 225 1
135 272 1
135 291 1
135 441 1
135 488 1
135 507 1
135 549 1
135 596 1
135 615 1
136 226 1
136 278 1
136 300 1
136 442 1
136 494 1
136 516 1
136 550 1
136 602 1
136 624 1
137 227 1
137 277 1
137 306 1
137 443 1
137 493 1
137 522 1
137 551 1
137 601 1
137 630 1
138 228 1
138 271 1
138 293 1
138 444 1
138 487 1
138 509 1
138 552 1
138 595 1
138 617 1
139 229 1
139 275 1
139 289 1
139 445 1
139 491 1
139 505 1
139 553 1
139 599 1
139 613 1
140 230 1
140 288 1
140 295 1
140 446 1
140 504 1
140 511 1
140 554 1
140 612 1
140 619 1
141 231 1
141 273 1
141 290 1
141 447 1
141 489 1
141 506 1
141 555 1
141 597 1
141 614 1
142 232 1
142 287 1
142 298 1
142 448 1
142 503 1
142 514 1
142 556 1
142 611 1
142 622 1
143 233 1
143 286 1
143 292 1
143 449 1
143 502 1
143 508 1
143 557 1
143 610 1
143 616 1
144 234 1
144 284 1
144 294 1
144 450 1
144 500 1
144 510 1
144 558 1
144 608 1
144 618 1
145 239 1
145 256 1
145 282 1
145 455 1
145 472 1
145 498 1
145 563 1
145 580 1
145 606 1
146 237 1
146 258 1
146 279 1
146 453 1
146 474 1
146 495 1
146 561 1
146 582 1
146 603 1
147 236 1
147 260 1
147 285 1
147 452 1
147 476 1
147 501 1
147 560 1
147 584 1
147 609 1
148 250 1
148 261 1
148 276 1
148 466 1
148 477 1
148 492 1
148 574 1
148 585 1
148 600 1
149 235 1
149 263 1
149 283 1
149 451 1
149 479 1
149 499 1
149 559 1
149 587 1
149 607 1
150 248 1
150 264 1
150 274 1
150 464 1
150 480 1
150 490 1
150 572 1
150 588 1
150 598 1
151 252 1
151 265 1
151 281 1
151 468 1
151 481 1
151 497 1
151 576 1
151 589 1
151 605 1
152 246 1
152 266 1
152 280 1
152 462 1
152 482 1
152 496 1
152 570 1
152 590 1
152 604 1
153 245 1
153 253 1
153 272 1
153 461 1
153 469 1
153 488 1
153 569 1
153 577 1
153 596 1
154 251 1
154 267 1
154 278 1
154 467 1
154 483 1
154 494 1
154 575 1
154 591 1
154 602 1
155 243 1
155 268 1
155 277 1
155 459 1
155 484 1
155 493 1
155 567 1
155 592 1
155 601 1
156 242 1
156 254 1
156 271 1
156 458 1
156 470 1
156 487 1
156 566 1
156 578 1
156 595 1
157 249 1
157 269 1
157 275 1
157 465 1
157 485 1
157 491 1
157 573 1
157 593 1
157 599 1
158 240 1
158 255 1
158 288 1
158 456 1
158 471 1
158 504 1
158 564 1
158 579 1
158 612 1
159 247 1
159 270 1
159 273 1
159 463 1
159 486 1
159 489 1
159 571 1
159 594 1
159 597 1
160 238 1
160 257 1
160 287 1
160 454 1
160 473 1
160 503 1
160 562 1
160 581 1
160 611 1
161 244 1
161 259 1
161 286 1
161 460 1
161 475 1
161 502 1
161 568 1
161 583 1
161 610 1
162 241 1
162 262 1
162 284 1
162 457 1
162 478 1
162 500 1
162 565 1
162 586 1
162 608 1
163 1 1
163 19 1
163 55 1
163 224 1
163 242 1
163 278 1
163 333 1
163 351 1
163 387 1
164 2 1
164 20 1
164 56 1
164 231 1
164 249 1
164 285 1
164 330 1
164 348 1
164 384 1
165 3 1
165 21 1
165 57 1
165 229 1
165 247 1
165 283 1
165 338 1
165 356 1
165 392 1
166 4 1
166 22 1
166 58 1
166 230 1
166 248 1
166 284 1
166 325 1
166 343 1
166 379 1
167 5 1
167 23 1
167 59 1
167 228 1
167 246 1
167 282 1
167 335 1
167 353 1
167 389 1
168 6 1
168 24 1
168 60 1
168 234 1
168 252 1
168 288 1
168 336 1
168 354 1
168 390 1
169 7 1
169 25 1
169 61 1
169 225 1
169 243 1
169 279 1
169 341 1
169 359 1
169 395 1
170 8 1
170 26 1
170 62 1
170 233 1
170 251 1
170 287 1
170 327 1
170 345 1
170 381 1
171 9 1
171 27 1
171 63 1
171 219 1
171 237 1
171 273 1
171 328 1
171 346 1
171 382 1
172 10 1
172 28 1
172 64 1
172 232 1
172 250 1
172 286 1
172 339 1
172 357 1
172 393 1
173 11 1
173 29 1
173 65 1
173 218 1
173 236 1
173 272 1
173 340 1
173 358 1
173 394 1
174 12 1
174 30 1
174 66 1
174 226 1
174 244 1
174 280 1
174 326 1
174 344 1
174 380 1
175 13 1
175 31 1
175 67 1
175 217 1
175 235 1
175 271 1
175 331 1
175 349 1
175 385 1
176 14 1
176 32 1
176 68 1
176 223 1
176 241 1
176 277 1
176 332 1
176 350 1
176 386 1
177 15 1
177 33 1
177 69 1
177 221 1
177 239 1
177 275 1
177 342 1
177 360 1
177 396 1
178 16 1
178 34 1
178 70 1
178 222 1
178 240 1
178 276 1
178 329 1
178 347 1
178 383 1
179 17 1
179 35 1
179 71 1
179 220 1
179 238 1
179 274 1
179 337 1
179 355 1
179 391 1
180 18 1
180 36 1
180 72 1
180 227 1
180 245 1
180 281 1
180 334 1
180 352 1
180 388 1
181 1 1
181 37 1
181 73 1
181 224 1
181 260 1
181 296 1
181 333 1
181 369 1
181 405 1
182 2 1
182 38 1
182 74 1
182 231 1
182 267 1
182 303 1
182 330 1
182 366 1
182 402 1
183 3 1
183 39 1
183 75 1
183 229 1
183 265 1
183 301 1
183 338 1
183 374 1
183 410 1
184 4 1
184 40 1
184 76 1
184 230 1
184 266 1
184 302 1
184 325 1
184 361 1
184 397 1
185 5 1
185 41 1
185 77 1
185 228 1
185 264 1
185 300 1
185 335 1
185 371 1
185 407 1
186 6 1
186 42 1
186 78 1
186 234 1
186 270 1
186 306 1
186 336 1
186 372 1
186 408 1
187 7 1
187 43 1
187 79 1
187 225 1
187 261 1
187 297 1
187 341 1
187 377 1
187 413 1
188 8 1
188 44 1
188 80 1
188 233 1
188 269 1
188 305 1
188 327 1
188 363 1
188 399 1
189 9 1
189 45 1
189 81 1
189 219 1
189 255 1
189 291 1
189 328 1
189 364 1
189 400 1
190 10 1
190 46 1
190 82 1
190 232 1
190 268 1
190 304 1
190 339 1
190 375 1
190 411 1
191 11 1
191 47 1
191 83 1
191 218 1
191 254 1
191 290 1
191 340 1
191 376 1
191 412 1
192 12 1
192 48 1
192 84 1
192 226 1
192 262 1
192 298 1
192 326 1
192 362 1
192 398 1
193 13 1
193 49 1
193 85 1
193 217 1
193 253 1
193 289 1
193 331 1
193 367 1
193 403 1
194 14 1
194 50 1
194 86 1
194 223 1
194 259 1
194 295 1
194 332 1
194 368 1
194 404 1
195 15 1
195 51 1
195 87 1
195 221 1
195 257 1
195 293 1
195 342 1
195 378 1
195 414 1
196 16 1
196 52 1
196 88 1
196 222 1
196 258 1
196 294 1
196 329 1
196 365 1
196 401 1
197 17 1
197 53 1
197 89 1
197 220 1
197 256 1
197 292 1
197 337 1
197 373 1
197 409 1
198 18 1
198 54 1
198 90 1
198 227 1
198 263 1
198 299 1
198 334 1
198 370 1
198 406 1
199 19 1
199 37 1
199 91 1
199 242 1
199 260 1
199 314 1
199 351 1
199 369 1
199 423 1
200 20 1
200 38 1
200 92 1
200 249 1
200 267 1
200 321 1
200 348 1
200 366 1
200 420 1
201 21 1
201 39 1
201 93 1
201 247 1
201 265 1
201 319 1
201 356 1
201 374 1
201 428 1
202 22 1
202 40 1
202 94 1
202 248 1
202 266 1
202 320 1
202 343 1
202 361 1
202 415 1
203 23 1
203 41 1
203 95 1
203 246 1
203 264 1
203 318 1
203 353 1
203 371 1
203 425 1
204 24 1
204 42 1
204 96 1
204 252 1
204 270 1
204 324 1
204 354 1
204 372 1
204 426 1
205 25 1
205 43 1
205 97 1
205 243 1
205 261 1
205 315 1
205 359 1
205 377 1
205 431 1
206 26 1
206 44 1
206 98 1
206 251 1
206 269 1
206 323 1
206 345 1
206 363 1
206 417 1
207 27 1
207 45 1
207 99 1
207 237 1
207 255 1
207 309 1
207 346 1
207 364 1
207 418 1
208 28 1
208 46 1
208 100 1
208 250 1
208 268 1
208 322 1
208 357 1
208 375 1
208 429 1
209 29 1
209 47 1
209 101 1
209 236 1
209 254 1
209 308 1
209 358 1
209 376 1
209 430 1
210 30 1
210 48 1
210 102 1
210 244 1
210 262 1
210 316 1
210 344 1
210 362 1
210 416 1
211 31 1
211 49 1
211 103 1
211 235 1
211 253 1
211 307 1
211 349 1
211 367 1
211 421 1
212 32 1
212 50 1
212 104 1
212 241 1
212 259 1
212 313 1
212 350 1
212 368 1
212 422 1
213 33 1
213 51 1
213 105 1
213 239 1
213 257 1
213 311 1
213 360 1
213 378 1
213 432 1
214 34 1
214 52 1
214 106 1
214 240 1
214 258 1
214 312 1
214 347 1
214 365 1
214 419 1
215 35 1
215 53 1
215 107 1
215 238 1
215 256 1
215 310 1
215 355 1
215 373 1
215 427 1
216 36 1
216 54 1
216 108 1
216 245 1
216 263 1
216 317 1
216 352 1
216 370 1
216 424 1
217 110 1
217 128 1
217 164 1
217 224 1
217 242 1
217 278 1
217 558 1
217 576 1
217 612 1
218 109 1
218 127 1
218 163 1
218 231 1
218 249 1
218 285 1
218 543 1
218 561 1
218 597 1
219 113 1
219 131 1
219 167 1
219 229 1
219 247 1
219 283 1
219 542 1
219 560 1
219 596 1
220 114 1
220 132 1
220 168 1
220 230 1
220 248 1
220 284 1
220 550 1
220 568 1
220 604 1
221 111 1
221 129 1
221 165 1
221 228 1
221 246 1
221 282 1
221 547 1
221 565 1
221 601 1
222 112 1
222 130 1
222 166 1
222 234 1
222 252 1
222 288 1
222 548 1
222 566 1
222 602 1
223 118 1
223 136 1
223 172 1
223 225 1
223 243 1
223 279 1
223 545 1
223 563 1
223 599 1
224 119 1
224 137 1
224 173 1
224 233 1
224 251 1
224 287 1
224 546 1
224 564 1
224 600 1
225 120 1
225 138 1
225 174 1
225 219 1
225 237 1
225 273 1
225 555 1
225 573 1
225 609 1
226 115 1
226 133 1
226 169 1
226 232 1
226 250 1
226 286 1
226 544 1
226 562 1
226 598 1
227 116 1
227 134 1
227 170 1
227 218 1
227 236 1
227 272 1
227 553 1
227 571 1
227 607 1
228 117 1
228 135 1
228 171 1
228 226 1
228 244 1
228 280 1
228 554 1
228 572 1
228 608 1
229 123 1
229 141 1
229 177 1
229 217 1
229 235 1
229 271 1
229 551 1
229 569 1
229 605 1
230 124 1
230 142 1
230 178 1
230 223 1
230 241 1
230 277 1
230 552 1
230 570 1
230 606 1
231 121 1
231 139 1
231 175 1
231 221 1
231 239 1
231 275 1
231 549 1
231 567 1
231 603 1
232 122 1
232 140 1
232 176 1
232 222 1
232 240 1
232 276 1
232 557 1
232 575 1
232 611 1
233 126 1
233 144 1
233 180 1
233 220 1
233 238 1
233 274 1
233 556 1
233 574 1
233 610 1
234 125 1
234 143 1
234 179 1
234 227 1
234 245 1
234 281 1
234 541 1
234 559 1
234 595 1
235 110 1
235 146 1
235 182 1
235 224 1
235 260 1
235 296 1
235 558 1
235 594 1
235 630 1
236 109 1
236 145 1
236 181 1
236 231 1
236 267 1
236 303 1
236 543 1
236 579 1
236 615 1
237 113 1
237 149 1
237 185 1
237 229 1
237 265 1
237 301 1
237 542 1
237 578 1
237 614 1
238 114 1
238 150 1
238 186 1
238 230 1
238 266 1
238 302 1
238 550 1
238 586 1
238 622 1
239 111 1
239 147 1
239 183 1
239 228 1
239 264 1
239 300 1
239 547 1
239 583 1
239 619 1
240 112 1
240 148 1
240 184 1
240 234 1
240 270 1
240 306 1
240 548 1
240 584 1
240 620 1
241 118 1
241 154 1
241 190 1
241 225 1
241 261 1
241 297 1
241 545 1
241 581 1
241 617 1
242 119 1
242 155 1
242 191 1
242 233 1
242 269 1
242 305 1
242 546 1
242 582 1
242 618 1
243 120 1
243 156 1
243 192 1
243 219 1
243 255 1
243 291 1
243 555 1
243 591 1
243 627 1
244 115 1
244 151 1
244 187 1
244 232 1
244 268 1
244 304 1
244 544 1
244 580 1
244 616 1
245 116 1
245 152 1
245 188 1
245 218 1
245 254 1
245 290 1
245 553 1
245 589 1
245 625 1
246 117 1
246 153 1
246 189 1
246 226 1
246 262 1
246 298 1
246 554 1
246 590 1
246 626 1
247 123 1
247 159 1
247 195 1
247 217 1
247 253 1
247 289 1
247 551 1
247 587 1
247 623 1
248 124 1
248 160 1
248 196 1
248 223 1
248 259 1
248 295 1
248 552 1
248 588 1
248 624 1
249 121 1
249 157 1
249 193 1
249 221 1
249 257 1
249 293 1
249 549 1
249 585 1
249 621 1
250 122 1
250 158 1
250 194 1
250 222 1
250 258 1
250 294 1
250 557 1
250 593 1
250 629 1
251 126 1
251 162 1
251 198 1
251 220 1
251 256 1
251 292 1
251 556 1
251 592 1
251 628 1
252 125 1
252 161 1
252 197 1
252 227 1
252 263 1
252 299 1
252 541 1
252 577 1
252 613 1
253 128 1
253 146 1
253 200 1
253 242 1
253 260 1
253 314 1
253 576 1
253 594 1
253 648 1
254 127 1
254 145 1
254 199 1
254 249 1
254 267 1
254 321 1
254 561 1
254 579 1
254 633 1
255 131 1
255 149 1
255 203 1
255 247 1
255 265 1
255 319 1
255 560 1
255 578 1
255 632 1
256 132 1
256 150 1
256 204 1
256 248 1
256 266 1
256 320 1
256 568 1
256 586 1
256 640 1
257 129 1
257 147 1
257 201 1
257 246 1
257 264 1
257 318 1
257 565 1
257 583 1
257 637 1
258 130 1
258 148 1
258 202 1
258 252 1
258 270 1
258 324 1
258 566 1
258 584 1
258 638 1
259 136 1
259 154 1
259 208 1
259 243 1
259 261 1
259 315 1
259 563 1
259 581 1
259 635 1
260 137 1
260 155 1
260 209 1
260 251 1
260 269 1
260 323 1
260 564 1
260 582 1
260 636 1
261 138 1
261 156 1
261 210 1
261 237 1
261 255 1
261 309 1
261 573 1
261 591 1
261 645 1
262 133 1
262 151 1
262 205 1
262 250 1
262 268 1
262 322 1
262 562 1
262 580 1
262 634 1
263 134 1
263 152 1
263 206 1
263 236 1
263 254 1
263 308 1
263 571 1
263 589 1
263 643 1
264 135 1
264 153 1
264 207 1
264 244 1
264 262 1
264 316 1
264 572 1
264 590 1
264 644 1
265 141 1
265 159 1
265 213 1
265 235 1
265 253 1
265 307 1
265 569 1
265 587 1
265 641 1
266 142 1
266 160 1
266 214 1
266 241 1
266 259 1
266 313 1
266 570 1
266 588 1
266 642 1
267 139 1
267 157 1
267 211 1
267 239 1
267 257 1
267 311 1
267 567 1
267 585 1
267 639 1
268 140 1
268 158 1
268 212 1
268 240 1
268 258 1
268 312 1
268 575 1
268 593 1
268 647 1
269 144 1
269 162 1
269 216 1
269 238 1
269 256 1
269 310 1
269 574 1
269 592 1
269 646 1
270 143 1
270 161 1
270 215 1
270 245 1
270 263 1
270 317 1
270 559 1
270 577 1
270 631 1
271 333 1
271 351 1
271 387 1
271 443 1
271 461 1
271 497 1
271 558 1
271 576 1
271 612 1
272 330 1
272 348 1
272 384 1
272 445 1
272 463 1
272 499 1
272 543 1
272 561 1
272 597 1
273 338 1
273 356 1
273 392 1
273 447 1
273 465 1
273 501 1
273 542 1
273 560 1
273 596 1
274 325 1
274 343 1
274 379 1
274 448 1
274 466 1
274 502 1
274 550 1
274 568 1
274 604 1
275 335 1
275 353 1
275 389 1
275 441 1
275 459 1
275 495 1
275 547 1
275 565 1
275 601 1
276 336 1
276 354 1
276 390 1
276 449 1
276 467 1
276 503 1
276 548 1
276 566 1
276 602 1
277 341 1
277 359 1
277 395 1
277 444 1
277 462 1
277 498 1
277 545 1
277 563 1
277 599 1
278 327 1
278 345 1
278 381 1
278 450 1
278 468 1
278 504 1
278 546 1
278 564 1
278 600 1
279 328 1
279 346 1
279 382 1
279 437 1
279 455 1
279 491 1
279 555 1
279 573 1
279 609 1
280 339 1
280 357 1
280 393 1
280 446 1
280 464 1
280 500 1
280 544 1
280 562 1
280 598 1
281 340 1
281 358 1
281 394 1
281 433 1
281 451 1
281 487 1
281 553 1
281 571 1
281 607 1
282 326 1
282 344 1
282 380 1
282 439 1
282 457 1
282 493 1
282 554 1
282 572 1
282 608 1
283 331 1
283 349 1
283 385 1
283 434 1
283 452 1
283 488 1
283 551 1
283 569 1
283 605 1
284 332 1
284 350 1
284 386 1
284 442 1
284 460 1
284 496 1
284 552 1
284 570 1
284 606 1
285 342 1
285 360 1
285 396 1
285 435 1
285 453 1
285 489 1
285 549 1
285 567 1
285 603 1
286 329 1
286 347 1
286 383 1
286 436 1
286 454 1
286 490 1
286 557 1
286 575 1
286 611 1
287 337 1
287 355 1
287 391 1
287 438 1
287 456 1
287 492 1
287 556 1
287 574 1
287 610 1
288 334 1
288 352 1
288 388 1
288 440 1
288 458 1
288 494 1
288 541 1
288 559 1
288 595 1
289 333 1
289 369 1
289 405 1
289 443 1
289 479 1
289 515 1
289 558 1
289 594 1
289 630 1
290 330 1
290 366 1
290 402 1
290 445 1
290 481 1
290 517 1
290 543 1
290 579 1
290 615 1
291 338 1
291 374 1
291 410 1
291 447 1
291 483 1
291 519 1
291 542 1
291 578 1
291 614 1
292 325 1
292 361 1
292 397 1
292 448 1
292 484 1
292 520 1
292 550 1
292 586 1
292 622 1
293 335 1
293 371 1
293 407 1
293 441 1
293 477 1
293 513 1
293 547 1
293 583 1
293 619 1
294 336 1
294 372 1
294 408 1
294 449 1
294 485 1
294 521 1
294 548 1
294 584 1
294 620 1
295 341 1
295 377 1
295 413 1
295 444 1
295 480 1
295 516 1
295 545 1
295 581 1
295 617 1
296 327 1
296 363 1
296 399 1
296 450 1
296 486 1
296 522 1
296 546 1
296 582 1
296 618 1
297 328 1
297 364 1
297 400 1
297 437 1
297 473 1
297 509 1
297 555 1
297 591 1
297 627 1
298 339 1
298 375 1
298 411 1
298 446 1
298 482 1
298 518 1
298 544 1
298 580 1
298 616 1
299 340 1
299 376 1
299 412 1
299 433 1
299 469 1
299 505 1
299 553 1
299 589 1
299 625 1
300 326 1
300 362 1
300 398 1
300 439 1
300 475 1
300 511 1
300 554 1
300 590 1
300 626 1
301 331 1
301 367 1
301 403 1
301 434 1
301 470 1
301 506 1
301 551 1
301 587 1
301 623 1
302 332 1
302 368 1
302 404 1
302 442 1
302 478 1
302 514 1
302 552 1
302 588 1
302 624 1
303 342 1
303 378 1
303 414 1
303 435 1
303 471 1
303 507 1
303 549 1
303 585 1
303 621 1
304 329 1
304 365 1
304 401 1
304 436 1
304 472 1
304 508 1
304 557 1
304 593 1
304 629 1
305 337 1
305 373 1
305 409 1
305 438 1
305 474 1
305 510 1
305 556 1
305 592 1
305 628 1
306 334 1
306 370 1
306 406 1
306 440 1
306 476 1
306 512 1
306 541 1
306 577 1
306 613 1
307 351 1
307 369 1
307 423 1
307 461 1
307 479 1
307 533 1
307 576 1
307 594 1
307 648 1
308 348 1
308 366 1
308 420 1
308 463 1
308 481 1
308 535 1
308 561 1
308 579 1
308 633 1
309 356 1
309 374 1
309 428 1
309 465 1
309 483 1
309 537 1
309 560 1
309 578 1
309 632 1
310 343 1
310 361 1
310 415 1
310 466 1
310 484 1
310 538 1
310 568 1
310 586 1
310 640 1
311 353 1
311 371 1
311 425 1
311 459 1
311 477 1
311 531 1
311 565 1
311 583 1
311 637 1
312 354 1
312 372 1
312 426 1
312 467 1
312 485 1
312 539 1
312 566 1
312 584 1
312 638 1
313 359 1
313 377 1
313 431 1
313 462 1
313 480 1
313 534 1
313 563 1
313 581 1
313 635 1
314 345 1
314 363 1
314 417 1
314 468 1
314 486 1
314 540 1
314 564 1
314 582 1
314 636 1
315 346 1
315 364 1
315 418 1
315 455 1
315 473 1
315 527 1
315 573 1
315 591 1
315 645 1
316 357 1
316 375 1
316 429 1
316 464 1
316 482 1
316 536 1
316 562 1
316 580 1
316 634 1
317 358 1
317 376 1
317 430 1
317 451 1
317 469 1
317 523 1
317 571 1
317 589 1
317 643 1
318 344 1
318 362 1
318 416 1
318 457 1
318 475 1
318 529 1
318 572 1
318 590 1
318 644 1
319 349 1
319 367 1
319 421 1
319 452 1
319 470 1
319 524 1
319 569 1
319 587 1
319 641 1
320 350 1
320 368 1
320 422 1
320 460 1
320 478 1
320 532 1
320 570 1
320 588 1
320 642 1
321 360 1
321 378 1
321 432 1
321 453 1
321 471 1
321 525 1
321 567 1
321 585 1
321 639 1
322 347 1
322 365 1
322 419 1
322 454 1
322 472 1
322 526 1
322 575 1
322 593 1
322 647 1
323 355 1
323 373 1
323 427 1
323 456 1
323 474 1
323 528 1
323 574 1
323 592 1
323 646 1
324 352 1
324 370 1
324 424 1
324 458 1
324 476 1
324 530 1
324 559 1
324 577 1
324 631 1
