%%MatrixMarket matrix coordinate integer general
324 648 2916
1 1 1
1 55 1
1 73 1
1 109 1
1 163 1
1 181 1
1 325 1
1 379 1
1 397 1
2 2 1
2 56 1
2 74 1
2 110 1
2 164 1
2 182 1
2 326 1
2 380 1
2 398 1
3 3 1
3 57 1
3 75 1
3 111 1
3 165 1
3 183 1
3 327 1
3 381 1
3 399 1
4 4 1
4 58 1
4 76 1
4 112 1
4 166 1
4 184 1
4 328 1
4 382 1
4 400 1
5 5 1
5 59 1
5 77 1
5 113 1
5 167 1
5 185 1
5 329 1
5 383 1
5 401 1
6 6 1
6 60 1
6 78 1
6 114 1
6 168 1
6 186 1
6 330 1
6 384 1
6 402 1
7 7 1
7 61 1
7 79 1
7 115 1
7 169 1
7 187 1
7 331 1
7 385 1
7 403 1
8 8 1
8 62 1
8 80 1
8 116 1
8 170 1
8 188 1
8 332 1
8 386 1
8 404 1
9 9 1
9 63 1
9 81 1
9 117 1
9 171 1
9 189 1
9 333 1
9 387 1
9 405 1
10 10 1
10 64 1
10 82 1
10 118 1
10 172 1
10 190 1
10 334 1
10 388 1
10 406 1
11 11 1
11 65 1
11 83 1
11 119 1
11 173 1
11 191 1
11 335 1
11 389 1
11 407 1
12 12 1
12 66 1
12 84 1
12 120 1
12 174 1
12 192 1
12 336 1
12 390 1
12 408 1
13 13 1
13 67 1
13 85 1
13 121 1
13 175 1
13 193 1
13 337 1
13 391 1
13 409 1
14 14 1
14 68 1
14 86 1
14 122 1
14 176 1
14 194 1
14 338 1
14 392 1
14 410 1
15 15 1
15 69 1
15 87 1
15 123 1
15 177 1
15 195 1
15 339 1
15 393 1
15 411 1
16 16 1
16 70 1
16 88 1
16 124 1
16 178 1
16 196 1
16 340 1
16 394 1
16 412 1
17 17 1
17 71 1
17 89 1
17 125 1
17 179 1
17 197 1
17 341 1
17 395 1
17 413 1
18 18 1
18 72 1
18 90 1
18 126 1
18 180 1
18 198 1
18 342 1
18 396 1
18 414 1
19 19 1
19 55 1
19 91 1
19 127 1
19 163 1
19 199 1
19 343 1
19 379 1
19 415 1
20 20 1
20 56 1
20 92 1
20 128 1
20 164 1
20 200 1
20 344 1
20 380 1
20 416 1
21 21 1
21 57 1
21 93 1
21 129 1
21 165 1
21 201 1
21 345 1
21 381 1
21 417 1
22 22 1
22 58 1
22 94 1
22 130 1
22 166 1
22 202 1
22 346 1
22 382 1
22 418 1
23 23 1
23 59 1
23 95 1
23 131 1
23 167 1
23 203 1
23 347 1
23 383 1
23 419 1
24 24 1
24 60 1
24 96 1
24 132 1
24 168 1
24 204 1
24 348 1
24 384 1
24 420 1
25 25 1
25 61 1
25 97 1
25 133 1
25 169 1
25 205 1
25 349 1
25 385 1
25 421 1
26 26 1
26 62 1
26 98 1
26 134 1
26 170 1
26 206 1
26 350 1
26 386 1
26 422 1
27 27 1
27 63 1
27 99 1
27 135 1
27 171 1
27 207 1
27 351 1
27 387 1
27 423 1
28 28 1
28 64 1
28 100 1
28 136 1
28 172 1
28 208 1
28 352 1
28 388 1
28 424 1
29 29 1
29 65 1
29 101 1
29 137 1
29 173 1
29 209 1
29 353 1
29 389 1
29 425 1
30 30 1
30 66 1
30 102 1
30 138 1
30 174 1
30 210 1
30 354 1
30 390 1
30 426 1
31 31 1
31 67 1
31 103 1
31 139 1
31 175 1
31 211 1
31 355 1
31 391 1
31 427 1
32 32 1
32 68 1
32 104 1
32 140 1
32 176 1
32 212 1
32 356 1
32 392 1
32 428 1
33 33 1
33 69 1
33 105 1
33 141 1
33 177 1
33 213 1
33 357 1
33 393 1
33 429 1
34 34 1
34 70 1
34 106 1
34 142 1
34 178 1
34 214 1
34 358 1
34 394 1
34 430 1
35 35 1
35 71 1
35 107 1
35 143 1
35 179 1
35 215 1
35 359 1
35 395 1
35 431 1
36 36 1
36 72 1
36 108 1
36 144 1
36 180 1
36 216 1
36 360 1
36 396 1
36 432 1
37 37 1
37 73 1
37 91 1
37 145 1
37 181 1
37 199 1
37 361 1
37 397 1
37 415 1
38 38 1
38 74 1
38 92 1
38 146 1
38 182 1
38 200 1
38 362 1
38 398 1
38 416 1
39 39 1
39 75 1
39 93 1
39 147 1
39 183 1
39 201 1
39 363 1
39 399 1
39 417 1
40 40 1
40 76 1
40 94 1
40 148 1
40 184 1
40 202 1
40 364 1
40 400 1
40 418 1
41 41 1
41 77 1
41 95 1
41 149 1
41 185 1
41 203 1
41 365 1
41 401 1
41 419 1
42 42 1
42 78 1
42 96 1
42 150 1
42 186 1
42 204 1
42 366 1
42 402 1
42 420 1
43 43 1
43 79 1
43 97 1
43 151 1
43 187 1
43 205 1
43 367 1
43 403 1
43 421 1
44 44 1
44 80 1
44 98 1
44 152 1
44 188 1
44 206 1
44 368 1
44 404 1
44 422 1
45 45 1
45 81 1
45 99 1
45 153 1
45 189 1
45 207 1
45 369 1
45 405 1
45 423 1
46 46 1
46 82 1
46 100 1
46 154 1
46 190 1
46 208 1
46 370 1
46 406 1
46 424 1
47 47 1
47 83 1
47 101 1
47 155 1
47 191 1
47 209 1
47 371 1
47 407 1
47 425 1
48 48 1
48 84 1
48 102 1
48 156 1
48 192 1
48 210 1
48 372 1
48 408 1
48 426 1
49 49 1
49 85 1
49 103 1
49 157 1
49 193 1
49 211 1
49 373 1
49 409 1
49 427 1
50 50 1
50 86 1
50 104 1
50 158 1
50 194 1
50 212 1
50 374 1
50 410 1
50 428 1
51 51 1
51 87 1
51 105 1
51 159 1
51 195 1
51 213 1
51 375 1
51 411 1
51 429 1
52 52 1
52 88 1
52 106 1
52 160 1
52 196 1
52 214 1
52 376 1
52 412 1
52 430 1
53 53 1
53 89 1
53 107 1
53 161 1
53 197 1
53 215 1
53 377 1
53 413 1
53 431 1
54 54 1
54 90 1
54 108 1
54 162 1
54 198 1
54 216 1
54 378 1
54 414 1
54 432 1
55 1 1
55 55 1
55 73 1
55 217 1
55 271 1
55 289 1
55 433 1
55 487 1
55 505 1
56 2 1
56 56 1
56 74 1
56 218 1
56 272 1
56 290 1
56 434 1
56 488 1
56 506 1
57 3 1
57 57 1
57 75 1
57 219 1
57 273 1
57 291 1
57 435 1
57 489 1
57 507 1
58 4 1
58 58 1
58 76 1
58 220 1
58 274 1
58 292 1
58 436 1
58 490 1
58 508 1
59 5 1
59 59 1
59 77 1
59 221 1
59 275 1
59 293 1
59 437 1
59 491 1
59 509 1
60 6 1
60 60 1
60 78 1
60 222 1
60 276 1
60 294 1
60 438 1
60 492 1
60 510 1
61 7 1
61 61 1
61 79 1
61 223 1
61 277 1
61 295 1
61 439 1
61 493 1
61 511 1
62 8 1
62 62 1
62 80 1
62 224 1
62 278 1
62 296 1
62 440 1
62 494 1
62 512 1
63 9 1
63 63 1
63 81 1
63 225 1
63 279 1
63 297 1
63 441 1
63 495 1
63 513 1
64 10 1
64 64 1
64 82 1
64 226 1
64 280 1
64 298 1
64 442 1
64 496 1
64 514 1
65 11 1
65 65 1
65 83 1
65 227 1
65 281 1
65 299 1
65 443 1
65 497 1
65 515 1
66 12 1
66 66 1
66 84 1
66 228 1
66 282 1
66 300 1
66 444 1
66 498 1
66 516 1
67 13 1
67 67 1
67 85 1
67 229 1
67 283 1
67 301 1
67 445 1
67 499 1
67 517 1
68 14 1
68 68 1
68 86 1
68 230 1
68 284 1
68 302 1
68 446 1
68 500 1
68 518 1
69 15 1
69 69 1
69 87 1
69 231 1
69 285 1
69 303 1
69 447 1
69 501 1
69 519 1
70 16 1
70 70 1
70 88 1
70 232 1
70 286 1
70 304 1
70 448 1
70 502 1
70 520 1
71 17 1
71 71 1
71 89 1
71 233 1
71 287 1
71 305 1
71 449 1
71 503 1
71 521 1
72 18 1
72 72 1
72 90 1
72 234 1
72 288 1
72 306 1
72 450 1
72 504 1
72 522 1
73 19 1
73 55 1
73 91 1
73 235 1
73 271 1
73 307 1
73 451 1
73 487 1
73 523 1
74 20 1
74 56 1
74 92 1
74 236 1
74 272 1
74 308 1
74 452 1
74 488 1
74 524 1
75 21 1
75 57 1
75 93 1
75 237 1
75 273 1
75 309 1
75 453 1
75 489 1
75 525 1
76 22 1
76 58 1
76 94 1
76 238 1
76 274 1
76 310 1
76 454 1
76 490 1
76 526 1
77 23 1
77 59 1
77 95 1
77 239 1
77 275 1
77 311 1
77 455 1
77 491 1
77 527 1
78 24 1
78 60 1
78 96 1
78 240 1
78 276 1
78 312 1
78 456 1
78 492 1
78 528 1
79 25 1
79 61 1
79 97 1
79 241 1
79 277 1
79 313 1
79 457 1
79 493 1
79 529 1
80 26 1
80 62 1
80 98 1
80 242 1
80 278 1
80 314 1
80 458 1
80 494 1
80 530 1
81 27 1
81 63 1
81 99 1
81 243 1
81 279 1
81 315 1
81 459 1
81 495 1
81 531 1
82 28 1
82 64 1
82 100 1
82 244 1
82 280 1
82 316 1
82 460 1
82 496 1
82 532 1
83 29 1
83 65 1
83 101 1
83 245 1
83 281 1
83 317 1
83 461 1
83 497 1
83 533 1
84 30 1
84 66 1
84 102 1
84 246 1
84 282 1
84 318 1
84 462 1
84 498 1
84 534 1
85 31 1
85 67 1
85 103 1
85 247 1
85 283 1
85 319 1
85 463 1
85 499 1
85 535 1
86 32 1
86 68 1
86 104 1
86 248 1
86 284 1
86 320 1
86 464 1
86 500 1
86 536 1
87 33 1
87 69 1
87 105 1
87 249 1
87 285 1
87 321 1
87 465 1
87 501 1
87 537 1
88 34 1
88 70 1
88 106 1
88 250 1
88 286 1
88 322 1
88 466 1
88 502 1
88 538 1
89 35 1
89 71 1
89 107 1
89 251 1
89 287 1
89 323 1
89 467 1
89 503 1
89 539 1
90 36 1
90 72 1
90 108 1
90 252 1
90 288 1
90 324 1
90 468 1
90 504 1
90 540 1
91 37 1
91 73 1
91 91 1
91 253 1
91 289 1
91 307 1
91 469 1
91 505 1
91 523 1
92 38 1
92 74 1
92 92 1
92 254 1
92 290 1
92 308 1
92 470 1
92 506 1
92 524 1
93 39 1
93 75 1
93 93 1
93 255 1
93 291 1
93 309 1
93 471 1
93 507 1
93 525 1
94 40 1
94 76 1
94 94 1
94 256 1
94 292 1
94 310 1
94 472 1
94 508 1
94 526 1
95 41 1
95 77 1
95 95 1
95 257 1
95 293 1
95 311 1
95 473 1
95 509 1
95 527 1
96 42 1
96 78 1
96 96 1
96 258 1
96 294 1
96 312 1
96 474 1
96 510 1
96 528 1
97 43 1
97 79 1
97 97 1
97 259 1
97 295 1
97 313 1
97 475 1
97 511 1
97 529 1
98 44 1
98 80 1
98 98 1
98 260 1
98 296 1
98 314 1
98 476 1
98 512 1
98 530 1
99 45 1
99 81 1
99 99 1
99 261 1
99 297 1
99 315 1
99 477 1
99 513 1
99 531 1
100 46 1
100 82 1
100 100 1
100 262 1
100 298 1
100 316 1
100 478 1
100 514 1
100 532 1
101 47 1
101 83 1
101 101 1
101 263 1
101 299 1
101 317 1
101 479 1
101 515 1
101 533 1
102 48 1
102 84 1
102 102 1
102 264 1
102 300 1
102 318 1
102 480 1
102 516 1
102 534 1
103 49 1
103 85 1
103 103 1
103 265 1
103 301 1
103 319 1
103 481 1
103 517 1
103 535 1
104 50 1
104 86 1
104 104 1
104 266 1
104 302 1
104 320 1
104 482 1
104 518 1
104 536 1
105 51 1
105 87 1
105 105 1
105 267 1
105 303 1
105 321 1
105 483 1
105 519 1
105 537 1
106 52 1
106 88 1
106 106 1
106 268 1
106 304 1
106 322 1
106 484 1
106 520 1
106 538 1
107 53 1
107 89 1
107 107 1
107 269 1
107 305 1
107 323 1
107 485 1
107 521 1
107 539 1
108 54 1
108 90 1
108 108 1
108 270 1
108 306 1
108 324 1
108 486 1
108 522 1
108 540 1
109 109 1
109 163 1
109 181 1
109 217 1
109 271 1
109 289 1
109 541 1
109 595 1
109 613 1
110 110 1
110 164 1
110 182 1
110 218 1
110 272 1
110 290 1
110 542 1
110 596 1
110 614 1
111 111 1
111 165 1
111 183 1
111 219 1
111 273 1
111 291 1
111 543 1
111 597 1
111 615 1
112 112 1
112 166 1
112 184 1
112 220 1
112 274 1
112 292 1
112 544 1
112 598 1
112 616 1
113 113 1
113 167 1
113 185 1
113 221 1
113 275 1
113 293 1
113 545 1
113 599 1
113 617 1
114 114 1
114 168 1
114 186 1
114 222 1
114 276 1
114 294 1
114 546 1
114 600 1
114 618 1
115 115 1
115 169 1
115 187 1
115 223 1
115 277 1
115 295 1
115 547 1
115 601 1
115 619 1
116 116 1
116 170 1
116 188 1
116 224 1
116 278 1
116 296 1
116 548 1
116 602 1
116 620 1
117 117 1
117 171 1
117 189 1
117 225 1
117 279 1
117 297 1
117 549 1
117 603 1
117 621 1
118 118 1
118 172 1
118 190 1
118 226 1
118 280 1
118 298 1
118 550 1
118 604 1
118 622 1
119 119 1
119 173 1
119 191 1
119 227 1
119 281 1
119 299 1
119 551 1
119 605 1
119 623 1
120 120 1
120 174 1
120 192 1
120 228 1
120 282 1
120 300 1
120 552 1
120 606 1
120 624 1
121 121 1
121 175 1
121 193 1
121 229 1
121 283 1
121 301 1
121 553 1
121 607 1
121 625 1
122 122 1
122 176 1
122 194 1
122 230 1
122 284 1
122 302 1
122 554 1
122 608 1
122 626 1
123 123 1
123 177 1
123 195 1
123 231 1
123 285 1
123 303 1
123 555 1
123 609 1
123 627 1
124 124 1
124 178 1
124 196 1
124 232 1
124 286 1
124 304 1
124 556 1
124 610 1
124 628 1
125 125 1
125 179 1
125 197 1
125 233 1
125 287 1
125 305 1
125 557 1
125 611 1
125 629 1
126 126 1
126 180 1
126 198 1
126 234 1
126 288 1
126 306 1
126 558 1
126 612 1
126 630 1
127 127 1
127 163 1
127 199 1
127 235 1
127 271 1
127 307 1
127 559 1
127 595 1
127 631 1
128 128 1
128 164 1
128 200 1
128 236 1
128 272 1
128 308 1
128 560 1
128 596 1
128 632 1
129 129 1
129 165 1
129 201 1
129 237 1
129 273 1
129 309 1
129 561 1
129 597 1
129 633 1
130 130 1
130 166 1
130 202 1
130 238 1
130 274 1
130 310 1
130 562 1
130 598 1
130 634 1
131 131 1
131 167 1
131 203 1
131 239 1
131 275 1
131 311 1
131 563 1
131 599 1
131 635 1
132 132 1
132 168 1
132 204 1
132 240 1
132 276 1
132 312 1
132 564 1
132 600 1
132 636 1
133 133 1
133 169 1
133 205 1
133 241 1
133 277 1
133 313 1
133 565 1
133 601 1
133 637 1
134 134 1
134 170 1
134 206 1
134 242 1
134 278 1
134 314 1
134 566 1
134 602 1
134 638 1
135 135 1
135 171 1
135 207 1
135 243 1
135 279 1
135 315 1
135 567 1
135 603 1
135 639 1
136 136 1
136 172 1
136 208 1
136 244 1
136 280 1
136 316 1
136 568 1
136 604 1
136 640 1
137 137 1
137 173 1
137 209 1
137 245 1
137 281 1
137 317 1
137 569 1
137 605 1
137 641 1
138 138 1
138 174 1
138 210 1
138 246 1
138 282 1
138 318 1
138 570 1
138 606 1
138 642 1
139 139 1
139 175 1
139 211 1
139 247 1
139 283 1
139 319 1
139 571 1
139 607 1
139 643 1
140 140 1
140 176 1
140 212 1
140 248 1
140 284 1
140 320 1
140 572 1
140 608 1
140 644 1
141 141 1
141 177 1
141 213 1
141 249 1
141 285 1
141 321 1
141 573 1
141 609 1
141 645 1
142 142 1
142 178 1
142 214 1
142 250 1
142 286 1
142 322 1
142 574 1
142 610 1
142 646 1
143 143 1
143 179 1
143 215 1
143 251 1
143 287 1
143 323 1
143 575 1
143 611 1
143 647 1
144 144 1
144 180 1
144 216 1
144 252 1
144 288 1
144 324 1
144 576 1
144 612 1
144 648 1
145 145 1
145 181 1
145 199 1
145 253 1
145 289 1
145 307 1
145 577 1
145 613 1
145 631 1
146 146 1
146 182 1
146 200 1
146 254 1
146 290 1
146 308 1
146 578 1
146 614 1
146 632 1
147 147 1
147 183 1
147 201 1
147 255 1
147 291 1
147 309 1
147 579 1
147 615 1
147 633 1
148 148 1
148 184 1
148 202 1
148 256 1
148 292 1
148 310 1
148 580 1
148 616 1
148 634 1
149 149 1
149 185 1
149 203 1
149 257 1
149 293 1
149 311 1
149 581 1
149 617 1
149 635 1
150 150 1
150 186 1
150 204 1
150 258 1
150 294 1
150 312 1
150 582 1
150 618 1
150 636 1
151 151 1
151 187 1
151 205 1
151 259 1
151 295 1
151 313 1
151 583 1
151 619 1
151 637 1
152 152 1
152 188 1
152 206 1
152 260 1
152 296 1
152 314 1
152 584 1
152 620 1
152 638 1
153 153 1
153 189 1
153 207 1
153 261 1
153 297 1
153 315 1
153 585 1
153 621 1
153 639 1
154 154 1
154 190 1
154 208 1
154 262 1
154 298 1
154 316 1
154 586 1
154 622 1
154 640 1
155 155 1
155 191 1
155 209 1
155 263 1
155 299 1
155 317 1
155 587 1
155 623 1
155 641 1
156 156 1
156 192 1
156 210 1
156 264 1
156 300 1
156 318 1
156 588 1
156 624 1
156 642 1
157 157 1
157 193 1
157 211 1
157 265 1
157 301 1
157 319 1
157 589 1
157 625 1
157 643 1
158 158 1
158 194 1
158 212 1
158 266 1
158 302 1
158 320 1
158 590 1
158 626 1
158 644 1
159 159 1
159 195 1
159 213 1
159 267 1
159 303 1
159 321 1
159 591 1
159 627 1
159 645 1
160 160 1
160 196 1
160 214 1
160 268 1
160 304 1
160 322 1
160 592 1
160 628 1
160 646 1
161 161 1
161 197 1
161 215 1
161 269 1
161 305 1
161 323 1
161 593 1
161 629 1
161 647 1
162 162 1
162 198 1
162 216 1
162 270 1
162 306 1
162 324 1
162 594 1
162 630 1
162 648 1
163 1 1
163 80 1
163 106 1
163 115 1
163 189 1
163 213 1
163 225 1
163 291 1
163 311 1
164 2 1
164 83 1
164 104 1
164 124 1
164 190 1
164 199 1
164 222 1
164 304 1
164 314 1
165 3 1
165 85 1
165 102 1
165 112 1
165 194 1
165 209 1
165 230 1
165 295 1
165 308 1
166 4 1
166 86 1
166 101 1
166 121 1
166 181 1
166 208 1
166 217 1
166 296 1
166 322 1
167 5 1
167 87 1
167 99 1
167 126 1
167 186 1
167 215 1
167 227 1
167 306 1
167 310 1
168 6 1
168 88 1
168 98 1
168 113 1
168 195 1
168 207 1
168 228 1
168 293 1
168 309 1
169 7 1
169 81 1
169 105 1
169 116 1
169 197 1
169 204 1
169 233 1
169 292 1
169 324 1
170 8 1
170 89 1
170 96 1
170 117 1
170 183 1
170 203 1
170 219 1
170 301 1
170 318 1
171 9 1
171 75 1
171 95 1
171 125 1
171 184 1
171 216 1
171 220 1
171 302 1
171 317 1
172 10 1
172 84 1
172 103 1
172 110 1
172 191 1
172 212 1
172 231 1
172 290 1
172 313 1
173 11 1
173 90 1
173 94 1
173 118 1
173 192 1
173 211 1
173 232 1
173 298 1
173 307 1
174 12 1
174 77 1
174 93 1
174 119 1
174 198 1
174 202 1
174 218 1
174 299 1
174 320 1
175 13 1
175 73 1
175 100 1
175 122 1
175 187 1
175 200 1
175 223 1
175 297 1
175 321 1
176 14 1
176 79 1
176 92 1
176 109 1
176 188 1
176 214 1
176 224 1
176 305 1
176 312 1
177 15 1
177 74 1
177 97 1
177 114 1
177 196 1
177 206 1
177 234 1
177 294 1
177 323 1
178 16 1
178 82 1
178 91 1
178 123 1
178 182 1
178 205 1
178 221 1
178 303 1
178 315 1
179 17 1
179 76 1
179 108 1
179 111 1
179 193 1
179 210 1
179 229 1
179 289 1
179 316 1
180 18 1
180 78 1
180 107 1
180 120 1
180 185 1
180 201 1
180 226 1
180 300 1
180 319 1
181 23 1
181 40 1
181 106 1
181 144 1
181 157 1
181 213 1
181 245 1
181 253 1
181 311 1
182 21 1
182 42 1
182 104 1
182 130 1
182 149 1
182 199 1
182 248 1
182 264 1
182 314 1
183 20 1
183 44 1
183 102 1
183 142 1
183 153 1
183 209 1
183 240 1
183 255 1
183 308 1
184 34 1
184 45 1
184 101 1
184 141 1
184 161 1
184 208 1
184 239 1
184 256 1
184 322 1
185 19 1
185 47 1
185 99 1
185 133 1
185 154 1
185 215 1
185 243 1
185 268 1
185 310 1
186 32 1
186 48 1
186 98 1
186 127 1
186 155 1
186 207 1
186 242 1
186 254 1
186 309 1
187 36 1
187 49 1
187 105 1
187 138 1
187 158 1
187 204 1
187 244 1
187 259 1
187 324 1
188 30 1
188 50 1
188 96 1
188 137 1
188 145 1
188 203 1
188 236 1
188 260 1
188 318 1
189 29 1
189 37 1
189 95 1
189 136 1
189 151 1
189 216 1
189 250 1
189 261 1
189 317 1
190 35 1
190 51 1
190 103 1
190 129 1
190 150 1
190 212 1
190 247 1
190 270 1
190 313 1
191 27 1
191 52 1
191 94 1
191 143 1
191 159 1
191 211 1
191 238 1
191 257 1
191 307 1
192 26 1
192 38 1
192 93 1
192 135 1
192 160 1
192 202 1
192 237 1
192 258 1
192 320 1
193 33 1
193 53 1
193 100 1
193 132 1
193 147 1
193 200 1
193 252 1
193 265 1
193 321 1
194 24 1
194 39 1
194 92 1
194 131 1
194 148 1
194 214 1
194 246 1
194 266 1
194 312 1
195 31 1
195 54 1
195 97 1
195 140 1
195 156 1
195 206 1
195 241 1
195 262 1
195 323 1
196 22 1
196 41 1
196 91 1
196 139 1
196 162 1
196 205 1
196 235 1
196 263 1
196 315 1
197 28 1
197 43 1
197 108 1
197 128 1
197 152 1
197 210 1
197 249 1
197 269 1
197 316 1
198 25 1
198 46 1
198 107 1
198 134 1
198 146 1
198 201 1
198 251 1
198 267 1
198 319 1
199 40 1
199 66 1
199 80 1
199 157 1
199 173 1
199 189 1
199 253 1
199 272 1
199 291 1
200 42 1
200 63 1
200 83 1
200 149 1
200 179 1
200 190 1
200 264 1
200 274 1
200 304 1
201 44 1
201 69 1
201 85 1
201 153 1
201 168 1
201 194 1
201 255 1
201 288 1
201 295 1
202 45 1
202 60 1
202 86 1
202 161 1
202 167 1
202 181 1
202 256 1
202 282 1
202 296 1
203 47 1
203 67 1
203 87 1
203 154 1
203 176 1
203 186 1
203 268 1
203 277 1
203 306 1
204 48 1
204 58 1
204 88 1
204 155 1
204 175 1
204 195 1
204 254 1
204 271 1
204 293 1
205 49 1
205 65 1
205 81 1
205 158 1
205 172 1
205 197 1
205 259 1
205 286 1
205 292 1
206 50 1
206 64 1
206 89 1
206 145 1
206 164 1
206 183 1
206 260 1
206 285 1
206 301 1
207 37 1
207 56 1
207 75 1
207 151 1
207 178 1
207 184 1
207 261 1
207 276 1
207 302 1
208 51 1
208 62 1
208 84 1
208 150 1
208 171 1
208 191 1
208 270 1
208 273 1
208 290 1
209 52 1
209 61 1
209 90 1
209 159 1
209 170 1
209 192 1
209 257 1
209 287 1
209 298 1
210 38 1
210 55 1
210 77 1
210 160 1
210 169 1
210 198 1
210 258 1
210 279 1
210 299 1
211 53 1
211 59 1
211 73 1
211 147 1
211 180 1
211 187 1
211 265 1
211 281 1
211 297 1
212 39 1
212 72 1
212 79 1
212 148 1
212 174 1
212 188 1
212 266 1
212 280 1
212 305 1
213 54 1
213 57 1
213 74 1
213 156 1
213 166 1
213 196 1
213 262 1
213 284 1
213 294 1
214 41 1
214 71 1
214 82 1
214 162 1
214 165 1
214 182 1
214 263 1
214 283 1
214 303 1
215 43 1
215 70 1
215 76 1
215 152 1
215 177 1
215 193 1
215 269 1
215 275 1
215 289 1
216 46 1
216 68 1
216 78 1
216 146 1
216 163 1
216 185 1
216 267 1
216 278 1
216 300 1
217 1 1
217 80 1
217 106 1
217 336 1
217 401 1
217 417 1
217 447 1
217 506 1
217 529 1
218 2 1
218 83 1
218 104 1
218 328 1
218 410 1
218 425 1
218 440 1
218 521 1
218 528 1
219 3 1
219 85 1
219 102 1
219 340 1
219 406 1
219 415 1
219 444 1
219 509 1
219 525 1
220 4 1
220 86 1
220 101 1
220 326 1
220 407 1
220 428 1
220 450 1
220 510 1
220 539 1
221 5 1
221 87 1
221 99 1
221 332 1
221 413 1
221 420 1
221 445 1
221 505 1
221 532 1
222 6 1
222 88 1
222 98 1
222 333 1
222 399 1
222 419 1
222 446 1
222 511 1
222 524 1
223 7 1
223 81 1
223 105 1
223 342 1
223 402 1
223 431 1
223 448 1
223 514 1
223 523 1
224 8 1
224 89 1
224 96 1
224 329 1
224 411 1
224 423 1
224 434 1
224 515 1
224 536 1
225 9 1
225 75 1
225 95 1
225 330 1
225 412 1
225 422 1
225 442 1
225 516 1
225 535 1
226 10 1
226 84 1
226 103 1
226 337 1
226 397 1
226 424 1
226 441 1
226 507 1
226 527 1
227 11 1
227 90 1
227 94 1
227 338 1
227 403 1
227 416 1
227 449 1
227 508 1
227 540 1
228 12 1
228 77 1
228 93 1
228 325 1
228 404 1
228 430 1
228 435 1
228 517 1
228 534 1
229 13 1
229 73 1
229 100 1
229 334 1
229 408 1
229 427 1
229 437 1
229 519 1
229 531 1
230 14 1
230 79 1
230 92 1
230 335 1
230 414 1
230 418 1
230 438 1
230 520 1
230 530 1
231 15 1
231 74 1
231 97 1
231 341 1
231 400 1
231 432 1
231 433 1
231 512 1
231 538 1
232 16 1
232 82 1
232 91 1
232 327 1
232 409 1
232 426 1
232 439 1
232 513 1
232 537 1
233 17 1
233 76 1
233 108 1
233 339 1
233 398 1
233 421 1
233 443 1
233 522 1
233 526 1
234 18 1
234 78 1
234 107 1
234 331 1
234 405 1
234 429 1
234 436 1
234 518 1
234 533 1
235 23 1
235 40 1
235 106 1
235 350 1
235 362 1
235 417 1
235 463 1
235 486 1
235 529 1
236 21 1
236 42 1
236 104 1
236 358 1
236 369 1
236 425 1
236 462 1
236 482 1
236 528 1
237 20 1
237 44 1
237 102 1
237 346 1
237 365 1
237 415 1
237 458 1
237 470 1
237 525 1
238 34 1
238 45 1
238 101 1
238 345 1
238 366 1
238 428 1
238 457 1
238 478 1
238 539 1
239 19 1
239 47 1
239 99 1
239 354 1
239 374 1
239 420 1
239 465 1
239 485 1
239 532 1
240 32 1
240 48 1
240 98 1
240 353 1
240 361 1
240 419 1
240 456 1
240 471 1
240 524 1
241 36 1
241 49 1
241 105 1
241 349 1
241 370 1
241 431 1
241 454 1
241 473 1
241 523 1
242 30 1
242 50 1
242 96 1
242 343 1
242 371 1
242 423 1
242 453 1
242 474 1
242 536 1
243 29 1
243 37 1
243 95 1
243 356 1
243 372 1
243 422 1
243 467 1
243 483 1
243 535 1
244 35 1
244 51 1
244 103 1
244 357 1
244 377 1
244 424 1
244 461 1
244 469 1
244 527 1
245 27 1
245 52 1
245 94 1
245 348 1
245 363 1
245 416 1
245 460 1
245 475 1
245 540 1
246 26 1
246 38 1
246 93 1
246 347 1
246 364 1
246 430 1
246 452 1
246 476 1
246 534 1
247 33 1
247 53 1
247 100 1
247 359 1
247 375 1
247 427 1
247 451 1
247 479 1
247 531 1
248 24 1
248 39 1
248 92 1
248 351 1
248 376 1
248 418 1
248 464 1
248 480 1
248 530 1
249 31 1
249 54 1
249 97 1
249 352 1
249 367 1
249 432 1
249 455 1
249 472 1
249 538 1
250 22 1
250 41 1
250 91 1
250 344 1
250 368 1
250 426 1
250 468 1
250 481 1
250 537 1
251 28 1
251 43 1
251 108 1
251 355 1
251 378 1
251 421 1
251 459 1
251 484 1
251 526 1
252 25 1
252 46 1
252 107 1
252 360 1
252 373 1
252 429 1
252 466 1
252 477 1
252 533 1
253 40 1
253 66 1
253 80 1
253 362 1
253 379 1
253 401 1
253 486 1
253 489 1
253 506 1
254 42 1
254 63 1
254 83 1
254 369 1
254 384 1
254 410 1
254 482 1
254 496 1
254 521 1
255 44 1
255 69 1
255 85 1
255 365 1
255 395 1
255 406 1
255 470 1
255 487 1
255 509 1
256 45 1
256 60 1
256 86 1
256 366 1
256 387 1
256 407 1
256 478 1
256 500 1
256 510 1
257 47 1
257 67 1
257 87 1
257 374 1
257 388 1
257 413 1
257 485 1
257 491 1
257 505 1
258 48 1
258 58 1
258 88 1
258 361 1
258 380 1
258 399 1
258 471 1
258 504 1
258 511 1
259 49 1
259 65 1
259 81 1
259 370 1
259 392 1
259 402 1
259 473 1
259 503 1
259 514 1
260 50 1
260 64 1
260 89 1
260 371 1
260 391 1
260 411 1
260 474 1
260 495 1
260 515 1
261 37 1
261 56 1
261 75 1
261 372 1
261 382 1
261 412 1
261 483 1
261 494 1
261 516 1
262 51 1
262 62 1
262 84 1
262 377 1
262 383 1
262 397 1
262 469 1
262 488 1
262 507 1
263 52 1
263 61 1
263 90 1
263 363 1
263 396 1
263 403 1
263 475 1
263 502 1
263 508 1
264 38 1
264 55 1
264 77 1
264 364 1
264 390 1
264 404 1
264 476 1
264 501 1
264 517 1
265 53 1
265 59 1
265 73 1
265 375 1
265 386 1
265 408 1
265 479 1
265 499 1
265 519 1
266 39 1
266 72 1
266 79 1
266 376 1
266 385 1
266 414 1
266 480 1
266 490 1
266 520 1
267 54 1
267 57 1
267 74 1
267 367 1
267 394 1
267 400 1
267 472 1
267 498 1
267 512 1
268 41 1
268 71 1
268 82 1
268 368 1
268 393 1
268 409 1
268 481 1
268 497 1
268 513 1
269 43 1
269 70 1
269 76 1
269 378 1
269 381 1
269 398 1
269 484 1
269 493 1
269 522 1
270 46 1
270 68 1
270 78 1
270 373 1
270 389 1
270 405 1
270 477 1
270 492 1
270 518 1
271 115 1
271 189 1
271 213 1
271 447 1
271 506 1
271 529 1
271 557 1
271 616 1
271 648 1
272 124 1
272 190 1
272 199 1
272 440 1
272 521 1
272 528 1
272 545 1
272 627 1
272 639 1
273 112 1
273 194 1
273 209 1
273 444 1
273 509 1
273 525 1
273 541 1
273 620 1
273 646 1
274 121 1
274 181 1
274 208 1
274 450 1
274 510 1
274 539 1
274 547 1
274 621 1
274 645 1
275 126 1
275 186 1
275 215 1
275 445 1
275 505 1
275 532 1
275 550 1
275 624 1
275 643 1
276 113 1
276 195 1
276 207 1
276 446 1
276 511 1
276 524 1
276 551 1
276 630 1
276 634 1
277 116 1
277 197 1
277 204 1
277 448 1
277 514 1
277 523 1
277 543 1
277 625 1
277 642 1
278 117 1
278 183 1
278 203 1
278 434 1
278 515 1
278 536 1
278 544 1
278 626 1
278 641 1
279 125 1
279 184 1
279 216 1
279 442 1
279 516 1
279 535 1
279 553 1
279 613 1
279 640 1
280 110 1
280 191 1
280 212 1
280 441 1
280 507 1
280 527 1
280 546 1
280 628 1
280 638 1
281 118 1
281 192 1
281 211 1
281 449 1
281 508 1
281 540 1
281 555 1
281 614 1
281 637 1
282 119 1
282 198 1
282 202 1
282 435 1
282 517 1
282 534 1
282 556 1
282 622 1
282 631 1
283 122 1
283 187 1
283 200 1
283 437 1
283 519 1
283 531 1
283 548 1
283 629 1
283 636 1
284 109 1
284 188 1
284 214 1
284 438 1
284 520 1
284 530 1
284 549 1
284 615 1
284 635 1
285 114 1
285 196 1
285 206 1
285 433 1
285 512 1
285 538 1
285 552 1
285 617 1
285 633 1
286 123 1
286 182 1
286 205 1
286 439 1
286 513 1
286 537 1
286 558 1
286 618 1
286 647 1
287 111 1
287 193 1
287 210 1
287 443 1
287 522 1
287 526 1
287 554 1
287 619 1
287 632 1
288 120 1
288 185 1
288 201 1
288 436 1
288 518 1
288 533 1
288 542 1
288 623 1
288 644 1
289 144 1
289 157 1
289 213 1
289 463 1
289 486 1
289 529 1
289 568 1
289 583 1
289 648 1
290 130 1
290 149 1
290 199 1
290 462 1
290 482 1
290 528 1
290 559 1
290 587 1
290 639 1
291 142 1
291 153 1
291 209 1
291 458 1
291 470 1
291 525 1
291 563 1
291 580 1
291 646 1
292 141 1
292 161 1
292 208 1
292 457 1
292 478 1
292 539 1
292 576 1
292 589 1
292 645 1
293 133 1
293 154 1
293 215 1
293 465 1
293 485 1
293 532 1
293 575 1
293 591 1
293 643 1
294 127 1
294 155 1
294 207 1
294 456 1
294 471 1
294 524 1
294 567 1
294 592 1
294 634 1
295 138 1
295 158 1
295 204 1
295 454 1
295 473 1
295 523 1
295 560 1
295 584 1
295 642 1
296 137 1
296 145 1
296 203 1
296 453 1
296 474 1
296 536 1
296 574 1
296 585 1
296 641 1
297 136 1
297 151 1
297 216 1
297 467 1
297 483 1
297 535 1
297 573 1
297 593 1
297 640 1
298 129 1
298 150 1
298 212 1
298 461 1
298 469 1
298 527 1
298 572 1
298 588 1
298 638 1
299 143 1
299 159 1
299 211 1
299 460 1
299 475 1
299 540 1
299 571 1
299 594 1
299 637 1
300 135 1
300 160 1
300 202 1
300 452 1
300 476 1
300 534 1
300 562 1
300 581 1
300 631 1
301 132 1
301 147 1
301 200 1
301 451 1
301 479 1
301 531 1
301 570 1
301 590 1
301 636 1
302 131 1
302 148 1
302 214 1
302 464 1
302 480 1
302 530 1
302 569 1
302 577 1
302 635 1
303 140 1
303 156 1
303 206 1
303 455 1
303 472 1
303 538 1
303 566 1
303 578 1
303 633 1
304 139 1
304 162 1
304 205 1
304 468 1
304 481 1
304 537 1
304 565 1
304 586 1
304 647 1
305 128 1
305 152 1
305 210 1
305 459 1
305 484 1
305 526 1
305 564 1
305 579 1
305 632 1
306 134 1
306 146 1
306 201 1
306 466 1
306 477 1
306 533 1
306 561 1
306 582 1
306 644 1
307 157 1
307 173 1
307 189 1
307 486 1
307 489 1
307 506 1
307 583 1
307 610 1
307 616 1
308 149 1
308 179 1
308 190 1
308 482 1
308 496 1
308 521 1
308 587 1
308 607 1
308 627 1
309 153 1
309 168 1
309 194 1
309 470 1
309 487 1
309 509 1
309 580 1
309 606 1
309 620 1
310 161 1
310 167 1
310 181 1
310 478 1
310 500 1
310 510 1
310 589 1
310 605 1
310 621 1
311 154 1
311 176 1
311 186 1
311 485 1
311 491 1
311 505 1
311 591 1
311 602 1
311 624 1
312 155 1
312 175 1
312 195 1
312 471 1
312 504 1
312 511 1
312 592 1
312 601 1
312 630 1
313 158 1
313 172 1
313 197 1
313 473 1
313 503 1
313 514 1
313 584 1
313 609 1
313 625 1
314 145 1
314 164 1
314 183 1
314 474 1
314 495 1
314 515 1
314 585 1
314 600 1
314 626 1
315 151 1
315 178 1
315 184 1
315 483 1
315 494 1
315 516 1
315 593 1
315 599 1
315 613 1
316 150 1
316 171 1
316 191 1
316 469 1
316 488 1
316 507 1
316 588 1
316 598 1
316 628 1
317 159 1
317 170 1
317 192 1
317 475 1
317 502 1
317 508 1
317 594 1
317 597 1
317 614 1
318 160 1
318 169 1
318 198 1
318 476 1
318 501 1
318 517 1
318 581 1
318 611 1
318 622 1
319 147 1
319 180 1
319 187 1
319 479 1
319 499 1
319 519 1
319 590 1
319 604 1
319 629 1
320 148 1
320 174 1
320 188 1
320 480 1
320 490 1
320 520 1
320 577 1
320 596 1
320 615 1
321 156 1
321 166 1
321 196 1
321 472 1
321 498 1
321 512 1
321 578 1
321 595 1
321 617 1
322 162 1
322 165 1
322 182 1
322 481 1
322 497 1
322 513 1
322 586 1
322 608 1
322 618 1
323 152 1
323 177 1
323 193 1
323 484 1
323 493 1
323 522 1
323 579 1
323 612 1
323 619 1
324 146 1
324 163 1
324 185 1
324 477 1
324 492 1
324 518 1
324 582 1
324 603 1
324 623 1
