%%MatrixMarket matrix coordinate integer general
324 648 2916
1 1 1
1 55 1
1 73 1
1 109 1
1 163 1
1 181 1
1 325 1
1 379 1
1 397 1
2 2 1
2 56 1
2 74 1
2 110 1
2 164 1
2 182 1
2 326 1
2 380 1
2 398 1
3 3 1
3 57 1
3 75 1
3 111 1
3 165 1
3 183 1
3 327 1
3 381 1
3 399 1
4 4 1
4 58 1
4 76 1
4 112 1
4 166 1
4 184 1
4 328 1
4 382 1
4 400 1
5 5 1
5 59 1
5 77 1
5 113 1
5 167 1
5 185 1
5 329 1
5 383 1
5 401 1
6 6 1
6 60 1
6 78 1
6 114 1
6 168 1
6 186 1
6 330 1
6 384 1
6 402 1
7 7 1
7 61 1
7 79 1
7 115 1
7 169 1
7 187 1
7 331 1
7 385 1
7 403 1
8 8 1
8 62 1
8 80 1
8 116 1
8 170 1
8 188 1
8 332 1
8 386 1
8 404 1
9 9 1
9 63 1
9 81 1
9 117 1
9 171 1
9 189 1
9 333 1
9 387 1
9 405 1
10 10 1
10 64 1
10 82 1
10 118 1
10 172 1
10 190 1
10 334 1
10 388 1
10 406 1
11 11 1
11 65 1
11 83 1
11 119 1
11 173 1
11 191 1
11 335 1
11 389 1
11 407 1
12 12 1
12 66 1
12 84 1
12 120 1
12 174 1
12 192 1
12 336 1
12 390 1
12 408 1
13 13 1
13 67 1
13 85 1
13 121 1
13 175 1
13 193 1
13 337 1
13 391 1
13 409 1
14 14 1
14 68 1
14 86 1
14 122 1
14 176 1
14 194 1
14 338 1
14 392 1
14 410 1
15 15 1
15 69 1
15 87 1
15 123 1
15 177 1
15 195 1
15 339 1
15 393 1
15 411 1
16 16 1
16 70 1
16 88 1
16 124 1
16 178 1
16 196 1
16 340 1
16 394 1
16 412 1
17 17 1
17 71 1
17 89 1
17 125 1
17 179 1
17 197 1
17 341 1
17 395 1
17 413 1
18 18 1
18 72 1
18 90 1
18 126 1
18 180 1
18 198 1
18 342 1
18 396 1
18 414 1
19 19 1
19 55 1
19 91 1
19 127 1
19 163 1
19 199 1
19 343 1
19 379 1
19 415 1
20 20 1
20 56 1
20 92 1
20 128 1
20 164 1
20 200 1
20 344 1
20 380 1
20 416 1
21 21 1
21 57 1
21 93 1
21 129 1
21 165 1
21 201 1
21 345 1
21 381 1
21 417 1
22 22 1
22 58 1
22 94 1
22 130 1
22 166 1
22 202 1
22 346 1
22 382 1
22 418 1
23 23 1
23 59 1
23 95 1
23 131 1
23 167 1
23 203 1
23 347 1
23 383 1
23 419 1
24 24 1
24 60 1
24 96 1
24 132 1
24 168 1
24 204 1
24 348 1
24 384 1
24 420 1
25 25 1
25 61 1
25 97 1
25 133 1
25 169 1
25 205 1
25 349 1
25 385 1
25 421 1
26 26 1
26 62 1
26 98 1
26 134 1
26 170 1
26 206 1
26 350 1
26 386 1
26 422 1
27 27 1
27 63 1
27 99 1
27 135 1
27 171 1
27 207 1
27 351 1
27 387 1
27 423 1
28 28 1
28 64 1
28 100 1
28 136 1
28 172 1
28 208 1
28 352 1
28 388 1
28 424 1
29 29 1
29 65 1
29 101 1
29 137 1
29 173 1
29 209 1
29 353 1
29 389 1
29 425 1
30 30 1
30 66 1
30 102 1
30 138 1
30 174 1
30 210 1
30 354 1
30 390 1
30 426 1
31 31 1
31 67 1
31 103 1
31 139 1
31 175 1
31 211 1
31 355 1
31 391 1
31 427 1
32 32 1
32 68 1
32 104 1
32 140 1
32 176 1
32 212 1
32 356 1
32 392 1
32 428 1
33 33 1
33 69 1
33 105 1
33 141 1
33 177 1
33 213 1
33 357 1
33 393 1
33 429 1
34 34 1
34 70 1
34 106 1
34 142 1
34 178 1
34 214 1
34 358 1
34 394 1
34 430 1
35 35 1
35 71 1
35 107 1
35 143 1
35 179 1
35 215 1
35 359 1
35 395 1
35 431 1
36 36 1
36 72 1
36 108 1
36 144 1
36 180 1
36 216 1
36 360 1
36 396 1
36 432 1
37 37 1
37 73 1
37 91 1
37 145 1
37 181 1
37 199 1
37 361 1
37 397 1
37 415 1
38 38 1
38 74 1
38 92 1
38 146 1
38 182 1
38 200 1
38 362 1
38 398 1
38 416 1
39 39 1
39 75 1
39 93 1
39 147 1
39 183 1
39 201 1
39 363 1
39 399 1
39 417 1
40 40 1
40 76 1
40 94 1
40 148 1
40 184 1
40 202 1
40 364 1
40 400 1
40 418 1
41 41 1
41 77 1
41 95 1
41 149 1
41 185 1
41 203 1
41 365 1
41 401 1
41 419 1
42 42 1
42 78 1
42 96 1
42 150 1
42 186 1
42 204 1
42 366 1
42 402 1
42 420 1
43 43 1
43 79 1
43 97 1
43 151 1
43 187 1
43 205 1
43 367 1
43 403 1
43 421 1
44 44 1
44 80 1
44 98 1
44 152 1
44 188 1
44 206 1
44 368 1
44 404 1
44 422 1
45 45 1
45 81 1
45 99 1
45 153 1
45 189 1
45 207 1
45 369 1
45 405 1
45 423 1
46 46 1
46 82 1
46 100 1
46 154 1
46 190 1
46 208 1
46 370 1
46 406 1
46 424 1
47 47 1
47 83 1
47 101 1
47 155 1
47 191 1
47 209 1
47 371 1
47 407 1
47 425 1
48 48 1
48 84 1
48 102 1
48 156 1
48 192 1
48 210 1
48 372 1
48 408 1
48 426 1
49 49 1
49 85 1
49 103 1
49 157 1
49 193 1
49 211 1
49 373 1
49 409 1
49 427 1
50 50 1
50 86 1
50 104 1
50 158 1
50 194 1
50 212 1
50 374 1
50 410 1
50 428 1
51 51 1
51 87 1
51 105 1
51 159 1
51 195 1
51 213 1
51 375 1
51 411 1
51 429 1
52 52 1
52 88 1
52 106 1
52 160 1
52 196 1
52 214 1
52 376 1
52 412 1
52 430 1
53 53 1
53 89 1
53 107 1
53 161 1
53 197 1
53 215 1
53 377 1
53 413 1
53 431 1
54 54 1
54 90 1
54 108 1
54 162 1
54 198 1
54 216 1
54 378 1
54 414 1
54 432 1
55 1 1
55 55 1
55 73 1
55 217 1
55 271 1
55 289 1
55 433 1
55 487 1
55 505 1
56 2 1
56 56 1
56 74 1
56 218 1
56 272 1
56 290 1
56 434 1
56 488 1
56 506 1
57 3 1
57 57 1
57 75 1
57 219 1
57 273 1
57 291 1
57 435 1
57 489 1
57 507 1
58 4 1
58 58 1
58 76 1
58 220 1
58 274 1
58 292 1
58 436 1
58 490 1
58 508 1
59 5 1
59 59 1
59 77 1
59 221 1
59 275 1
59 293 1
59 437 1
59 491 1
59 509 1
60 6 1
60 60 1
60 78 1
60 222 1
60 276 1
60 294 1
60 438 1
60 492 1
60 510 1
61 7 1
61 61 1
61 79 1
61 223 1
61 277 1
61 295 1
61 439 1
61 493 1
61 511 1
62 8 1
62 62 1
62 80 1
62 224 1
62 278 1
62 296 1
62 440 1
62 494 1
62 512 1
63 9 1
63 63 1
63 81 1
63 225 1
63 279 1
63 297 1
63 441 1
63 495 1
63 513 1
64 10 1
64 64 1
64 82 1
64 226 1
64 280 1
64 298 1
64 442 1
64 496 1
64 514 1
65 11 1
65 65 1
65 83 1
65 227 1
65 281 1
65 299 1
65 443 1
65 497 1
65 515 1
66 12 1
66 66 1
66 84 1
66 228 1
66 282 1
66 300 1
66 444 1
66 498 1
66 516 1
67 13 1
67 67 1
67 85 1
67 229 1
67 283 1
67 301 1
67 445 1
67 499 1
67 517 1
68 14 1
68 68 1
68 86 1
68 230 1
68 284 1
68 302 1
68 446 1
68 500 1
68 518 1
69 15 1
69 69 1
69 87 1
69 231 1
69 285 1
69 303 1
69 447 1
69 501 1
69 519 1
70 16 1
70 70 1
70 88 1
70 232 1
70 286 1
70 304 1
70 448 1
70 502 1
70 520 1
71 17 1
71 71 1
71 89 1
71 233 1
71 287 1
71 305 1
71 449 1
71 503 1
71 521 1
72 18 1
72 72 1
72 90 1
72 234 1
72 288 1
72 306 1
72 450 1
72 504 1
72 522 1
73 19 1
73 55 1
73 91 1
73 235 1
73 271 1
73 307 1
73 451 1
73 487 1
73 523 1
74 20 1
74 56 1
74 92 1
74 236 1
74 272 1
74 308 1
74 452 1
74 488 1
74 524 1
75 21 1
75 57 1
75 93 1
75 237 1
75 273 1
75 309 1
75 453 1
75 489 1
75 525 1
76 22 1
76 58 1
76 94 1
76 238 1
76 274 1
76 310 1
76 454 1
76 490 1
76 526 1
77 23 1
77 59 1
77 95 1
77 239 1
77 275 1
77 311 1
77 455 1
77 491 1
77 527 1
78 24 1
78 60 1
78 96 1
78 240 1
78 276 1
78 312 1
78 456 1
78 492 1
78 528 1
79 25 1
79 61 1
79 97 1
79 241 1
79 277 1
79 313 1
79 457 1
79 493 1
79 529 1
80 26 1
80 62 1
80 98 1
80 242 1
80 278 1
80 314 1
80 458 1
80 494 1
80 530 1
81 27 1
81 63 1
81 99 1
81 243 1
81 279 1
81 315 1
81 459 1
81 495 1
81 531 1
82 28 1
82 64 1
82 100 1
82 244 1
82 280 1
82 316 1
82 460 1
82 496 1
82 532 1
83 29 1
83 65 1
83 101 1
83 245 1
83 281 1
83 317 1
83 461 1
83 497 1
83 533 1
84 30 1
84 66 1
84 102 1
84 246 1
84 282 1
84 318 1
84 462 1
84 498 1
84 534 1
85 31 1
85 67 1
85 103 1
85 247 1
85 283 1
85 319 1
85 463 1
85 499 1
85 535 1
86 32 1
86 68 1
86 104 1
86 248 1
86 284 1
86 320 1
86 464 1
86 500 1
86 536 1
87 33 1
87 69 1
87 105 1
87 249 1
87 285 1
87 321 1
87 465 1
87 501 1
87 537 1
88 34 1
88 70 1
88 106 1
88 250 1
88 286 1
88 322 1
88 466 1
88 502 1
88 538 1
89 35 1
89 71 1
89 107 1
89 251 1
89 287 1
89 323 1
89 467 1
89 503 1
89 539 1
90 36 1
90 72 1
90 108 1
90 252 1
90 288 1
90 324 1
90 468 1
90 504 1
90 540 1
91 37 1
91 73 1
91 91 1
91 253 1
91 289 1
91 307 1
91 469 1
91 505 1
91 523 1
92 38 1
92 74 1
92 92 1
92 254 1
92 290 1
92 308 1
92 470 1
92 506 1
92 524 1
93 39 1
93 75 1
93 93 1
93 255 1
93 291 1
93 309 1
93 471 1
93 507 1
93 525 1
94 40 1
94 76 1
94 94 1
94 256 1
94 292 1
94 310 1
94 472 1
94 508 1
94 526 1
95 41 1
95 77 1
95 95 1
95 257 1
95 293 1
95 311 1
95 473 1
95 509 1
95 527 1
96 42 1
96 78 1
96 96 1
96 258 1
96 294 1
96 312 1
96 474 1
96 510 1
96 528 1
97 43 1
97 79 1
97 97 1
97 259 1
97 295 1
97 313 1
97 475 1
97 511 1
97 529 1
98 44 1
98 80 1
98 98 1
98 260 1
98 296 1
98 314 1
98 476 1
98 512 1
98 530 1
99 45 1
99 81 1
99 99 1
99 261 1
99 297 1
99 315 1
99 477 1
99 513 1
99 531 1
100 46 1
100 82 1
100 100 1
100 262 1
100 298 1
100 316 1
100 478 1
100 514 1
100 532 1
101 47 1
101 83 1
101 101 1
101 263 1
101 299 1
101 317 1
101 479 1
101 515 1
101 533 1
102 48 1
102 84 1
102 102 1
102 264 1
102 300 1
102 318 1
102 480 1
102 516 1
102 534 1
103 49 1
103 85 1
103 103 1
103 265 1
103 301 1
103 319 1
103 481 1
103 517 1
103 535 1
104 50 1
104 86 1
104 104 1
104 266 1
104 302 1
104 320 1
104 482 1
104 518 1
104 536 1
105 51 1
105 87 1
105 105 1
105 267 1
105 303 1
105 321 1
105 483 1
105 519 1
105 537 1
106 52 1
106 88 1
106 106 1
106 268 1
106 304 1
106 322 1
106 484 1
106 520 1
106 538 1
107 53 1
107 89 1
107 107 1
107 269 1
107 305 1
107 323 1
107 485 1
107 521 1
107 539 1
108 54 1
108 90 1
108 108 1
108 270 1
108 306 1
108 324 1
108 486 1
108 522 1
108 540 1
109 109 1
109 163 1
109 181 1
109 217 1
109 271 1
109 289 1
109 541 1
109 595 1
109 613 1
110 110 1
110 164 1
110 182 1
110 218 1
110 272 1
110 290 1
110 542 1
110 596 1
110 614 1
111 111 1
111 165 1
111 183 1
111 219 1
111 273 1
111 291 1
111 543 1
111 597 1
111 615 1
112 112 1
112 166 1
112 184 1
112 220 1
112 274 1
112 292 1
112 544 1
112 598 1
112 616 1
113 113 1
113 167 1
113 185 1
113 221 1
113 275 1
113 293 1
113 545 1
113 599 1
113 617 1
114 114 1
114 168 1
114 186 1
114 222 1
114 276 1
114 294 1
114 546 1
114 600 1
114 618 1
115 115 1
115 169 1
115 187 1
115 223 1
115 277 1
115 295 1
115 547 1
115 601 1
115 619 1
116 116 1
116 170 1
116 188 1
116 224 1
116 278 1
116 296 1
116 548 1
116 602 1
116 620 1
117 117 1
117 171 1
117 189 1
117 225 1
117 279 1
117 297 1
117 549 1
117 603 1
117 621 1
118 118 1
118 172 1
118 190 1
118 226 1
118 280 1
118 298 1
118 550 1
118 604 1
118 622 1
119 119 1
119 173 1
119 191 1
119 227 1
119 281 1
119 299 1
119 551 1
119 605 1
119 623 1
120 120 1
120 174 1
120 192 1
120 228 1
120 282 1
120 300 1
120 552 1
120 606 1
120 624 1
121 121 1
121 175 1
121 193 1
121 229 1
121 283 1
121 301 1
121 553 1
121 607 1
121 625 1
122 122 1
122 176 1
122 194 1
122 230 1
122 284 1
122 302 1
122 554 1
122 608 1
122 626 1
123 123 1
123 177 1
123 195 1
123 231 1
123 285 1
123 303 1
123 555 1
123 609 1
123 627 1
124 124 1
124 178 1
124 196 1
124 232 1
124 286 1
124 304 1
124 556 1
124 610 1
124 628 1
125 125 1
125 179 1
125 197 1
125 233 1
125 287 1
125 305 1
125 557 1
125 611 1
125 629 1
126 126 1
126 180 1
126 198 1
126 234 1
126 288 1
126 306 1
126 558 1
126 612 1
126 630 1
127 127 1
127 163 1
127 199 1
127 235 1
127 271 1
127 307 1
127 559 1
127 595 1
127 631 1
128 128 1
128 164 1
128 200 1
128 236 1
128 272 1
128 308 1
128 560 1
128 596 1
128 632 1
129 129 1
129 165 1
129 201 1
129 237 1
129 273 1
129 309 1
129 561 1
129 597 1
129 633 1
130 130 1
130 166 1
130 202 1
130 238 1
130 274 1
130 310 1
130 562 1
130 598 1
130 634 1
131 131 1
131 167 1
131 203 1
131 239 1
131 275 1
131 311 1
131 563 1
131 599 1
131 635 1
132 132 1
132 168 1
132 204 1
132 240 1
132 276 1
132 312 1
132 564 1
132 600 1
132 636 1
133 133 1
133 169 1
133 205 1
133 241 1
133 277 1
133 313 1
133 565 1
133 601 1
133 637 1
134 134 1
134 170 1
134 206 1
134 242 1
134 278 1
134 314 1
134 566 1
134 602 1
134 638 1
135 135 1
135 171 1
135 207 1
135 243 1
135 279 1
135 315 1
135 567 1
135 603 1
135 639 1
136 136 1
136 172 1
136 208 1
136 244 1
136 280 1
136 316 1
136 568 1
136 604 1
136 640 1
137 137 1
137 173 1
137 209 1
137 245 1
137 281 1
137 317 1
137 569 1
137 605 1
137 641 1
138 138 1
138 174 1
138 210 1
138 246 1
138 282 1
138 318 1
138 570 1
138 606 1
138 642 1
139 139 1
139 175 1
139 211 1
139 247 1
139 283 1
139 319 1
139 571 1
139 607 1
139 643 1
140 140 1
140 176 1
140 212 1
140 248 1
140 284 1
140 320 1
140 572 1
140 608 1
140 644 1
141 141 1
141 177 1
141 213 1
141 249 1
141 285 1
141 321 1
141 573 1
141 609 1
141 645 1
142 142 1
142 178 1
142 214 1
142 250 1
142 286 1
142 322 1
142 574 1
142 610 1
142 646 1
143 143 1
143 179 1
143 215 1
143 251 1
143 287 1
143 323 1
143 575 1
143 611 1
143 647 1
144 144 1
144 180 1
144 216 1
144 252 1
144 288 1
144 324 1
144 576 1
144 612 1
144 648 1
145 145 1
145 181 1
145 199 1
145 253 1
145 289 1
145 307 1
145 577 1
145 613 1
145 631 1
146 146 1
146 182 1
146 200 1
146 254 1
146 290 1
146 308 1
146 578 1
146 614 1
146 632 1
147 147 1
147 183 1
147 201 1
147 255 1
147 291 1
147 309 1
147 579 1
147 615 1
147 633 1
148 148 1
148 184 1
148 202 1
148 256 1
148 292 1
148 310 1
148 580 1
148 616 1
148 634 1
149 149 1
149 185 1
149 203 1
149 257 1
149 293 1
149 311 1
149 581 1
149 617 1
149 635 1
150 150 1
150 186 1
150 204 1
150 258 1
150 294 1
150 312 1
150 582 1
150 618 1
150 636 1
151 151 1
151 187 1
151 205 1
151 259 1
151 295 1
151 313 1
151 583 1
151 619 1
151 637 1
152 152 1
152 188 1
152 206 1
152 260 1
152 296 1
152 314 1
152 584 1
152 620 1
152 638 1
153 153 1
153 189 1
153 207 1
153 261 1
153 297 1
153 315 1
153 585 1
153 621 1
153 639 1
154 154 1
154 190 1
154 208 1
154 262 1
154 298 1
154 316 1
154 586 1
154 622 1
154 640 1
155 155 1
155 191 1
155 209 1
155 263 1
155 299 1
155 317 1
155 587 1
155 623 1
155 641 1
156 156 1
156 192 1
156 210 1
156 264 1
156 300 1
156 318 1
156 588 1
156 624 1
156 642 1
157 157 1
157 193 1
157 211 1
157 265 1
157 301 1
157 319 1
157 589 1
157 625 1
157 643 1
158 158 1
158 194 1
158 212 1
158 266 1
158 302 1
158 320 1
158 590 1
158 626 1
158 644 1
159 159 1
159 195 1
159 213 1
159 267 1
159 303 1
159 321 1
159 591 1
159 627 1
159 645 1
160 160 1
160 196 1
160 214 1
160 268 1
160 304 1
160 322 1
160 592 1
160 628 1
160 646 1
161 161 1
161 197 1
161 215 1
161 269 1
161 305 1
161 323 1
161 593 1
161 629 1
161 647 1
162 162 1
162 198 1
162 216 1
162 270 1
162 306 1
162 324 1
162 594 1
162 630 1
162 648 1
163 1 1
163 88 1
163 93 1
163 110 1
163 194 1
163 203 1
163 224 1
163 294 1
163 319 1
164 2 1
164 86 1
164 95 1
164 109 1
164 196 1
164 201 1
164 231 1
164 295 1
164 318 1
165 3 1
165 84 1
165 97 1
165 113 1
165 189 1
165 208 1
165 229 1
165 298 1
165 315 1
166 4 1
166 83 1
166 98 1
166 114 1
166 188 1
166 209 1
166 230 1
166 290 1
166 323 1
167 5 1
167 81 1
167 100 1
167 111 1
167 192 1
167 205 1
167 228 1
167 291 1
167 322 1
168 6 1
168 80 1
168 101 1
168 112 1
168 191 1
168 206 1
168 234 1
168 305 1
168 308 1
169 7 1
169 87 1
169 94 1
169 118 1
169 193 1
169 204 1
169 225 1
169 293 1
169 320 1
170 8 1
170 78 1
170 103 1
170 119 1
170 184 1
170 213 1
170 233 1
170 306 1
170 307 1
171 9 1
171 77 1
171 104 1
171 120 1
171 183 1
171 214 1
171 219 1
171 300 1
171 313 1
172 10 1
172 85 1
172 96 1
172 115 1
172 195 1
172 202 1
172 232 1
172 289 1
172 324 1
173 11 1
173 76 1
173 105 1
173 116 1
173 186 1
173 211 1
173 218 1
173 302 1
173 311 1
174 12 1
174 75 1
174 106 1
174 117 1
174 185 1
174 212 1
174 226 1
174 301 1
174 312 1
175 13 1
175 82 1
175 99 1
175 123 1
175 187 1
175 210 1
175 217 1
175 304 1
175 309 1
176 14 1
176 74 1
176 107 1
176 124 1
176 181 1
176 216 1
176 223 1
176 303 1
176 310 1
177 15 1
177 79 1
177 102 1
177 121 1
177 190 1
177 207 1
177 221 1
177 297 1
177 316 1
178 16 1
178 73 1
178 108 1
178 122 1
178 182 1
178 215 1
178 222 1
178 296 1
178 317 1
179 17 1
179 90 1
179 91 1
179 126 1
179 197 1
179 200 1
179 220 1
179 299 1
179 314 1
180 18 1
180 89 1
180 92 1
180 125 1
180 198 1
180 199 1
180 227 1
180 292 1
180 321 1
181 19 1
181 38 1
181 93 1
181 128 1
181 145 1
181 203 1
181 242 1
181 267 1
181 319 1
182 20 1
182 37 1
182 95 1
182 127 1
182 146 1
182 201 1
182 249 1
182 260 1
182 318 1
183 21 1
183 54 1
183 97 1
183 131 1
183 161 1
183 208 1
183 247 1
183 263 1
183 315 1
184 22 1
184 48 1
184 98 1
184 132 1
184 153 1
184 209 1
184 248 1
184 262 1
184 323 1
185 23 1
185 53 1
185 100 1
185 129 1
185 162 1
185 205 1
185 246 1
185 256 1
185 322 1
186 24 1
186 45 1
186 101 1
186 130 1
186 156 1
186 206 1
186 252 1
186 255 1
186 308 1
187 25 1
187 52 1
187 94 1
187 136 1
187 158 1
187 204 1
187 243 1
187 258 1
187 320 1
188 26 1
188 51 1
188 103 1
188 137 1
188 157 1
188 213 1
188 251 1
188 257 1
188 307 1
189 27 1
189 42 1
189 104 1
189 138 1
189 148 1
189 214 1
189 237 1
189 270 1
189 313 1
190 28 1
190 50 1
190 96 1
190 133 1
190 160 1
190 202 1
190 250 1
190 259 1
190 324 1
191 29 1
191 49 1
191 105 1
191 134 1
191 159 1
191 211 1
191 236 1
191 253 1
191 311 1
192 30 1
192 40 1
192 106 1
192 135 1
192 150 1
192 212 1
192 244 1
192 266 1
192 312 1
193 31 1
193 47 1
193 99 1
193 141 1
193 152 1
193 210 1
193 235 1
193 254 1
193 309 1
194 32 1
194 46 1
194 107 1
194 142 1
194 151 1
194 216 1
194 241 1
194 268 1
194 310 1
195 33 1
195 44 1
195 102 1
195 139 1
195 155 1
195 207 1
195 239 1
195 269 1
195 316 1
196 34 1
196 43 1
196 108 1
196 140 1
196 154 1
196 215 1
196 240 1
196 261 1
196 317 1
197 35 1
197 41 1
197 91 1
197 144 1
197 147 1
197 200 1
197 238 1
197 264 1
197 314 1
198 36 1
198 39 1
198 92 1
198 143 1
198 149 1
198 199 1
198 245 1
198 265 1
198 321 1
199 38 1
199 62 1
199 88 1
199 145 1
199 173 1
199 194 1
199 267 1
199 287 1
199 294 1
200 37 1
200 65 1
200 86 1
200 146 1
200 170 1
200 196 1
200 260 1
200 272 1
200 295 1
201 54 1
201 67 1
201 84 1
201 161 1
201 177 1
201 189 1
201 263 1
201 271 1
201 298 1
202 48 1
202 68 1
202 83 1
202 153 1
202 178 1
202 188 1
202 262 1
202 277 1
202 290 1
203 53 1
203 69 1
203 81 1
203 162 1
203 175 1
203 192 1
203 256 1
203 275 1
203 291 1
204 45 1
204 70 1
204 80 1
204 156 1
204 176 1
204 191 1
204 255 1
204 276 1
204 305 1
205 52 1
205 63 1
205 87 1
205 158 1
205 174 1
205 193 1
205 258 1
205 273 1
205 293 1
206 51 1
206 71 1
206 78 1
206 157 1
206 180 1
206 184 1
206 257 1
206 274 1
206 306 1
207 42 1
207 57 1
207 77 1
207 148 1
207 167 1
207 183 1
207 270 1
207 283 1
207 300 1
208 50 1
208 66 1
208 85 1
208 160 1
208 171 1
208 195 1
208 259 1
208 280 1
208 289 1
209 49 1
209 72 1
209 76 1
209 159 1
209 179 1
209 186 1
209 253 1
209 281 1
209 302 1
210 40 1
210 59 1
210 75 1
210 150 1
210 165 1
210 185 1
210 266 1
210 282 1
210 301 1
211 47 1
211 55 1
211 82 1
211 152 1
211 164 1
211 187 1
211 254 1
211 278 1
211 304 1
212 46 1
212 61 1
212 74 1
212 151 1
212 172 1
212 181 1
212 268 1
212 279 1
212 303 1
213 44 1
213 56 1
213 79 1
213 155 1
213 163 1
213 190 1
213 269 1
213 285 1
213 297 1
214 43 1
214 64 1
214 73 1
214 154 1
214 169 1
214 182 1
214 261 1
214 286 1
214 296 1
215 41 1
215 58 1
215 90 1
215 147 1
215 168 1
215 197 1
215 264 1
215 284 1
215 299 1
216 39 1
216 60 1
216 89 1
216 149 1
216 166 1
216 198 1
216 265 1
216 288 1
216 292 1
217 1 1
217 88 1
217 93 1
217 333 1
217 401 1
217 428 1
217 443 1
217 508 1
217 537 1
218 2 1
218 86 1
218 95 1
218 330 1
218 404 1
218 425 1
218 445 1
218 514 1
218 531 1
219 3 1
219 84 1
219 97 1
219 338 1
219 398 1
219 431 1
219 447 1
219 511 1
219 534 1
220 4 1
220 83 1
220 98 1
220 325 1
220 412 1
220 417 1
220 448 1
220 505 1
220 540 1
221 5 1
221 81 1
221 100 1
221 335 1
221 400 1
221 429 1
221 441 1
221 509 1
221 536 1
222 6 1
222 80 1
222 101 1
222 336 1
222 399 1
222 430 1
222 449 1
222 522 1
222 523 1
223 7 1
223 87 1
223 94 1
223 341 1
223 414 1
223 415 1
223 444 1
223 507 1
223 538 1
224 8 1
224 78 1
224 103 1
224 327 1
224 408 1
224 421 1
224 450 1
224 521 1
224 524 1
225 9 1
225 77 1
225 104 1
225 328 1
225 407 1
225 422 1
225 437 1
225 513 1
225 532 1
226 10 1
226 85 1
226 96 1
226 339 1
226 403 1
226 426 1
226 446 1
226 506 1
226 539 1
227 11 1
227 76 1
227 105 1
227 340 1
227 397 1
227 432 1
227 433 1
227 520 1
227 525 1
228 12 1
228 75 1
228 106 1
228 326 1
228 410 1
228 419 1
228 439 1
228 519 1
228 526 1
229 13 1
229 82 1
229 99 1
229 331 1
229 411 1
229 418 1
229 434 1
229 518 1
229 527 1
230 14 1
230 74 1
230 107 1
230 332 1
230 402 1
230 427 1
230 442 1
230 517 1
230 528 1
231 15 1
231 79 1
231 102 1
231 342 1
231 413 1
231 416 1
231 435 1
231 516 1
231 529 1
232 16 1
232 73 1
232 108 1
232 329 1
232 405 1
232 424 1
232 436 1
232 515 1
232 530 1
233 17 1
233 90 1
233 91 1
233 337 1
233 406 1
233 423 1
233 438 1
233 512 1
233 533 1
234 18 1
234 89 1
234 92 1
234 334 1
234 409 1
234 420 1
234 440 1
234 510 1
234 535 1
235 19 1
235 38 1
235 93 1
235 351 1
235 366 1
235 428 1
235 461 1
235 481 1
235 537 1
236 20 1
236 37 1
236 95 1
236 348 1
236 369 1
236 425 1
236 463 1
236 479 1
236 531 1
237 21 1
237 54 1
237 97 1
237 356 1
237 370 1
237 431 1
237 465 1
237 476 1
237 534 1
238 22 1
238 48 1
238 98 1
238 343 1
238 362 1
238 417 1
238 466 1
238 475 1
238 540 1
239 23 1
239 53 1
239 100 1
239 353 1
239 373 1
239 429 1
239 459 1
239 474 1
239 536 1
240 24 1
240 45 1
240 101 1
240 354 1
240 364 1
240 430 1
240 467 1
240 473 1
240 523 1
241 25 1
241 52 1
241 94 1
241 359 1
241 365 1
241 415 1
241 462 1
241 472 1
241 538 1
242 26 1
242 51 1
242 103 1
242 345 1
242 378 1
242 421 1
242 468 1
242 471 1
242 524 1
243 27 1
243 42 1
243 104 1
243 346 1
243 372 1
243 422 1
243 455 1
243 485 1
243 532 1
244 28 1
244 50 1
244 96 1
244 357 1
244 368 1
244 426 1
244 464 1
244 478 1
244 539 1
245 29 1
245 49 1
245 105 1
245 358 1
245 367 1
245 432 1
245 451 1
245 470 1
245 525 1
246 30 1
246 40 1
246 106 1
246 344 1
246 361 1
246 419 1
246 457 1
246 484 1
246 526 1
247 31 1
247 47 1
247 99 1
247 349 1
247 376 1
247 418 1
247 452 1
247 469 1
247 527 1
248 32 1
248 46 1
248 107 1
248 350 1
248 375 1
248 427 1
248 460 1
248 482 1
248 528 1
249 33 1
249 44 1
249 102 1
249 360 1
249 363 1
249 416 1
249 453 1
249 486 1
249 529 1
250 34 1
250 43 1
250 108 1
250 347 1
250 377 1
250 424 1
250 454 1
250 480 1
250 530 1
251 35 1
251 41 1
251 91 1
251 355 1
251 371 1
251 423 1
251 456 1
251 477 1
251 533 1
252 36 1
252 39 1
252 92 1
252 352 1
252 374 1
252 420 1
252 458 1
252 483 1
252 535 1
253 38 1
253 62 1
253 88 1
253 366 1
253 381 1
253 401 1
253 481 1
253 504 1
253 508 1
254 37 1
254 65 1
254 86 1
254 369 1
254 394 1
254 404 1
254 479 1
254 487 1
254 514 1
255 54 1
255 67 1
255 84 1
255 370 1
255 385 1
255 398 1
255 476 1
255 488 1
255 511 1
256 48 1
256 68 1
256 83 1
256 362 1
256 386 1
256 412 1
256 475 1
256 496 1
256 505 1
257 53 1
257 69 1
257 81 1
257 373 1
257 396 1
257 400 1
257 474 1
257 489 1
257 509 1
258 45 1
258 70 1
258 80 1
258 364 1
258 383 1
258 399 1
258 473 1
258 490 1
258 522 1
259 52 1
259 63 1
259 87 1
259 365 1
259 382 1
259 414 1
259 472 1
259 491 1
259 507 1
260 51 1
260 71 1
260 78 1
260 378 1
260 391 1
260 408 1
260 471 1
260 492 1
260 521 1
261 42 1
261 57 1
261 77 1
261 372 1
261 392 1
261 407 1
261 485 1
261 501 1
261 513 1
262 50 1
262 66 1
262 85 1
262 368 1
262 380 1
262 403 1
262 478 1
262 493 1
262 506 1
263 49 1
263 72 1
263 76 1
263 367 1
263 388 1
263 397 1
263 470 1
263 494 1
263 520 1
264 40 1
264 59 1
264 75 1
264 361 1
264 389 1
264 410 1
264 484 1
264 495 1
264 519 1
265 47 1
265 55 1
265 82 1
265 376 1
265 387 1
265 411 1
265 469 1
265 497 1
265 518 1
266 46 1
266 61 1
266 74 1
266 375 1
266 395 1
266 402 1
266 482 1
266 498 1
266 517 1
267 44 1
267 56 1
267 79 1
267 363 1
267 384 1
267 413 1
267 486 1
267 499 1
267 516 1
268 43 1
268 64 1
268 73 1
268 377 1
268 393 1
268 405 1
268 480 1
268 500 1
268 515 1
269 41 1
269 58 1
269 90 1
269 371 1
269 379 1
269 406 1
269 477 1
269 502 1
269 512 1
270 39 1
270 60 1
270 89 1
270 374 1
270 390 1
270 409 1
270 483 1
270 503 1
270 510 1
271 110 1
271 194 1
271 203 1
271 443 1
271 508 1
271 537 1
271 558 1
271 629 1
271 632 1
272 109 1
272 196 1
272 201 1
272 445 1
272 514 1
272 531 1
272 543 1
272 624 1
272 637 1
273 113 1
273 189 1
273 208 1
273 447 1
273 511 1
273 534 1
273 542 1
273 626 1
273 635 1
274 114 1
274 188 1
274 209 1
274 448 1
274 505 1
274 540 1
274 550 1
274 625 1
274 636 1
275 111 1
275 192 1
275 205 1
275 441 1
275 509 1
275 536 1
275 547 1
275 627 1
275 634 1
276 112 1
276 191 1
276 206 1
276 449 1
276 522 1
276 523 1
276 548 1
276 618 1
276 643 1
277 118 1
277 193 1
277 204 1
277 444 1
277 507 1
277 538 1
277 545 1
277 621 1
277 640 1
278 119 1
278 184 1
278 213 1
278 450 1
278 521 1
278 524 1
278 546 1
278 620 1
278 641 1
279 120 1
279 183 1
279 214 1
279 437 1
279 513 1
279 532 1
279 555 1
279 619 1
279 642 1
280 115 1
280 195 1
280 202 1
280 446 1
280 506 1
280 539 1
280 544 1
280 623 1
280 638 1
281 116 1
281 186 1
281 211 1
281 433 1
281 520 1
281 525 1
281 553 1
281 622 1
281 639 1
282 117 1
282 185 1
282 212 1
282 439 1
282 519 1
282 526 1
282 554 1
282 614 1
282 647 1
283 123 1
283 187 1
283 210 1
283 434 1
283 518 1
283 527 1
283 551 1
283 616 1
283 645 1
284 124 1
284 181 1
284 216 1
284 442 1
284 517 1
284 528 1
284 552 1
284 615 1
284 646 1
285 121 1
285 190 1
285 207 1
285 435 1
285 516 1
285 529 1
285 549 1
285 617 1
285 644 1
286 122 1
286 182 1
286 215 1
286 436 1
286 515 1
286 530 1
286 557 1
286 630 1
286 631 1
287 126 1
287 197 1
287 200 1
287 438 1
287 512 1
287 533 1
287 556 1
287 613 1
287 648 1
288 125 1
288 198 1
288 199 1
288 440 1
288 510 1
288 535 1
288 541 1
288 628 1
288 633 1
289 128 1
289 145 1
289 203 1
289 461 1
289 481 1
289 537 1
289 576 1
289 579 1
289 632 1
290 127 1
290 146 1
290 201 1
290 463 1
290 479 1
290 531 1
290 561 1
290 594 1
290 637 1
291 131 1
291 161 1
291 208 1
291 465 1
291 476 1
291 534 1
291 560 1
291 577 1
291 635 1
292 132 1
292 153 1
292 209 1
292 466 1
292 475 1
292 540 1
292 568 1
292 590 1
292 636 1
293 129 1
293 162 1
293 205 1
293 459 1
293 474 1
293 536 1
293 565 1
293 592 1
293 634 1
294 130 1
294 156 1
294 206 1
294 467 1
294 473 1
294 523 1
294 566 1
294 591 1
294 643 1
295 136 1
295 158 1
295 204 1
295 462 1
295 472 1
295 538 1
295 563 1
295 593 1
295 640 1
296 137 1
296 157 1
296 213 1
296 468 1
296 471 1
296 524 1
296 564 1
296 585 1
296 641 1
297 138 1
297 148 1
297 214 1
297 455 1
297 485 1
297 532 1
297 573 1
297 584 1
297 642 1
298 133 1
298 160 1
298 202 1
298 464 1
298 478 1
298 539 1
298 562 1
298 588 1
298 638 1
299 134 1
299 159 1
299 211 1
299 451 1
299 470 1
299 525 1
299 571 1
299 587 1
299 639 1
300 135 1
300 150 1
300 212 1
300 457 1
300 484 1
300 526 1
300 572 1
300 586 1
300 647 1
301 141 1
301 152 1
301 210 1
301 452 1
301 469 1
301 527 1
301 569 1
301 589 1
301 645 1
302 142 1
302 151 1
302 216 1
302 460 1
302 482 1
302 528 1
302 570 1
302 580 1
302 646 1
303 139 1
303 155 1
303 207 1
303 453 1
303 486 1
303 529 1
303 567 1
303 582 1
303 644 1
304 140 1
304 154 1
304 215 1
304 454 1
304 480 1
304 530 1
304 575 1
304 581 1
304 631 1
305 144 1
305 147 1
305 200 1
305 456 1
305 477 1
305 533 1
305 574 1
305 583 1
305 648 1
306 143 1
306 149 1
306 199 1
306 458 1
306 483 1
306 535 1
306 559 1
306 578 1
306 633 1
307 145 1
307 173 1
307 194 1
307 481 1
307 504 1
307 508 1
307 579 1
307 600 1
307 629 1
308 146 1
308 170 1
308 196 1
308 479 1
308 487 1
308 514 1
308 594 1
308 607 1
308 624 1
309 161 1
309 177 1
309 189 1
309 476 1
309 488 1
309 511 1
309 577 1
309 605 1
309 626 1
310 153 1
310 178 1
310 188 1
310 475 1
310 496 1
310 505 1
310 590 1
310 606 1
310 625 1
311 162 1
311 175 1
311 192 1
311 474 1
311 489 1
311 509 1
311 592 1
311 603 1
311 627 1
312 156 1
312 176 1
312 191 1
312 473 1
312 490 1
312 522 1
312 591 1
312 611 1
312 618 1
313 158 1
313 174 1
313 193 1
313 472 1
313 491 1
313 507 1
313 593 1
313 609 1
313 621 1
314 157 1
314 180 1
314 184 1
314 471 1
314 492 1
314 521 1
314 585 1
314 610 1
314 620 1
315 148 1
315 167 1
315 183 1
315 485 1
315 501 1
315 513 1
315 584 1
315 596 1
315 619 1
316 160 1
316 171 1
316 195 1
316 478 1
316 493 1
316 506 1
316 588 1
316 608 1
316 623 1
317 159 1
317 179 1
317 186 1
317 470 1
317 494 1
317 520 1
317 587 1
317 595 1
317 622 1
318 150 1
318 165 1
318 185 1
318 484 1
318 495 1
318 519 1
318 586 1
318 601 1
318 614 1
319 152 1
319 164 1
319 187 1
319 469 1
319 497 1
319 518 1
319 589 1
319 612 1
319 616 1
320 151 1
320 172 1
320 181 1
320 482 1
320 498 1
320 517 1
320 580 1
320 599 1
320 615 1
321 155 1
321 163 1
321 190 1
321 486 1
321 499 1
321 516 1
321 582 1
321 597 1
321 617 1
322 154 1
322 169 1
322 182 1
322 480 1
322 500 1
322 515 1
322 581 1
322 598 1
322 630 1
323 147 1
323 168 1
323 197 1
323 477 1
323 502 1
323 512 1
323 583 1
323 604 1
323 613 1
324 149 1
324 166 1
324 198 1
324 483 1
324 503 1
324 510 1
324 578 1
324 602 1
324 628 1
