%%MatrixMarket matrix coordinate integer general
162 324 1458
1 1 1
1 10 1
1 40 1
1 163 1
1 172 1
1 202 1
1 217 1
1 226 1
1 256 1
2 2 1
2 11 1
2 39 1
2 164 1
2 173 1
2 201 1
2 218 1
2 227 1
2 255 1
3 3 1
3 12 1
3 43 1
3 165 1
3 174 1
3 205 1
3 219 1
3 228 1
3 259 1
4 4 1
4 13 1
4 41 1
4 166 1
4 175 1
4 203 1
4 220 1
4 229 1
4 257 1
5 5 1
5 14 1
5 42 1
5 167 1
5 176 1
5 204 1
5 221 1
5 230 1
5 258 1
6 6 1
6 15 1
6 45 1
6 168 1
6 177 1
6 207 1
6 222 1
6 231 1
6 261 1
7 7 1
7 16 1
7 44 1
7 169 1
7 178 1
7 206 1
7 223 1
7 232 1
7 260 1
8 8 1
8 17 1
8 37 1
8 170 1
8 179 1
8 199 1
8 224 1
8 233 1
8 253 1
9 9 1
9 18 1
9 38 1
9 171 1
9 180 1
9 200 1
9 225 1
9 234 1
9 254 1
10 1 1
10 35 1
10 47 1
10 163 1
10 197 1
10 209 1
10 217 1
10 251 1
10 263 1
11 2 1
11 36 1
11 49 1
11 164 1
11 198 1
11 211 1
11 218 1
11 252 1
11 265 1
12 3 1
12 29 1
12 50 1
12 165 1
12 191 1
12 212 1
12 219 1
12 245 1
12 266 1
13 4 1
13 28 1
13 48 1
13 166 1
13 190 1
13 210 1
13 220 1
13 244 1
13 264 1
14 5 1
14 31 1
14 52 1
14 167 1
14 193 1
14 214 1
14 221 1
14 247 1
14 268 1
15 6 1
15 32 1
15 53 1
15 168 1
15 194 1
15 215 1
15 222 1
15 248 1
15 269 1
16 7 1
16 30 1
16 51 1
16 169 1
16 192 1
16 213 1
16 223 1
16 246 1
16 267 1
17 8 1
17 34 1
17 54 1
17 170 1
17 196 1
17 216 1
17 224 1
17 250 1
17 270 1
18 9 1
18 33 1
18 46 1
18 171 1
18 195 1
18 208 1
18 225 1
18 249 1
18 262 1
19 10 1
19 27 1
19 47 1
19 172 1
19 189 1
19 209 1
19 226 1
19 243 1
19 263 1
20 11 1
20 19 1
20 49 1
20 173 1
20 181 1
20 211 1
20 227 1
20 235 1
20 265 1
21 12 1
21 22 1
21 50 1
21 174 1
21 184 1
21 212 1
21 228 1
21 238 1
21 266 1
22 13 1
22 20 1
22 48 1
22 175 1
22 182 1
22 210 1
22 229 1
22 236 1
22 264 1
23 14 1
23 21 1
23 52 1
23 176 1
23 183 1
23 214 1
23 230 1
23 237 1
23 268 1
24 15 1
24 25 1
24 53 1
24 177 1
24 187 1
24 215 1
24 231 1
24 241 1
24 269 1
25 16 1
25 23 1
25 51 1
25 178 1
25 185 1
25 213 1
25 232 1
25 239 1
25 267 1
26 17 1
26 24 1
26 54 1
26 179 1
26 186 1
26 216 1
26 233 1
26 240 1
26 270 1
27 18 1
27 26 1
27 46 1
27 180 1
27 188 1
27 208 1
27 234 1
27 242 1
27 262 1
28 55 1
28 64 1
28 94 1
28 163 1
28 172 1
28 202 1
28 271 1
28 280 1
28 310 1
29 56 1
29 65 1
29 93 1
29 164 1
29 173 1
29 201 1
29 272 1
29 281 1
29 309 1
30 57 1
30 66 1
30 97 1
30 165 1
30 174 1
30 205 1
30 273 1
30 282 1
30 313 1
31 58 1
31 67 1
31 95 1
31 166 1
31 175 1
31 203 1
31 274 1
31 283 1
31 311 1
32 59 1
32 68 1
32 96 1
32 167 1
32 176 1
32 204 1
32 275 1
32 284 1
32 312 1
33 60 1
33 69 1
33 99 1
33 168 1
33 177 1
33 207 1
33 276 1
33 285 1
33 315 1
34 61 1
34 70 1
34 98 1
34 169 1
34 178 1
34 206 1
34 277 1
34 286 1
34 314 1
35 62 1
35 71 1
35 91 1
35 170 1
35 179 1
35 199 1
35 278 1
35 287 1
35 307 1
36 63 1
36 72 1
36 92 1
36 171 1
36 180 1
36 200 1
36 279 1
36 288 1
36 308 1
37 55 1
37 89 1
37 101 1
37 163 1
37 197 1
37 209 1
37 271 1
37 305 1
37 317 1
38 56 1
38 90 1
38 103 1
38 164 1
38 198 1
38 211 1
38 272 1
38 306 1
38 319 1
39 57 1
39 83 1
39 104 1
39 165 1
39 191 1
39 212 1
39 273 1
39 299 1
39 320 1
40 58 1
40 82 1
40 102 1
40 166 1
40 190 1
40 210 1
40 274 1
40 298 1
40 318 1
41 59 1
41 85 1
41 106 1
41 167 1
41 193 1
41 214 1
41 275 1
41 301 1
41 322 1
42 60 1
42 86 1
42 107 1
42 168 1
42 194 1
42 215 1
42 276 1
42 302 1
42 323 1
43 61 1
43 84 1
43 105 1
43 169 1
43 192 1
43 213 1
43 277 1
43 300 1
43 321 1
44 62 1
44 88 1
44 108 1
44 170 1
44 196 1
44 216 1
44 278 1
44 304 1
44 324 1
45 63 1
45 87 1
45 100 1
45 171 1
45 195 1
45 208 1
45 279 1
45 303 1
45 316 1
46 64 1
46 81 1
46 101 1
46 172 1
46 189 1
46 209 1
46 280 1
46 297 1
46 317 1
47 65 1
47 73 1
47 103 1
47 173 1
47 181 1
47 211 1
47 281 1
47 289 1
47 319 1
48 66 1
48 76 1
48 104 1
48 174 1
48 184 1
48 212 1
48 282 1
48 292 1
48 320 1
49 67 1
49 74 1
49 102 1
49 175 1
49 182 1
49 210 1
49 283 1
49 290 1
49 318 1
50 68 1
50 75 1
50 106 1
50 176 1
50 183 1
50 214 1
50 284 1
50 291 1
50 322 1
51 69 1
51 79 1
51 107 1
51 177 1
51 187 1
51 215 1
51 285 1
51 295 1
51 323 1
52 70 1
52 77 1
52 105 1
52 178 1
52 185 1
52 213 1
52 286 1
52 293 1
52 321 1
53 71 1
53 78 1
53 108 1
53 179 1
53 186 1
53 216 1
53 287 1
53 294 1
53 324 1
54 72 1
54 80 1
54 100 1
54 180 1
54 188 1
54 208 1
54 288 1
54 296 1
54 316 1
55 109 1
55 118 1
55 148 1
55 217 1
55 226 1
55 256 1
55 271 1
55 280 1
55 310 1
56 110 1
56 119 1
56 147 1
56 218 1
56 227 1
56 255 1
56 272 1
56 281 1
56 309 1
57 111 1
57 120 1
57 151 1
57 219 1
57 228 1
57 259 1
57 273 1
57 282 1
57 313 1
58 112 1
58 121 1
58 149 1
58 220 1
58 229 1
58 257 1
58 274 1
58 283 1
58 311 1
59 113 1
59 122 1
59 150 1
59 221 1
59 230 1
59 258 1
59 275 1
59 284 1
59 312 1
60 114 1
60 123 1
60 153 1
60 222 1
60 231 1
60 261 1
60 276 1
60 285 1
60 315 1
61 115 1
61 124 1
61 152 1
61 223 1
61 232 1
61 260 1
61 277 1
61 286 1
61 314 1
62 116 1
62 125 1
62 145 1
62 224 1
62 233 1
62 253 1
62 278 1
62 287 1
62 307 1
63 117 1
63 126 1
63 146 1
63 225 1
63 234 1
63 254 1
63 279 1
63 288 1
63 308 1
64 109 1
64 143 1
64 155 1
64 217 1
64 251 1
64 263 1
64 271 1
64 305 1
64 317 1
65 110 1
65 144 1
65 157 1
65 218 1
65 252 1
65 265 1
65 272 1
65 306 1
65 319 1
66 111 1
66 137 1
66 158 1
66 219 1
66 245 1
66 266 1
66 273 1
66 299 1
66 320 1
67 112 1
67 136 1
67 156 1
67 220 1
67 244 1
67 264 1
67 274 1
67 298 1
67 318 1
68 113 1
68 139 1
68 160 1
68 221 1
68 247 1
68 268 1
68 275 1
68 301 1
68 322 1
69 114 1
69 140 1
69 161 1
69 222 1
69 248 1
69 269 1
69 276 1
69 302 1
69 323 1
70 115 1
70 138 1
70 159 1
70 223 1
70 246 1
70 267 1
70 277 1
70 300 1
70 321 1
71 116 1
71 142 1
71 162 1
71 224 1
71 250 1
71 270 1
71 278 1
71 304 1
71 324 1
72 117 1
72 141 1
72 154 1
72 225 1
72 249 1
72 262 1
72 279 1
72 303 1
72 316 1
73 118 1
73 135 1
73 155 1
73 226 1
73 243 1
73 263 1
73 280 1
73 297 1
73 317 1
74 119 1
74 127 1
74 157 1
74 227 1
74 235 1
74 265 1
74 281 1
74 289 1
74 319 1
75 120 1
75 130 1
75 158 1
75 228 1
75 238 1
75 266 1
75 282 1
75 292 1
75 320 1
76 121 1
76 128 1
76 156 1
76 229 1
76 236 1
76 264 1
76 283 1
76 290 1
76 318 1
77 122 1
77 129 1
77 160 1
77 230 1
77 237 1
77 268 1
77 284 1
77 291 1
77 322 1
78 123 1
78 133 1
78 161 1
78 231 1
78 241 1
78 269 1
78 285 1
78 295 1
78 323 1
79 124 1
79 131 1
79 159 1
79 232 1
79 239 1
79 267 1
79 286 1
79 293 1
79 321 1
80 125 1
80 132 1
80 162 1
80 233 1
80 240 1
80 270 1
80 287 1
80 294 1
80 324 1
81 126 1
81 134 1
81 154 1
81 234 1
81 242 1
81 262 1
81 288 1
81 296 1
81 316 1
82 1 1
82 10 1
82 28 1
82 165 1
82 174 1
82 192 1
82 275 1
82 284 1
82 302 1
83 2 1
83 11 1
83 29 1
83 167 1
83 176 1
83 194 1
83 277 1
83 286 1
83 304 1
84 3 1
84 12 1
84 30 1
84 168 1
84 177 1
84 195 1
84 278 1
84 287 1
84 305 1
85 4 1
85 13 1
85 31 1
85 169 1
85 178 1
85 196 1
85 276 1
85 285 1
85 303 1
86 5 1
86 14 1
86 32 1
86 170 1
86 179 1
86 197 1
86 279 1
86 288 1
86 306 1
87 6 1
87 15 1
87 33 1
87 163 1
87 172 1
87 190 1
87 272 1
87 281 1
87 299 1
88 7 1
88 16 1
88 34 1
88 171 1
88 180 1
88 198 1
88 271 1
88 280 1
88 298 1
89 8 1
89 17 1
89 35 1
89 164 1
89 173 1
89 191 1
89 274 1
89 283 1
89 301 1
90 9 1
90 18 1
90 36 1
90 166 1
90 175 1
90 193 1
90 273 1
90 282 1
90 300 1
91 1 1
91 19 1
91 37 1
91 165 1
91 183 1
91 201 1
91 275 1
91 293 1
91 311 1
92 2 1
92 20 1
92 38 1
92 167 1
92 185 1
92 203 1
92 277 1
92 295 1
92 313 1
93 3 1
93 21 1
93 39 1
93 168 1
93 186 1
93 204 1
93 278 1
93 296 1
93 314 1
94 4 1
94 22 1
94 40 1
94 169 1
94 187 1
94 205 1
94 276 1
94 294 1
94 312 1
95 5 1
95 23 1
95 41 1
95 170 1
95 188 1
95 206 1
95 279 1
95 297 1
95 315 1
96 6 1
96 24 1
96 42 1
96 163 1
96 181 1
96 199 1
96 272 1
96 290 1
96 308 1
97 7 1
97 25 1
97 43 1
97 171 1
97 189 1
97 207 1
97 271 1
97 289 1
97 307 1
98 8 1
98 26 1
98 44 1
98 164 1
98 182 1
98 200 1
98 274 1
98 292 1
98 310 1
99 9 1
99 27 1
99 45 1
99 166 1
99 184 1
99 202 1
99 273 1
99 291 1
99 309 1
100 10 1
100 19 1
100 46 1
100 174 1
100 183 1
100 210 1
100 284 1
100 293 1
100 320 1
101 11 1
101 20 1
101 47 1
101 176 1
101 185 1
101 212 1
101 286 1
101 295 1
101 322 1
102 12 1
102 21 1
102 48 1
102 177 1
102 186 1
102 213 1
102 287 1
102 296 1
102 323 1
103 13 1
103 22 1
103 49 1
103 178 1
103 187 1
103 214 1
103 285 1
103 294 1
103 321 1
104 14 1
104 23 1
104 50 1
104 179 1
104 188 1
104 215 1
104 288 1
104 297 1
104 324 1
105 15 1
105 24 1
105 51 1
105 172 1
105 181 1
105 208 1
105 281 1
105 290 1
105 317 1
106 16 1
106 25 1
106 52 1
106 180 1
106 189 1
106 216 1
106 280 1
106 289 1
106 316 1
107 17 1
107 26 1
107 53 1
107 173 1
107 182 1
107 209 1
107 283 1
107 292 1
107 319 1
108 18 1
108 27 1
108 54 1
108 175 1
108 184 1
108 211 1
108 282 1
108 291 1
108 318 1
109 56 1
109 65 1
109 83 1
109 111 1
109 120 1
109 138 1
109 275 1
109 284 1
109 302 1
110 58 1
110 67 1
110 85 1
110 113 1
110 122 1
110 140 1
110 277 1
110 286 1
110 304 1
111 59 1
111 68 1
111 86 1
111 114 1
111 123 1
111 141 1
111 278 1
111 287 1
111 305 1
112 57 1
112 66 1
112 84 1
112 115 1
112 124 1
112 142 1
112 276 1
112 285 1
112 303 1
113 61 1
113 70 1
113 88 1
113 116 1
113 125 1
113 143 1
113 279 1
113 288 1
113 306 1
114 62 1
114 71 1
114 89 1
114 109 1
114 118 1
114 136 1
114 272 1
114 281 1
114 299 1
115 60 1
115 69 1
115 87 1
115 117 1
115 126 1
115 144 1
115 271 1
115 280 1
115 298 1
116 63 1
116 72 1
116 90 1
116 110 1
116 119 1
116 137 1
116 274 1
116 283 1
116 301 1
117 55 1
117 64 1
117 82 1
117 112 1
117 121 1
117 139 1
117 273 1
117 282 1
117 300 1
118 56 1
118 74 1
118 92 1
118 111 1
118 129 1
118 147 1
118 275 1
118 293 1
118 311 1
119 58 1
119 76 1
119 94 1
119 113 1
119 131 1
119 149 1
119 277 1
119 295 1
119 313 1
120 59 1
120 77 1
120 95 1
120 114 1
120 132 1
120 150 1
120 278 1
120 296 1
120 314 1
121 57 1
121 75 1
121 93 1
121 115 1
121 133 1
121 151 1
121 276 1
121 294 1
121 312 1
122 61 1
122 79 1
122 97 1
122 116 1
122 134 1
122 152 1
122 279 1
122 297 1
122 315 1
123 62 1
123 80 1
123 98 1
123 109 1
123 127 1
123 145 1
123 272 1
123 290 1
123 308 1
124 60 1
124 78 1
124 96 1
124 117 1
124 135 1
124 153 1
124 271 1
124 289 1
124 307 1
125 63 1
125 81 1
125 99 1
125 110 1
125 128 1
125 146 1
125 274 1
125 292 1
125 310 1
126 55 1
126 73 1
126 91 1
126 112 1
126 130 1
126 148 1
126 273 1
126 291 1
126 309 1
127 65 1
127 74 1
127 101 1
127 120 1
127 129 1
127 156 1
127 284 1
127 293 1
127 320 1
128 67 1
128 76 1
128 103 1
128 122 1
128 131 1
128 158 1
128 286 1
128 295 1
128 322 1
129 68 1
129 77 1
129 104 1
129 123 1
129 132 1
129 159 1
129 287 1
129 296 1
129 323 1
130 66 1
130 75 1
130 102 1
130 124 1
130 133 1
130 160 1
130 285 1
130 294 1
130 321 1
131 70 1
131 79 1
131 106 1
131 125 1
131 134 1
131 161 1
131 288 1
131 297 1
131 324 1
132 71 1
132 80 1
132 107 1
132 118 1
132 127 1
132 154 1
132 281 1
132 290 1
132 317 1
133 69 1
133 78 1
133 105 1
133 126 1
133 135 1
133 162 1
133 280 1
133 289 1
133 316 1
134 72 1
134 81 1
134 108 1
134 119 1
134 128 1
134 155 1
134 283 1
134 292 1
134 319 1
135 64 1
135 73 1
135 100 1
135 121 1
135 130 1
135 157 1
135 282 1
135 291 1
135 318 1
136 56 1
136 65 1
136 83 1
136 165 1
136 174 1
136 192 1
136 220 1
136 229 1
136 247 1
137 58 1
137 67 1
137 85 1
137 167 1
137 176 1
137 194 1
137 219 1
137 228 1
137 246 1
138 59 1
138 68 1
138 86 1
138 168 1
138 177 1
138 195 1
138 223 1
138 232 1
138 250 1
139 57 1
139 66 1
139 84 1
139 169 1
139 178 1
139 196 1
139 221 1
139 230 1
139 248 1
140 61 1
140 70 1
140 88 1
140 170 1
140 179 1
140 197 1
140 222 1
140 231 1
140 249 1
141 62 1
141 71 1
141 89 1
141 163 1
141 172 1
141 190 1
141 225 1
141 234 1
141 252 1
142 60 1
142 69 1
142 87 1
142 171 1
142 180 1
142 198 1
142 224 1
142 233 1
142 251 1
143 63 1
143 72 1
143 90 1
143 164 1
143 173 1
143 191 1
143 217 1
143 226 1
143 244 1
144 55 1
144 64 1
144 82 1
144 166 1
144 175 1
144 193 1
144 218 1
144 227 1
144 245 1
145 56 1
145 74 1
145 92 1
145 165 1
145 183 1
145 201 1
145 220 1
145 238 1
145 256 1
146 58 1
146 76 1
146 94 1
146 167 1
146 185 1
146 203 1
146 219 1
146 237 1
146 255 1
147 59 1
147 77 1
147 95 1
147 168 1
147 186 1
147 204 1
147 223 1
147 241 1
147 259 1
148 57 1
148 75 1
148 93 1
148 169 1
148 187 1
148 205 1
148 221 1
148 239 1
148 257 1
149 61 1
149 79 1
149 97 1
149 170 1
149 188 1
149 206 1
149 222 1
149 240 1
149 258 1
150 62 1
150 80 1
150 98 1
150 163 1
150 181 1
150 199 1
150 225 1
150 243 1
150 261 1
151 60 1
151 78 1
151 96 1
151 171 1
151 189 1
151 207 1
151 224 1
151 242 1
151 260 1
152 63 1
152 81 1
152 99 1
152 164 1
152 182 1
152 200 1
152 217 1
152 235 1
152 253 1
153 55 1
153 73 1
153 91 1
153 166 1
153 184 1
153 202 1
153 218 1
153 236 1
153 254 1
154 65 1
154 74 1
154 101 1
154 174 1
154 183 1
154 210 1
154 229 1
154 238 1
154 265 1
155 67 1
155 76 1
155 103 1
155 176 1
155 185 1
155 212 1
155 228 1
155 237 1
155 264 1
156 68 1
156 77 1
156 104 1
156 177 1
156 186 1
156 213 1
156 232 1
156 241 1
156 268 1
157 66 1
157 75 1
157 102 1
157 178 1
157 187 1
157 214 1
157 230 1
157 239 1
157 266 1
158 70 1
158 79 1
158 106 1
158 179 1
158 188 1
158 215 1
158 231 1
158 240 1
158 267 1
159 71 1
159 80 1
159 107 1
159 172 1
159 181 1
159 208 1
159 234 1
159 243 1
159 270 1
160 69 1
160 78 1
160 105 1
160 180 1
160 189 1
160 216 1
160 233 1
160 242 1
160 269 1
161 72 1
161 81 1
161 108 1
161 173 1
161 182 1
161 209 1
161 226 1
161 235 1
161 262 1
162 64 1
162 73 1
162 100 1
162 175 1
162 184 1
162 211 1
162 227 1
162 236 1
162 263 1
