%%MatrixMarket matrix coordinate integer general
192 384 3072
1 1 1
1 20 1
1 34 1
1 39 1
1 193 1
1 212 1
1 226 1
1 231 1
1 241 1
1 260 1
1 274 1
1 279 1
1 289 1
1 308 1
1 322 1
1 327 1
2 2 1
2 19 1
2 33 1
2 40 1
2 194 1
2 211 1
2 225 1
2 232 1
2 242 1
2 259 1
2 273 1
2 280 1
2 290 1
2 307 1
2 321 1
2 328 1
3 3 1
3 24 1
3 32 1
3 41 1
3 195 1
3 216 1
3 224 1
3 233 1
3 243 1
3 264 1
3 272 1
3 281 1
3 291 1
3 312 1
3 320 1
3 329 1
4 4 1
4 23 1
4 31 1
4 42 1
4 196 1
4 215 1
4 223 1
4 234 1
4 244 1
4 263 1
4 271 1
4 282 1
4 292 1
4 311 1
4 319 1
4 330 1
5 5 1
5 22 1
5 36 1
5 37 1
5 197 1
5 214 1
5 228 1
5 229 1
5 245 1
5 262 1
5 276 1
5 277 1
5 293 1
5 310 1
5 324 1
5 325 1
6 6 1
6 21 1
6 35 1
6 38 1
6 198 1
6 213 1
6 227 1
6 230 1
6 246 1
6 261 1
6 275 1
6 278 1
6 294 1
6 309 1
6 323 1
6 326 1
7 7 1
7 20 1
7 34 1
7 48 1
7 199 1
7 212 1
7 226 1
7 240 1
7 247 1
7 260 1
7 274 1
7 288 1
7 295 1
7 308 1
7 322 1
7 336 1
8 8 1
8 19 1
8 33 1
8 47 1
8 200 1
8 211 1
8 225 1
8 239 1
8 248 1
8 259 1
8 273 1
8 287 1
8 296 1
8 307 1
8 321 1
8 335 1
9 9 1
9 24 1
9 32 1
9 46 1
9 201 1
9 216 1
9 224 1
9 238 1
9 249 1
9 264 1
9 272 1
9 286 1
9 297 1
9 312 1
9 320 1
9 334 1
10 10 1
10 23 1
10 31 1
10 45 1
10 202 1
10 215 1
10 223 1
10 237 1
10 250 1
10 263 1
10 271 1
10 285 1
10 298 1
10 311 1
10 319 1
10 333 1
11 11 1
11 22 1
11 36 1
11 44 1
11 203 1
11 214 1
11 228 1
11 236 1
11 251 1
11 262 1
11 276 1
11 284 1
11 299 1
11 310 1
11 324 1
11 332 1
12 12 1
12 21 1
12 35 1
12 43 1
12 204 1
12 213 1
12 227 1
12 235 1
12 252 1
12 261 1
12 275 1
12 283 1
12 300 1
12 309 1
12 323 1
12 331 1
13 13 1
13 20 1
13 39 1
13 48 1
13 205 1
13 212 1
13 231 1
13 240 1
13 253 1
13 260 1
13 279 1
13 288 1
13 301 1
13 308 1
13 327 1
13 336 1
14 14 1
14 19 1
14 40 1
14 47 1
14 206 1
14 211 1
14 232 1
14 239 1
14 254 1
14 259 1
14 280 1
14 287 1
14 302 1
14 307 1
14 328 1
14 335 1
15 15 1
15 24 1
15 41 1
15 46 1
15 207 1
15 216 1
15 233 1
15 238 1
15 255 1
15 264 1
15 281 1
15 286 1
15 303 1
15 312 1
15 329 1
15 334 1
16 16 1
16 23 1
16 42 1
16 45 1
16 208 1
16 215 1
16 234 1
16 237 1
16 256 1
16 263 1
16 282 1
16 285 1
16 304 1
16 311 1
16 330 1
16 333 1
17 17 1
17 22 1
17 37 1
17 44 1
17 209 1
17 214 1
17 229 1
17 236 1
17 257 1
17 262 1
17 277 1
17 284 1
17 305 1
17 310 1
17 325 1
17 332 1
18 18 1
18 21 1
18 38 1
18 43 1
18 210 1
18 213 1
18 230 1
18 235 1
18 258 1
18 261 1
18 278 1
18 283 1
18 306 1
18 309 1
18 326 1
18 331 1
19 28 1
19 34 1
19 39 1
19 48 1
19 220 1
19 226 1
19 231 1
19 240 1
19 268 1
19 274 1
19 279 1
19 288 1
19 316 1
19 322 1
19 327 1
19 336 1
20 27 1
20 33 1
20 40 1
20 47 1
20 219 1
20 225 1
20 232 1
20 239 1
20 267 1
20 273 1
20 280 1
20 287 1
20 315 1
20 321 1
20 328 1
20 335 1
21 26 1
21 32 1
21 41 1
21 46 1
21 218 1
21 224 1
21 233 1
21 238 1
21 266 1
21 272 1
21 281 1
21 286 1
21 314 1
21 320 1
21 329 1
21 334 1
22 25 1
22 31 1
22 42 1
22 45 1
22 217 1
22 223 1
22 234 1
22 237 1
22 265 1
22 271 1
22 282 1
22 285 1
22 313 1
22 319 1
22 330 1
22 333 1
23 30 1
23 36 1
23 37 1
23 44 1
23 222 1
23 228 1
23 229 1
23 236 1
23 270 1
23 276 1
23 277 1
23 284 1
23 318 1
23 324 1
23 325 1
23 332 1
24 29 1
24 35 1
24 38 1
24 43 1
24 221 1
24 227 1
24 230 1
24 235 1
24 269 1
24 275 1
24 278 1
24 283 1
24 317 1
24 323 1
24 326 1
24 331 1
25 49 1
25 68 1
25 82 1
25 87 1
25 193 1
25 212 1
25 226 1
25 231 1
25 241 1
25 260 1
25 274 1
25 279 1
25 337 1
25 356 1
25 370 1
25 375 1
26 50 1
26 67 1
26 81 1
26 88 1
26 194 1
26 211 1
26 225 1
26 232 1
26 242 1
26 259 1
26 273 1
26 280 1
26 338 1
26 355 1
26 369 1
26 376 1
27 51 1
27 72 1
27 80 1
27 89 1
27 195 1
27 216 1
27 224 1
27 233 1
27 243 1
27 264 1
27 272 1
27 281 1
27 339 1
27 360 1
27 368 1
27 377 1
28 52 1
28 71 1
28 79 1
28 90 1
28 196 1
28 215 1
28 223 1
28 234 1
28 244 1
28 263 1
28 271 1
28 282 1
28 340 1
28 359 1
28 367 1
28 378 1
29 53 1
29 70 1
29 84 1
29 85 1
29 197 1
29 214 1
29 228 1
29 229 1
29 245 1
29 262 1
29 276 1
29 277 1
29 341 1
29 358 1
29 372 1
29 373 1
30 54 1
30 69 1
30 83 1
30 86 1
30 198 1
30 213 1
30 227 1
30 230 1
30 246 1
30 261 1
30 275 1
30 278 1
30 342 1
30 357 1
30 371 1
30 374 1
31 55 1
31 68 1
31 82 1
31 96 1
31 199 1
31 212 1
31 226 1
31 240 1
31 247 1
31 260 1
31 274 1
31 288 1
31 343 1
31 356 1
31 370 1
31 384 1
32 56 1
32 67 1
32 81 1
32 95 1
32 200 1
32 211 1
32 225 1
32 239 1
32 248 1
32 259 1
32 273 1
32 287 1
32 344 1
32 355 1
32 369 1
32 383 1
33 57 1
33 72 1
33 80 1
33 94 1
33 201 1
33 216 1
33 224 1
33 238 1
33 249 1
33 264 1
33 272 1
33 286 1
33 345 1
33 360 1
33 368 1
33 382 1
34 58 1
34 71 1
34 79 1
34 93 1
34 202 1
34 215 1
34 223 1
34 237 1
34 250 1
34 263 1
34 271 1
34 285 1
34 346 1
34 359 1
34 367 1
34 381 1
35 59 1
35 70 1
35 84 1
35 92 1
35 203 1
35 214 1
35 228 1
35 236 1
35 251 1
35 262 1
35 276 1
35 284 1
35 347 1
35 358 1
35 372 1
35 380 1
36 60 1
36 69 1
36 83 1
36 91 1
36 204 1
36 213 1
36 227 1
36 235 1
36 252 1
36 261 1
36 275 1
36 283 1
36 348 1
36 357 1
36 371 1
36 379 1
37 61 1
37 68 1
37 87 1
37 96 1
37 205 1
37 212 1
37 231 1
37 240 1
37 253 1
37 260 1
37 279 1
37 288 1
37 349 1
37 356 1
37 375 1
37 384 1
38 62 1
38 67 1
38 88 1
38 95 1
38 206 1
38 211 1
38 232 1
38 239 1
38 254 1
38 259 1
38 280 1
38 287 1
38 350 1
38 355 1
38 376 1
38 383 1
39 63 1
39 72 1
39 89 1
39 94 1
39 207 1
39 216 1
39 233 1
39 238 1
39 255 1
39 264 1
39 281 1
39 286 1
39 351 1
39 360 1
39 377 1
39 382 1
40 64 1
40 71 1
40 90 1
40 93 1
40 208 1
40 215 1
40 234 1
40 237 1
40 256 1
40 263 1
40 282 1
40 285 1
40 352 1
40 359 1
40 378 1
40 381 1
41 65 1
41 70 1
41 85 1
41 92 1
41 209 1
41 214 1
41 229 1
41 236 1
41 257 1
41 262 1
41 277 1
41 284 1
41 353 1
41 358 1
41 373 1
41 380 1
42 66 1
42 69 1
42 86 1
42 91 1
42 210 1
42 213 1
42 230 1
42 235 1
42 258 1
42 261 1
42 278 1
42 283 1
42 354 1
42 357 1
42 374 1
42 379 1
43 76 1
43 82 1
43 87 1
43 96 1
43 220 1
43 226 1
43 231 1
43 240 1
43 268 1
43 274 1
43 279 1
43 288 1
43 364 1
43 370 1
43 375 1
43 384 1
44 75 1
44 81 1
44 88 1
44 95 1
44 219 1
44 225 1
44 232 1
44 239 1
44 267 1
44 273 1
44 280 1
44 287 1
44 363 1
44 369 1
44 376 1
44 383 1
45 74 1
45 80 1
45 89 1
45 94 1
45 218 1
45 224 1
45 233 1
45 238 1
45 266 1
45 272 1
45 281 1
45 286 1
45 362 1
45 368 1
45 377 1
45 382 1
46 73 1
46 79 1
46 90 1
46 93 1
46 217 1
46 223 1
46 234 1
46 237 1
46 265 1
46 271 1
46 282 1
46 285 1
46 361 1
46 367 1
46 378 1
46 381 1
47 78 1
47 84 1
47 85 1
47 92 1
47 222 1
47 228 1
47 229 1
47 236 1
47 270 1
47 276 1
47 277 1
47 284 1
47 366 1
47 372 1
47 373 1
47 380 1
48 77 1
48 83 1
48 86 1
48 91 1
48 221 1
48 227 1
48 230 1
48 235 1
48 269 1
48 275 1
48 278 1
48 283 1
48 365 1
48 371 1
48 374 1
48 379 1
49 97 1
49 116 1
49 130 1
49 135 1
49 193 1
49 212 1
49 226 1
49 231 1
49 289 1
49 308 1
49 322 1
49 327 1
49 337 1
49 356 1
49 370 1
49 375 1
50 98 1
50 115 1
50 129 1
50 136 1
50 194 1
50 211 1
50 225 1
50 232 1
50 290 1
50 307 1
50 321 1
50 328 1
50 338 1
50 355 1
50 369 1
50 376 1
51 99 1
51 120 1
51 128 1
51 137 1
51 195 1
51 216 1
51 224 1
51 233 1
51 291 1
51 312 1
51 320 1
51 329 1
51 339 1
51 360 1
51 368 1
51 377 1
52 100 1
52 119 1
52 127 1
52 138 1
52 196 1
52 215 1
52 223 1
52 234 1
52 292 1
52 311 1
52 319 1
52 330 1
52 340 1
52 359 1
52 367 1
52 378 1
53 101 1
53 118 1
53 132 1
53 133 1
53 197 1
53 214 1
53 228 1
53 229 1
53 293 1
53 310 1
53 324 1
53 325 1
53 341 1
53 358 1
53 372 1
53 373 1
54 102 1
54 117 1
54 131 1
54 134 1
54 198 1
54 213 1
54 227 1
54 230 1
54 294 1
54 309 1
54 323 1
54 326 1
54 342 1
54 357 1
54 371 1
54 374 1
55 103 1
55 116 1
55 130 1
55 144 1
55 199 1
55 212 1
55 226 1
55 240 1
55 295 1
55 308 1
55 322 1
55 336 1
55 343 1
55 356 1
55 370 1
55 384 1
56 104 1
56 115 1
56 129 1
56 143 1
56 200 1
56 211 1
56 225 1
56 239 1
56 296 1
56 307 1
56 321 1
56 335 1
56 344 1
56 355 1
56 369 1
56 383 1
57 105 1
57 120 1
57 128 1
57 142 1
57 201 1
57 216 1
57 224 1
57 238 1
57 297 1
57 312 1
57 320 1
57 334 1
57 345 1
57 360 1
57 368 1
57 382 1
58 106 1
58 119 1
58 127 1
58 141 1
58 202 1
58 215 1
58 223 1
58 237 1
58 298 1
58 311 1
58 319 1
58 333 1
58 346 1
58 359 1
58 367 1
58 381 1
59 107 1
59 118 1
59 132 1
59 140 1
59 203 1
59 214 1
59 228 1
59 236 1
59 299 1
59 310 1
59 324 1
59 332 1
59 347 1
59 358 1
59 372 1
59 380 1
60 108 1
60 117 1
60 131 1
60 139 1
60 204 1
60 213 1
60 227 1
60 235 1
60 300 1
60 309 1
60 323 1
60 331 1
60 348 1
60 357 1
60 371 1
60 379 1
61 109 1
61 116 1
61 135 1
61 144 1
61 205 1
61 212 1
61 231 1
61 240 1
61 301 1
61 308 1
61 327 1
61 336 1
61 349 1
61 356 1
61 375 1
61 384 1
62 110 1
62 115 1
62 136 1
62 143 1
62 206 1
62 211 1
62 232 1
62 239 1
62 302 1
62 307 1
62 328 1
62 335 1
62 350 1
62 355 1
62 376 1
62 383 1
63 111 1
63 120 1
63 137 1
63 142 1
63 207 1
63 216 1
63 233 1
63 238 1
63 303 1
63 312 1
63 329 1
63 334 1
63 351 1
63 360 1
63 377 1
63 382 1
64 112 1
64 119 1
64 138 1
64 141 1
64 208 1
64 215 1
64 234 1
64 237 1
64 304 1
64 311 1
64 330 1
64 333 1
64 352 1
64 359 1
64 378 1
64 381 1
65 113 1
65 118 1
65 133 1
65 140 1
65 209 1
65 214 1
65 229 1
65 236 1
65 305 1
65 310 1
65 325 1
65 332 1
65 353 1
65 358 1
65 373 1
65 380 1
66 114 1
66 117 1
66 134 1
66 139 1
66 210 1
66 213 1
66 230 1
66 235 1
66 306 1
66 309 1
66 326 1
66 331 1
66 354 1
66 357 1
66 374 1
66 379 1
67 124 1
67 130 1
67 135 1
67 144 1
67 220 1
67 226 1
67 231 1
67 240 1
67 316 1
67 322 1
67 327 1
67 336 1
67 364 1
67 370 1
67 375 1
67 384 1
68 123 1
68 129 1
68 136 1
68 143 1
68 219 1
68 225 1
68 232 1
68 239 1
68 315 1
68 321 1
68 328 1
68 335 1
68 363 1
68 369 1
68 376 1
68 383 1
69 122 1
69 128 1
69 137 1
69 142 1
69 218 1
69 224 1
69 233 1
69 238 1
69 314 1
69 320 1
69 329 1
69 334 1
69 362 1
69 368 1
69 377 1
69 382 1
70 121 1
70 127 1
70 138 1
70 141 1
70 217 1
70 223 1
70 234 1
70 237 1
70 313 1
70 319 1
70 330 1
70 333 1
70 361 1
70 367 1
70 378 1
70 381 1
71 126 1
71 132 1
71 133 1
71 140 1
71 222 1
71 228 1
71 229 1
71 236 1
71 318 1
71 324 1
71 325 1
71 332 1
71 366 1
71 372 1
71 373 1
71 380 1
72 125 1
72 131 1
72 134 1
72 139 1
72 221 1
72 227 1
72 230 1
72 235 1
72 317 1
72 323 1
72 326 1
72 331 1
72 365 1
72 371 1
72 374 1
72 379 1
73 145 1
73 164 1
73 178 1
73 183 1
73 241 1
73 260 1
73 274 1
73 279 1
73 289 1
73 308 1
73 322 1
73 327 1
73 337 1
73 356 1
73 370 1
73 375 1
74 146 1
74 163 1
74 177 1
74 184 1
74 242 1
74 259 1
74 273 1
74 280 1
74 290 1
74 307 1
74 321 1
74 328 1
74 338 1
74 355 1
74 369 1
74 376 1
75 147 1
75 168 1
75 176 1
75 185 1
75 243 1
75 264 1
75 272 1
75 281 1
75 291 1
75 312 1
75 320 1
75 329 1
75 339 1
75 360 1
75 368 1
75 377 1
76 148 1
76 167 1
76 175 1
76 186 1
76 244 1
76 263 1
76 271 1
76 282 1
76 292 1
76 311 1
76 319 1
76 330 1
76 340 1
76 359 1
76 367 1
76 378 1
77 149 1
77 166 1
77 180 1
77 181 1
77 245 1
77 262 1
77 276 1
77 277 1
77 293 1
77 310 1
77 324 1
77 325 1
77 341 1
77 358 1
77 372 1
77 373 1
78 150 1
78 165 1
78 179 1
78 182 1
78 246 1
78 261 1
78 275 1
78 278 1
78 294 1
78 309 1
78 323 1
78 326 1
78 342 1
78 357 1
78 371 1
78 374 1
79 151 1
79 164 1
79 178 1
79 192 1
79 247 1
79 260 1
79 274 1
79 288 1
79 295 1
79 308 1
79 322 1
79 336 1
79 343 1
79 356 1
79 370 1
79 384 1
80 152 1
80 163 1
80 177 1
80 191 1
80 248 1
80 259 1
80 273 1
80 287 1
80 296 1
80 307 1
80 321 1
80 335 1
80 344 1
80 355 1
80 369 1
80 383 1
81 153 1
81 168 1
81 176 1
81 190 1
81 249 1
81 264 1
81 272 1
81 286 1
81 297 1
81 312 1
81 320 1
81 334 1
81 345 1
81 360 1
81 368 1
81 382 1
82 154 1
82 167 1
82 175 1
82 189 1
82 250 1
82 263 1
82 271 1
82 285 1
82 298 1
82 311 1
82 319 1
82 333 1
82 346 1
82 359 1
82 367 1
82 381 1
83 155 1
83 166 1
83 180 1
83 188 1
83 251 1
83 262 1
83 276 1
83 284 1
83 299 1
83 310 1
83 324 1
83 332 1
83 347 1
83 358 1
83 372 1
83 380 1
84 156 1
84 165 1
84 179 1
84 187 1
84 252 1
84 261 1
84 275 1
84 283 1
84 300 1
84 309 1
84 323 1
84 331 1
84 348 1
84 357 1
84 371 1
84 379 1
85 157 1
85 164 1
85 183 1
85 192 1
85 253 1
85 260 1
85 279 1
85 288 1
85 301 1
85 308 1
85 327 1
85 336 1
85 349 1
85 356 1
85 375 1
85 384 1
86 158 1
86 163 1
86 184 1
86 191 1
86 254 1
86 259 1
86 280 1
86 287 1
86 302 1
86 307 1
86 328 1
86 335 1
86 350 1
86 355 1
86 376 1
86 383 1
87 159 1
87 168 1
87 185 1
87 190 1
87 255 1
87 264 1
87 281 1
87 286 1
87 303 1
87 312 1
87 329 1
87 334 1
87 351 1
87 360 1
87 377 1
87 382 1
88 160 1
88 167 1
88 186 1
88 189 1
88 256 1
88 263 1
88 282 1
88 285 1
88 304 1
88 311 1
88 330 1
88 333 1
88 352 1
88 359 1
88 378 1
88 381 1
89 161 1
89 166 1
89 181 1
89 188 1
89 257 1
89 262 1
89 277 1
89 284 1
89 305 1
89 310 1
89 325 1
89 332 1
89 353 1
89 358 1
89 373 1
89 380 1
90 162 1
90 165 1
90 182 1
90 187 1
90 258 1
90 261 1
90 278 1
90 283 1
90 306 1
90 309 1
90 326 1
90 331 1
90 354 1
90 357 1
90 374 1
90 379 1
91 172 1
91 178 1
91 183 1
91 192 1
91 268 1
91 274 1
91 279 1
91 288 1
91 316 1
91 322 1
91 327 1
91 336 1
91 364 1
91 370 1
91 375 1
91 384 1
92 171 1
92 177 1
92 184 1
92 191 1
92 267 1
92 273 1
92 280 1
92 287 1
92 315 1
92 321 1
92 328 1
92 335 1
92 363 1
92 369 1
92 376 1
92 383 1
93 170 1
93 176 1
93 185 1
93 190 1
93 266 1
93 272 1
93 281 1
93 286 1
93 314 1
93 320 1
93 329 1
93 334 1
93 362 1
93 368 1
93 377 1
93 382 1
94 169 1
94 175 1
94 186 1
94 189 1
94 265 1
94 271 1
94 282 1
94 285 1
94 313 1
94 319 1
94 330 1
94 333 1
94 361 1
94 367 1
94 378 1
94 381 1
95 174 1
95 180 1
95 181 1
95 188 1
95 270 1
95 276 1
95 277 1
95 284 1
95 318 1
95 324 1
95 325 1
95 332 1
95 366 1
95 372 1
95 373 1
95 380 1
96 173 1
96 179 1
96 182 1
96 187 1
96 269 1
96 275 1
96 278 1
96 283 1
96 317 1
96 323 1
96 326 1
96 331 1
96 365 1
96 371 1
96 374 1
96 379 1
97 1 1
97 25 1
97 31 1
97 37 1
97 146 1
97 170 1
97 176 1
97 182 1
97 243 1
97 267 1
97 273 1
97 279 1
97 292 1
97 316 1
97 322 1
97 328 1
98 2 1
98 26 1
98 32 1
98 38 1
98 145 1
98 169 1
98 175 1
98 181 1
98 246 1
98 270 1
98 276 1
98 282 1
98 293 1
98 317 1
98 323 1
98 329 1
99 3 1
99 27 1
99 33 1
99 39 1
99 148 1
99 172 1
99 178 1
99 184 1
99 245 1
99 269 1
99 275 1
99 281 1
99 294 1
99 318 1
99 324 1
99 330 1
100 4 1
100 28 1
100 34 1
100 40 1
100 147 1
100 171 1
100 177 1
100 183 1
100 242 1
100 266 1
100 272 1
100 278 1
100 289 1
100 313 1
100 319 1
100 325 1
101 5 1
101 29 1
101 35 1
101 41 1
101 150 1
101 174 1
101 180 1
101 186 1
101 241 1
101 265 1
101 271 1
101 277 1
101 290 1
101 314 1
101 320 1
101 326 1
102 6 1
102 30 1
102 36 1
102 42 1
102 149 1
102 173 1
102 179 1
102 185 1
102 244 1
102 268 1
102 274 1
102 280 1
102 291 1
102 315 1
102 321 1
102 327 1
103 7 1
103 25 1
103 31 1
103 43 1
103 152 1
103 170 1
103 176 1
103 188 1
103 249 1
103 267 1
103 273 1
103 285 1
103 298 1
103 316 1
103 322 1
103 334 1
104 8 1
104 26 1
104 32 1
104 44 1
104 151 1
104 169 1
104 175 1
104 187 1
104 252 1
104 270 1
104 276 1
104 288 1
104 299 1
104 317 1
104 323 1
104 335 1
105 9 1
105 27 1
105 33 1
105 45 1
105 154 1
105 172 1
105 178 1
105 190 1
105 251 1
105 269 1
105 275 1
105 287 1
105 300 1
105 318 1
105 324 1
105 336 1
106 10 1
106 28 1
106 34 1
106 46 1
106 153 1
106 171 1
106 177 1
106 189 1
106 248 1
106 266 1
106 272 1
106 284 1
106 295 1
106 313 1
106 319 1
106 331 1
107 11 1
107 29 1
107 35 1
107 47 1
107 156 1
107 174 1
107 180 1
107 192 1
107 247 1
107 265 1
107 271 1
107 283 1
107 296 1
107 314 1
107 320 1
107 332 1
108 12 1
108 30 1
108 36 1
108 48 1
108 155 1
108 173 1
108 179 1
108 191 1
108 250 1
108 268 1
108 274 1
108 286 1
108 297 1
108 315 1
108 321 1
108 333 1
109 13 1
109 25 1
109 37 1
109 43 1
109 158 1
109 170 1
109 182 1
109 188 1
109 255 1
109 267 1
109 279 1
109 285 1
109 304 1
109 316 1
109 328 1
109 334 1
110 14 1
110 26 1
110 38 1
110 44 1
110 157 1
110 169 1
110 181 1
110 187 1
110 258 1
110 270 1
110 282 1
110 288 1
110 305 1
110 317 1
110 329 1
110 335 1
111 15 1
111 27 1
111 39 1
111 45 1
111 160 1
111 172 1
111 184 1
111 190 1
111 257 1
111 269 1
111 281 1
111 287 1
111 306 1
111 318 1
111 330 1
111 336 1
112 16 1
112 28 1
112 40 1
112 46 1
112 159 1
112 171 1
112 183 1
112 189 1
112 254 1
112 266 1
112 278 1
112 284 1
112 301 1
112 313 1
112 325 1
112 331 1
113 17 1
113 29 1
113 41 1
113 47 1
113 162 1
113 174 1
113 186 1
113 192 1
113 253 1
113 265 1
113 277 1
113 283 1
113 302 1
113 314 1
113 326 1
113 332 1
114 18 1
114 30 1
114 42 1
114 48 1
114 161 1
114 173 1
114 185 1
114 191 1
114 256 1
114 268 1
114 280 1
114 286 1
114 303 1
114 315 1
114 327 1
114 333 1
115 19 1
115 31 1
115 37 1
115 43 1
115 164 1
115 176 1
115 182 1
115 188 1
115 261 1
115 273 1
115 279 1
115 285 1
115 310 1
115 322 1
115 328 1
115 334 1
116 20 1
116 32 1
116 38 1
116 44 1
116 163 1
116 175 1
116 181 1
116 187 1
116 264 1
116 276 1
116 282 1
116 288 1
116 311 1
116 323 1
116 329 1
116 335 1
117 21 1
117 33 1
117 39 1
117 45 1
117 166 1
117 178 1
117 184 1
117 190 1
117 263 1
117 275 1
117 281 1
117 287 1
117 312 1
117 324 1
117 330 1
117 336 1
118 22 1
118 34 1
118 40 1
118 46 1
118 165 1
118 177 1
118 183 1
118 189 1
118 260 1
118 272 1
118 278 1
118 284 1
118 307 1
118 319 1
118 325 1
118 331 1
119 23 1
119 35 1
119 41 1
119 47 1
119 168 1
119 180 1
119 186 1
119 192 1
119 259 1
119 271 1
119 277 1
119 283 1
119 308 1
119 320 1
119 326 1
119 332 1
120 24 1
120 36 1
120 42 1
120 48 1
120 167 1
120 179 1
120 185 1
120 191 1
120 262 1
120 274 1
120 280 1
120 286 1
120 309 1
120 321 1
120 327 1
120 333 1
121 49 1
121 73 1
121 79 1
121 85 1
121 146 1
121 170 1
121 176 1
121 182 1
121 243 1
121 267 1
121 273 1
121 279 1
121 340 1
121 364 1
121 370 1
121 376 1
122 50 1
122 74 1
122 80 1
122 86 1
122 145 1
122 169 1
122 175 1
122 181 1
122 246 1
122 270 1
122 276 1
122 282 1
122 341 1
122 365 1
122 371 1
122 377 1
123 51 1
123 75 1
123 81 1
123 87 1
123 148 1
123 172 1
123 178 1
123 184 1
123 245 1
123 269 1
123 275 1
123 281 1
123 342 1
123 366 1
123 372 1
123 378 1
124 52 1
124 76 1
124 82 1
124 88 1
124 147 1
124 171 1
124 177 1
124 183 1
124 242 1
124 266 1
124 272 1
124 278 1
124 337 1
124 361 1
124 367 1
124 373 1
125 53 1
125 77 1
125 83 1
125 89 1
125 150 1
125 174 1
125 180 1
125 186 1
125 241 1
125 265 1
125 271 1
125 277 1
125 338 1
125 362 1
125 368 1
125 374 1
126 54 1
126 78 1
126 84 1
126 90 1
126 149 1
126 173 1
126 179 1
126 185 1
126 244 1
126 268 1
126 274 1
126 280 1
126 339 1
126 363 1
126 369 1
126 375 1
127 55 1
127 73 1
127 79 1
127 91 1
127 152 1
127 170 1
127 176 1
127 188 1
127 249 1
127 267 1
127 273 1
127 285 1
127 346 1
127 364 1
127 370 1
127 382 1
128 56 1
128 74 1
128 80 1
128 92 1
128 151 1
128 169 1
128 175 1
128 187 1
128 252 1
128 270 1
128 276 1
128 288 1
128 347 1
128 365 1
128 371 1
128 383 1
129 57 1
129 75 1
129 81 1
129 93 1
129 154 1
129 172 1
129 178 1
129 190 1
129 251 1
129 269 1
129 275 1
129 287 1
129 348 1
129 366 1
129 372 1
129 384 1
130 58 1
130 76 1
130 82 1
130 94 1
130 153 1
130 171 1
130 177 1
130 189 1
130 248 1
130 266 1
130 272 1
130 284 1
130 343 1
130 361 1
130 367 1
130 379 1
131 59 1
131 77 1
131 83 1
131 95 1
131 156 1
131 174 1
131 180 1
131 192 1
131 247 1
131 265 1
131 271 1
131 283 1
131 344 1
131 362 1
131 368 1
131 380 1
132 60 1
132 78 1
132 84 1
132 96 1
132 155 1
132 173 1
132 179 1
132 191 1
132 250 1
132 268 1
132 274 1
132 286 1
132 345 1
132 363 1
132 369 1
132 381 1
133 61 1
133 73 1
133 85 1
133 91 1
133 158 1
133 170 1
133 182 1
133 188 1
133 255 1
133 267 1
133 279 1
133 285 1
133 352 1
133 364 1
133 376 1
133 382 1
134 62 1
134 74 1
134 86 1
134 92 1
134 157 1
134 169 1
134 181 1
134 187 1
134 258 1
134 270 1
134 282 1
134 288 1
134 353 1
134 365 1
134 377 1
134 383 1
135 63 1
135 75 1
135 87 1
135 93 1
135 160 1
135 172 1
135 184 1
135 190 1
135 257 1
135 269 1
135 281 1
135 287 1
135 354 1
135 366 1
135 378 1
135 384 1
136 64 1
136 76 1
136 88 1
136 94 1
136 159 1
136 171 1
136 183 1
136 189 1
136 254 1
136 266 1
136 278 1
136 284 1
136 349 1
136 361 1
136 373 1
136 379 1
137 65 1
137 77 1
137 89 1
137 95 1
137 162 1
137 174 1
137 186 1
137 192 1
137 253 1
137 265 1
137 277 1
137 283 1
137 350 1
137 362 1
137 374 1
137 380 1
138 66 1
138 78 1
138 90 1
138 96 1
138 161 1
138 173 1
138 185 1
138 191 1
138 256 1
138 268 1
138 280 1
138 286 1
138 351 1
138 363 1
138 375 1
138 381 1
139 67 1
139 79 1
139 85 1
139 91 1
139 164 1
139 176 1
139 182 1
139 188 1
139 261 1
139 273 1
139 279 1
139 285 1
139 358 1
139 370 1
139 376 1
139 382 1
140 68 1
140 80 1
140 86 1
140 92 1
140 163 1
140 175 1
140 181 1
140 187 1
140 264 1
140 276 1
140 282 1
140 288 1
140 359 1
140 371 1
140 377 1
140 383 1
141 69 1
141 81 1
141 87 1
141 93 1
141 166 1
141 178 1
141 184 1
141 190 1
141 263 1
141 275 1
141 281 1
141 287 1
141 360 1
141 372 1
141 378 1
141 384 1
142 70 1
142 82 1
142 88 1
142 94 1
142 165 1
142 177 1
142 183 1
142 189 1
142 260 1
142 272 1
142 278 1
142 284 1
142 355 1
142 367 1
142 373 1
142 379 1
143 71 1
143 83 1
143 89 1
143 95 1
143 168 1
143 180 1
143 186 1
143 192 1
143 259 1
143 271 1
143 277 1
143 283 1
143 356 1
143 368 1
143 374 1
143 380 1
144 72 1
144 84 1
144 90 1
144 96 1
144 167 1
144 179 1
144 185 1
144 191 1
144 262 1
144 274 1
144 280 1
144 286 1
144 357 1
144 369 1
144 375 1
144 381 1
145 97 1
145 121 1
145 127 1
145 133 1
145 146 1
145 170 1
145 176 1
145 182 1
145 292 1
145 316 1
145 322 1
145 328 1
145 340 1
145 364 1
145 370 1
145 376 1
146 98 1
146 122 1
146 128 1
146 134 1
146 145 1
146 169 1
146 175 1
146 181 1
146 293 1
146 317 1
146 323 1
146 329 1
146 341 1
146 365 1
146 371 1
146 377 1
147 99 1
147 123 1
147 129 1
147 135 1
147 148 1
147 172 1
147 178 1
147 184 1
147 294 1
147 318 1
147 324 1
147 330 1
147 342 1
147 366 1
147 372 1
147 378 1
148 100 1
148 124 1
148 130 1
148 136 1
148 147 1
148 171 1
148 177 1
148 183 1
148 289 1
148 313 1
148 319 1
148 325 1
148 337 1
148 361 1
148 367 1
148 373 1
149 101 1
149 125 1
149 131 1
149 137 1
149 150 1
149 174 1
149 180 1
149 186 1
149 290 1
149 314 1
149 320 1
149 326 1
149 338 1
149 362 1
149 368 1
149 374 1
150 102 1
150 126 1
150 132 1
150 138 1
150 149 1
150 173 1
150 179 1
150 185 1
150 291 1
150 315 1
150 321 1
150 327 1
150 339 1
150 363 1
150 369 1
150 375 1
151 103 1
151 121 1
151 127 1
151 139 1
151 152 1
151 170 1
151 176 1
151 188 1
151 298 1
151 316 1
151 322 1
151 334 1
151 346 1
151 364 1
151 370 1
151 382 1
152 104 1
152 122 1
152 128 1
152 140 1
152 151 1
152 169 1
152 175 1
152 187 1
152 299 1
152 317 1
152 323 1
152 335 1
152 347 1
152 365 1
152 371 1
152 383 1
153 105 1
153 123 1
153 129 1
153 141 1
153 154 1
153 172 1
153 178 1
153 190 1
153 300 1
153 318 1
153 324 1
153 336 1
153 348 1
153 366 1
153 372 1
153 384 1
154 106 1
154 124 1
154 130 1
154 142 1
154 153 1
154 171 1
154 177 1
154 189 1
154 295 1
154 313 1
154 319 1
154 331 1
154 343 1
154 361 1
154 367 1
154 379 1
155 107 1
155 125 1
155 131 1
155 143 1
155 156 1
155 174 1
155 180 1
155 192 1
155 296 1
155 314 1
155 320 1
155 332 1
155 344 1
155 362 1
155 368 1
155 380 1
156 108 1
156 126 1
156 132 1
156 144 1
156 155 1
156 173 1
156 179 1
156 191 1
156 297 1
156 315 1
156 321 1
156 333 1
156 345 1
156 363 1
156 369 1
156 381 1
157 109 1
157 121 1
157 133 1
157 139 1
157 158 1
157 170 1
157 182 1
157 188 1
157 304 1
157 316 1
157 328 1
157 334 1
157 352 1
157 364 1
157 376 1
157 382 1
158 110 1
158 122 1
158 134 1
158 140 1
158 157 1
158 169 1
158 181 1
158 187 1
158 305 1
158 317 1
158 329 1
158 335 1
158 353 1
158 365 1
158 377 1
158 383 1
159 111 1
159 123 1
159 135 1
159 141 1
159 160 1
159 172 1
159 184 1
159 190 1
159 306 1
159 318 1
159 330 1
159 336 1
159 354 1
159 366 1
159 378 1
159 384 1
160 112 1
160 124 1
160 136 1
160 142 1
160 159 1
160 171 1
160 183 1
160 189 1
160 301 1
160 313 1
160 325 1
160 331 1
160 349 1
160 361 1
160 373 1
160 379 1
161 113 1
161 125 1
161 137 1
161 143 1
161 162 1
161 174 1
161 186 1
161 192 1
161 302 1
161 314 1
161 326 1
161 332 1
161 350 1
161 362 1
161 374 1
161 380 1
162 114 1
162 126 1
162 138 1
162 144 1
162 161 1
162 173 1
162 185 1
162 191 1
162 303 1
162 315 1
162 327 1
162 333 1
162 351 1
162 363 1
162 375 1
162 381 1
163 115 1
163 127 1
163 133 1
163 139 1
163 164 1
163 176 1
163 182 1
163 188 1
163 310 1
163 322 1
163 328 1
163 334 1
163 358 1
163 370 1
163 376 1
163 382 1
164 116 1
164 128 1
164 134 1
164 140 1
164 163 1
164 175 1
164 181 1
164 187 1
164 311 1
164 323 1
164 329 1
164 335 1
164 359 1
164 371 1
164 377 1
164 383 1
165 117 1
165 129 1
165 135 1
165 141 1
165 166 1
165 178 1
165 184 1
165 190 1
165 312 1
165 324 1
165 330 1
165 336 1
165 360 1
165 372 1
165 378 1
165 384 1
166 118 1
166 130 1
166 136 1
166 142 1
166 165 1
166 177 1
166 183 1
166 189 1
166 307 1
166 319 1
166 325 1
166 331 1
166 355 1
166 367 1
166 373 1
166 379 1
167 119 1
167 131 1
167 137 1
167 143 1
167 168 1
167 180 1
167 186 1
167 192 1
167 308 1
167 320 1
167 326 1
167 332 1
167 356 1
167 368 1
167 374 1
167 380 1
168 120 1
168 132 1
168 138 1
168 144 1
168 167 1
168 179 1
168 185 1
168 191 1
168 309 1
168 321 1
168 327 1
168 333 1
168 357 1
168 369 1
168 375 1
168 381 1
169 195 1
169 219 1
169 225 1
169 231 1
169 243 1
169 267 1
169 273 1
169 279 1
169 292 1
169 316 1
169 322 1
169 328 1
169 340 1
169 364 1
169 370 1
169 376 1
170 198 1
170 222 1
170 228 1
170 234 1
170 246 1
170 270 1
170 276 1
170 282 1
170 293 1
170 317 1
170 323 1
170 329 1
170 341 1
170 365 1
170 371 1
170 377 1
171 197 1
171 221 1
171 227 1
171 233 1
171 245 1
171 269 1
171 275 1
171 281 1
171 294 1
171 318 1
171 324 1
171 330 1
171 342 1
171 366 1
171 372 1
171 378 1
172 194 1
172 218 1
172 224 1
172 230 1
172 242 1
172 266 1
172 272 1
172 278 1
172 289 1
172 313 1
172 319 1
172 325 1
172 337 1
172 361 1
172 367 1
172 373 1
173 193 1
173 217 1
173 223 1
173 229 1
173 241 1
173 265 1
173 271 1
173 277 1
173 290 1
173 314 1
173 320 1
173 326 1
173 338 1
173 362 1
173 368 1
173 374 1
174 196 1
174 220 1
174 226 1
174 232 1
174 244 1
174 268 1
174 274 1
174 280 1
174 291 1
174 315 1
174 321 1
174 327 1
174 339 1
174 363 1
174 369 1
174 375 1
175 201 1
175 219 1
175 225 1
175 237 1
175 249 1
175 267 1
175 273 1
175 285 1
175 298 1
175 316 1
175 322 1
175 334 1
175 346 1
175 364 1
175 370 1
175 382 1
176 204 1
176 222 1
176 228 1
176 240 1
176 252 1
176 270 1
176 276 1
176 288 1
176 299 1
176 317 1
176 323 1
176 335 1
176 347 1
176 365 1
176 371 1
176 383 1
177 203 1
177 221 1
177 227 1
177 239 1
177 251 1
177 269 1
177 275 1
177 287 1
177 300 1
177 318 1
177 324 1
177 336 1
177 348 1
177 366 1
177 372 1
177 384 1
178 200 1
178 218 1
178 224 1
178 236 1
178 248 1
178 266 1
178 272 1
178 284 1
178 295 1
178 313 1
178 319 1
178 331 1
178 343 1
178 361 1
178 367 1
178 379 1
179 199 1
179 217 1
179 223 1
179 235 1
179 247 1
179 265 1
179 271 1
179 283 1
179 296 1
179 314 1
179 320 1
179 332 1
179 344 1
179 362 1
179 368 1
179 380 1
180 202 1
180 220 1
180 226 1
180 238 1
180 250 1
180 268 1
180 274 1
180 286 1
180 297 1
180 315 1
180 321 1
180 333 1
180 345 1
180 363 1
180 369 1
180 381 1
181 207 1
181 219 1
181 231 1
181 237 1
181 255 1
181 267 1
181 279 1
181 285 1
181 304 1
181 316 1
181 328 1
181 334 1
181 352 1
181 364 1
181 376 1
181 382 1
182 210 1
182 222 1
182 234 1
182 240 1
182 258 1
182 270 1
182 282 1
182 288 1
182 305 1
182 317 1
182 329 1
182 335 1
182 353 1
182 365 1
182 377 1
182 383 1
183 209 1
183 221 1
183 233 1
183 239 1
183 257 1
183 269 1
183 281 1
183 287 1
183 306 1
183 318 1
183 330 1
183 336 1
183 354 1
183 366 1
183 378 1
183 384 1
184 206 1
184 218 1
184 230 1
184 236 1
184 254 1
184 266 1
184 278 1
184 284 1
184 301 1
184 313 1
184 325 1
184 331 1
184 349 1
184 361 1
184 373 1
184 379 1
185 205 1
185 217 1
185 229 1
185 235 1
185 253 1
185 265 1
185 277 1
185 283 1
185 302 1
185 314 1
185 326 1
185 332 1
185 350 1
185 362 1
185 374 1
185 380 1
186 208 1
186 220 1
186 232 1
186 238 1
186 256 1
186 268 1
186 280 1
186 286 1
186 303 1
186 315 1
186 327 1
186 333 1
186 351 1
186 363 1
186 375 1
186 381 1
187 213 1
187 225 1
187 231 1
187 237 1
187 261 1
187 273 1
187 279 1
187 285 1
187 310 1
187 322 1
187 328 1
187 334 1
187 358 1
187 370 1
187 376 1
187 382 1
188 216 1
188 228 1
188 234 1
188 240 1
188 264 1
188 276 1
188 282 1
188 288 1
188 311 1
188 323 1
188 329 1
188 335 1
188 359 1
188 371 1
188 377 1
188 383 1
189 215 1
189 227 1
189 233 1
189 239 1
189 263 1
189 275 1
189 281 1
189 287 1
189 312 1
189 324 1
189 330 1
189 336 1
189 360 1
189 372 1
189 378 1
189 384 1
190 212 1
190 224 1
190 230 1
190 236 1
190 260 1
190 272 1
190 278 1
190 284 1
190 307 1
190 319 1
190 325 1
190 331 1
190 355 1
190 367 1
190 373 1
190 379 1
191 211 1
191 223 1
191 229 1
191 235 1
191 259 1
191 271 1
191 277 1
191 283 1
191 308 1
191 320 1
191 326 1
191 332 1
191 356 1
191 368 1
191 374 1
191 380 1
192 214 1
192 226 1
192 232 1
192 238 1
192 262 1
192 274 1
192 280 1
192 286 1
192 309 1
192 321 1
192 327 1
192 333 1
192 357 1
192 369 1
192 375 1
192 381 1
