%%MatrixMarket matrix coordinate integer general
162 324 1458
1 1 1
1 10 1
1 47 1
1 163 1
1 172 1
1 209 1
1 217 1
1 226 1
1 263 1
2 2 1
2 11 1
2 49 1
2 164 1
2 173 1
2 211 1
2 218 1
2 227 1
2 265 1
3 3 1
3 12 1
3 50 1
3 165 1
3 174 1
3 212 1
3 219 1
3 228 1
3 266 1
4 4 1
4 13 1
4 48 1
4 166 1
4 175 1
4 210 1
4 220 1
4 229 1
4 264 1
5 5 1
5 14 1
5 52 1
5 167 1
5 176 1
5 214 1
5 221 1
5 230 1
5 268 1
6 6 1
6 15 1
6 53 1
6 168 1
6 177 1
6 215 1
6 222 1
6 231 1
6 269 1
7 7 1
7 16 1
7 51 1
7 169 1
7 178 1
7 213 1
7 223 1
7 232 1
7 267 1
8 8 1
8 17 1
8 54 1
8 170 1
8 179 1
8 216 1
8 224 1
8 233 1
8 270 1
9 9 1
9 18 1
9 46 1
9 171 1
9 180 1
9 208 1
9 225 1
9 234 1
9 262 1
10 1 1
10 34 1
10 40 1
10 163 1
10 196 1
10 202 1
10 217 1
10 250 1
10 256 1
11 2 1
11 33 1
11 39 1
11 164 1
11 195 1
11 201 1
11 218 1
11 249 1
11 255 1
12 3 1
12 36 1
12 43 1
12 165 1
12 198 1
12 205 1
12 219 1
12 252 1
12 259 1
13 4 1
13 35 1
13 41 1
13 166 1
13 197 1
13 203 1
13 220 1
13 251 1
13 257 1
14 5 1
14 28 1
14 42 1
14 167 1
14 190 1
14 204 1
14 221 1
14 244 1
14 258 1
15 6 1
15 31 1
15 45 1
15 168 1
15 193 1
15 207 1
15 222 1
15 247 1
15 261 1
16 7 1
16 29 1
16 44 1
16 169 1
16 191 1
16 206 1
16 223 1
16 245 1
16 260 1
17 8 1
17 30 1
17 37 1
17 170 1
17 192 1
17 199 1
17 224 1
17 246 1
17 253 1
18 9 1
18 32 1
18 38 1
18 171 1
18 194 1
18 200 1
18 225 1
18 248 1
18 254 1
19 10 1
19 26 1
19 34 1
19 172 1
19 188 1
19 196 1
19 226 1
19 242 1
19 250 1
20 11 1
20 27 1
20 33 1
20 173 1
20 189 1
20 195 1
20 227 1
20 243 1
20 249 1
21 12 1
21 20 1
21 36 1
21 174 1
21 182 1
21 198 1
21 228 1
21 236 1
21 252 1
22 13 1
22 19 1
22 35 1
22 175 1
22 181 1
22 197 1
22 229 1
22 235 1
22 251 1
23 14 1
23 22 1
23 28 1
23 176 1
23 184 1
23 190 1
23 230 1
23 238 1
23 244 1
24 15 1
24 23 1
24 31 1
24 177 1
24 185 1
24 193 1
24 231 1
24 239 1
24 247 1
25 16 1
25 21 1
25 29 1
25 178 1
25 183 1
25 191 1
25 232 1
25 237 1
25 245 1
26 17 1
26 25 1
26 30 1
26 179 1
26 187 1
26 192 1
26 233 1
26 241 1
26 246 1
27 18 1
27 24 1
27 32 1
27 180 1
27 186 1
27 194 1
27 234 1
27 240 1
27 248 1
28 55 1
28 64 1
28 101 1
28 163 1
28 172 1
28 209 1
28 271 1
28 280 1
28 317 1
29 56 1
29 65 1
29 103 1
29 164 1
29 173 1
29 211 1
29 272 1
29 281 1
29 319 1
30 57 1
30 66 1
30 104 1
30 165 1
30 174 1
30 212 1
30 273 1
30 282 1
30 320 1
31 58 1
31 67 1
31 102 1
31 166 1
31 175 1
31 210 1
31 274 1
31 283 1
31 318 1
32 59 1
32 68 1
32 106 1
32 167 1
32 176 1
32 214 1
32 275 1
32 284 1
32 322 1
33 60 1
33 69 1
33 107 1
33 168 1
33 177 1
33 215 1
33 276 1
33 285 1
33 323 1
34 61 1
34 70 1
34 105 1
34 169 1
34 178 1
34 213 1
34 277 1
34 286 1
34 321 1
35 62 1
35 71 1
35 108 1
35 170 1
35 179 1
35 216 1
35 278 1
35 287 1
35 324 1
36 63 1
36 72 1
36 100 1
36 171 1
36 180 1
36 208 1
36 279 1
36 288 1
36 316 1
37 55 1
37 88 1
37 94 1
37 163 1
37 196 1
37 202 1
37 271 1
37 304 1
37 310 1
38 56 1
38 87 1
38 93 1
38 164 1
38 195 1
38 201 1
38 272 1
38 303 1
38 309 1
39 57 1
39 90 1
39 97 1
39 165 1
39 198 1
39 205 1
39 273 1
39 306 1
39 313 1
40 58 1
40 89 1
40 95 1
40 166 1
40 197 1
40 203 1
40 274 1
40 305 1
40 311 1
41 59 1
41 82 1
41 96 1
41 167 1
41 190 1
41 204 1
41 275 1
41 298 1
41 312 1
42 60 1
42 85 1
42 99 1
42 168 1
42 193 1
42 207 1
42 276 1
42 301 1
42 315 1
43 61 1
43 83 1
43 98 1
43 169 1
43 191 1
43 206 1
43 277 1
43 299 1
43 314 1
44 62 1
44 84 1
44 91 1
44 170 1
44 192 1
44 199 1
44 278 1
44 300 1
44 307 1
45 63 1
45 86 1
45 92 1
45 171 1
45 194 1
45 200 1
45 279 1
45 302 1
45 308 1
46 64 1
46 80 1
46 88 1
46 172 1
46 188 1
46 196 1
46 280 1
46 296 1
46 304 1
47 65 1
47 81 1
47 87 1
47 173 1
47 189 1
47 195 1
47 281 1
47 297 1
47 303 1
48 66 1
48 74 1
48 90 1
48 174 1
48 182 1
48 198 1
48 282 1
48 290 1
48 306 1
49 67 1
49 73 1
49 89 1
49 175 1
49 181 1
49 197 1
49 283 1
49 289 1
49 305 1
50 68 1
50 76 1
50 82 1
50 176 1
50 184 1
50 190 1
50 284 1
50 292 1
50 298 1
51 69 1
51 77 1
51 85 1
51 177 1
51 185 1
51 193 1
51 285 1
51 293 1
51 301 1
52 70 1
52 75 1
52 83 1
52 178 1
52 183 1
52 191 1
52 286 1
52 291 1
52 299 1
53 71 1
53 79 1
53 84 1
53 179 1
53 187 1
53 192 1
53 287 1
53 295 1
53 300 1
54 72 1
54 78 1
54 86 1
54 180 1
54 186 1
54 194 1
54 288 1
54 294 1
54 302 1
55 109 1
55 118 1
55 155 1
55 217 1
55 226 1
55 263 1
55 271 1
55 280 1
55 317 1
56 110 1
56 119 1
56 157 1
56 218 1
56 227 1
56 265 1
56 272 1
56 281 1
56 319 1
57 111 1
57 120 1
57 158 1
57 219 1
57 228 1
57 266 1
57 273 1
57 282 1
57 320 1
58 112 1
58 121 1
58 156 1
58 220 1
58 229 1
58 264 1
58 274 1
58 283 1
58 318 1
59 113 1
59 122 1
59 160 1
59 221 1
59 230 1
59 268 1
59 275 1
59 284 1
59 322 1
60 114 1
60 123 1
60 161 1
60 222 1
60 231 1
60 269 1
60 276 1
60 285 1
60 323 1
61 115 1
61 124 1
61 159 1
61 223 1
61 232 1
61 267 1
61 277 1
61 286 1
61 321 1
62 116 1
62 125 1
62 162 1
62 224 1
62 233 1
62 270 1
62 278 1
62 287 1
62 324 1
63 117 1
63 126 1
63 154 1
63 225 1
63 234 1
63 262 1
63 279 1
63 288 1
63 316 1
64 109 1
64 142 1
64 148 1
64 217 1
64 250 1
64 256 1
64 271 1
64 304 1
64 310 1
65 110 1
65 141 1
65 147 1
65 218 1
65 249 1
65 255 1
65 272 1
65 303 1
65 309 1
66 111 1
66 144 1
66 151 1
66 219 1
66 252 1
66 259 1
66 273 1
66 306 1
66 313 1
67 112 1
67 143 1
67 149 1
67 220 1
67 251 1
67 257 1
67 274 1
67 305 1
67 311 1
68 113 1
68 136 1
68 150 1
68 221 1
68 244 1
68 258 1
68 275 1
68 298 1
68 312 1
69 114 1
69 139 1
69 153 1
69 222 1
69 247 1
69 261 1
69 276 1
69 301 1
69 315 1
70 115 1
70 137 1
70 152 1
70 223 1
70 245 1
70 260 1
70 277 1
70 299 1
70 314 1
71 116 1
71 138 1
71 145 1
71 224 1
71 246 1
71 253 1
71 278 1
71 300 1
71 307 1
72 117 1
72 140 1
72 146 1
72 225 1
72 248 1
72 254 1
72 279 1
72 302 1
72 308 1
73 118 1
73 134 1
73 142 1
73 226 1
73 242 1
73 250 1
73 280 1
73 296 1
73 304 1
74 119 1
74 135 1
74 141 1
74 227 1
74 243 1
74 249 1
74 281 1
74 297 1
74 303 1
75 120 1
75 128 1
75 144 1
75 228 1
75 236 1
75 252 1
75 282 1
75 290 1
75 306 1
76 121 1
76 127 1
76 143 1
76 229 1
76 235 1
76 251 1
76 283 1
76 289 1
76 305 1
77 122 1
77 130 1
77 136 1
77 230 1
77 238 1
77 244 1
77 284 1
77 292 1
77 298 1
78 123 1
78 131 1
78 139 1
78 231 1
78 239 1
78 247 1
78 285 1
78 293 1
78 301 1
79 124 1
79 129 1
79 137 1
79 232 1
79 237 1
79 245 1
79 286 1
79 291 1
79 299 1
80 125 1
80 133 1
80 138 1
80 233 1
80 241 1
80 246 1
80 287 1
80 295 1
80 300 1
81 126 1
81 132 1
81 140 1
81 234 1
81 240 1
81 248 1
81 288 1
81 294 1
81 302 1
82 1 1
82 10 1
82 28 1
82 221 1
82 230 1
82 248 1
82 276 1
82 285 1
82 303 1
83 2 1
83 11 1
83 29 1
83 223 1
83 232 1
83 250 1
83 278 1
83 287 1
83 305 1
84 3 1
84 12 1
84 30 1
84 224 1
84 233 1
84 251 1
84 271 1
84 280 1
84 298 1
85 4 1
85 13 1
85 31 1
85 222 1
85 231 1
85 249 1
85 279 1
85 288 1
85 306 1
86 5 1
86 14 1
86 32 1
86 225 1
86 234 1
86 252 1
86 272 1
86 281 1
86 299 1
87 6 1
87 15 1
87 33 1
87 218 1
87 227 1
87 245 1
87 273 1
87 282 1
87 300 1
88 7 1
88 16 1
88 34 1
88 217 1
88 226 1
88 244 1
88 274 1
88 283 1
88 301 1
89 8 1
89 17 1
89 35 1
89 220 1
89 229 1
89 247 1
89 275 1
89 284 1
89 302 1
90 9 1
90 18 1
90 36 1
90 219 1
90 228 1
90 246 1
90 277 1
90 286 1
90 304 1
91 1 1
91 19 1
91 37 1
91 221 1
91 239 1
91 257 1
91 276 1
91 294 1
91 312 1
92 2 1
92 20 1
92 38 1
92 223 1
92 241 1
92 259 1
92 278 1
92 296 1
92 314 1
93 3 1
93 21 1
93 39 1
93 224 1
93 242 1
93 260 1
93 271 1
93 289 1
93 307 1
94 4 1
94 22 1
94 40 1
94 222 1
94 240 1
94 258 1
94 279 1
94 297 1
94 315 1
95 5 1
95 23 1
95 41 1
95 225 1
95 243 1
95 261 1
95 272 1
95 290 1
95 308 1
96 6 1
96 24 1
96 42 1
96 218 1
96 236 1
96 254 1
96 273 1
96 291 1
96 309 1
97 7 1
97 25 1
97 43 1
97 217 1
97 235 1
97 253 1
97 274 1
97 292 1
97 310 1
98 8 1
98 26 1
98 44 1
98 220 1
98 238 1
98 256 1
98 275 1
98 293 1
98 311 1
99 9 1
99 27 1
99 45 1
99 219 1
99 237 1
99 255 1
99 277 1
99 295 1
99 313 1
100 10 1
100 19 1
100 46 1
100 230 1
100 239 1
100 266 1
100 285 1
100 294 1
100 321 1
101 11 1
101 20 1
101 47 1
101 232 1
101 241 1
101 268 1
101 287 1
101 296 1
101 323 1
102 12 1
102 21 1
102 48 1
102 233 1
102 242 1
102 269 1
102 280 1
102 289 1
102 316 1
103 13 1
103 22 1
103 49 1
103 231 1
103 240 1
103 267 1
103 288 1
103 297 1
103 324 1
104 14 1
104 23 1
104 50 1
104 234 1
104 243 1
104 270 1
104 281 1
104 290 1
104 317 1
105 15 1
105 24 1
105 51 1
105 227 1
105 236 1
105 263 1
105 282 1
105 291 1
105 318 1
106 16 1
106 25 1
106 52 1
106 226 1
106 235 1
106 262 1
106 283 1
106 292 1
106 319 1
107 17 1
107 26 1
107 53 1
107 229 1
107 238 1
107 265 1
107 284 1
107 293 1
107 320 1
108 18 1
108 27 1
108 54 1
108 228 1
108 237 1
108 264 1
108 286 1
108 295 1
108 322 1
109 56 1
109 65 1
109 83 1
109 110 1
109 119 1
109 137 1
109 276 1
109 285 1
109 303 1
110 58 1
110 67 1
110 85 1
110 112 1
110 121 1
110 139 1
110 278 1
110 287 1
110 305 1
111 59 1
111 68 1
111 86 1
111 113 1
111 122 1
111 140 1
111 271 1
111 280 1
111 298 1
112 57 1
112 66 1
112 84 1
112 111 1
112 120 1
112 138 1
112 279 1
112 288 1
112 306 1
113 61 1
113 70 1
113 88 1
113 115 1
113 124 1
113 142 1
113 272 1
113 281 1
113 299 1
114 62 1
114 71 1
114 89 1
114 116 1
114 125 1
114 143 1
114 273 1
114 282 1
114 300 1
115 60 1
115 69 1
115 87 1
115 114 1
115 123 1
115 141 1
115 274 1
115 283 1
115 301 1
116 63 1
116 72 1
116 90 1
116 117 1
116 126 1
116 144 1
116 275 1
116 284 1
116 302 1
117 55 1
117 64 1
117 82 1
117 109 1
117 118 1
117 136 1
117 277 1
117 286 1
117 304 1
118 56 1
118 74 1
118 92 1
118 110 1
118 128 1
118 146 1
118 276 1
118 294 1
118 312 1
119 58 1
119 76 1
119 94 1
119 112 1
119 130 1
119 148 1
119 278 1
119 296 1
119 314 1
120 59 1
120 77 1
120 95 1
120 113 1
120 131 1
120 149 1
120 271 1
120 289 1
120 307 1
121 57 1
121 75 1
121 93 1
121 111 1
121 129 1
121 147 1
121 279 1
121 297 1
121 315 1
122 61 1
122 79 1
122 97 1
122 115 1
122 133 1
122 151 1
122 272 1
122 290 1
122 308 1
123 62 1
123 80 1
123 98 1
123 116 1
123 134 1
123 152 1
123 273 1
123 291 1
123 309 1
124 60 1
124 78 1
124 96 1
124 114 1
124 132 1
124 150 1
124 274 1
124 292 1
124 310 1
125 63 1
125 81 1
125 99 1
125 117 1
125 135 1
125 153 1
125 275 1
125 293 1
125 311 1
126 55 1
126 73 1
126 91 1
126 109 1
126 127 1
126 145 1
126 277 1
126 295 1
126 313 1
127 65 1
127 74 1
127 101 1
127 119 1
127 128 1
127 155 1
127 285 1
127 294 1
127 321 1
128 67 1
128 76 1
128 103 1
128 121 1
128 130 1
128 157 1
128 287 1
128 296 1
128 323 1
129 68 1
129 77 1
129 104 1
129 122 1
129 131 1
129 158 1
129 280 1
129 289 1
129 316 1
130 66 1
130 75 1
130 102 1
130 120 1
130 129 1
130 156 1
130 288 1
130 297 1
130 324 1
131 70 1
131 79 1
131 106 1
131 124 1
131 133 1
131 160 1
131 281 1
131 290 1
131 317 1
132 71 1
132 80 1
132 107 1
132 125 1
132 134 1
132 161 1
132 282 1
132 291 1
132 318 1
133 69 1
133 78 1
133 105 1
133 123 1
133 132 1
133 159 1
133 283 1
133 292 1
133 319 1
134 72 1
134 81 1
134 108 1
134 126 1
134 135 1
134 162 1
134 284 1
134 293 1
134 320 1
135 64 1
135 73 1
135 100 1
135 118 1
135 127 1
135 154 1
135 286 1
135 295 1
135 322 1
136 110 1
136 119 1
136 137 1
136 165 1
136 174 1
136 192 1
136 221 1
136 230 1
136 248 1
137 112 1
137 121 1
137 139 1
137 167 1
137 176 1
137 194 1
137 223 1
137 232 1
137 250 1
138 113 1
138 122 1
138 140 1
138 168 1
138 177 1
138 195 1
138 224 1
138 233 1
138 251 1
139 111 1
139 120 1
139 138 1
139 169 1
139 178 1
139 196 1
139 222 1
139 231 1
139 249 1
140 115 1
140 124 1
140 142 1
140 170 1
140 179 1
140 197 1
140 225 1
140 234 1
140 252 1
141 116 1
141 125 1
141 143 1
141 163 1
141 172 1
141 190 1
141 218 1
141 227 1
141 245 1
142 114 1
142 123 1
142 141 1
142 171 1
142 180 1
142 198 1
142 217 1
142 226 1
142 244 1
143 117 1
143 126 1
143 144 1
143 164 1
143 173 1
143 191 1
143 220 1
143 229 1
143 247 1
144 109 1
144 118 1
144 136 1
144 166 1
144 175 1
144 193 1
144 219 1
144 228 1
144 246 1
145 110 1
145 128 1
145 146 1
145 165 1
145 183 1
145 201 1
145 221 1
145 239 1
145 257 1
146 112 1
146 130 1
146 148 1
146 167 1
146 185 1
146 203 1
146 223 1
146 241 1
146 259 1
147 113 1
147 131 1
147 149 1
147 168 1
147 186 1
147 204 1
147 224 1
147 242 1
147 260 1
148 111 1
148 129 1
148 147 1
148 169 1
148 187 1
148 205 1
148 222 1
148 240 1
148 258 1
149 115 1
149 133 1
149 151 1
149 170 1
149 188 1
149 206 1
149 225 1
149 243 1
149 261 1
150 116 1
150 134 1
150 152 1
150 163 1
150 181 1
150 199 1
150 218 1
150 236 1
150 254 1
151 114 1
151 132 1
151 150 1
151 171 1
151 189 1
151 207 1
151 217 1
151 235 1
151 253 1
152 117 1
152 135 1
152 153 1
152 164 1
152 182 1
152 200 1
152 220 1
152 238 1
152 256 1
153 109 1
153 127 1
153 145 1
153 166 1
153 184 1
153 202 1
153 219 1
153 237 1
153 255 1
154 119 1
154 128 1
154 155 1
154 174 1
154 183 1
154 210 1
154 230 1
154 239 1
154 266 1
155 121 1
155 130 1
155 157 1
155 176 1
155 185 1
155 212 1
155 232 1
155 241 1
155 268 1
156 122 1
156 131 1
156 158 1
156 177 1
156 186 1
156 213 1
156 233 1
156 242 1
156 269 1
157 120 1
157 129 1
157 156 1
157 178 1
157 187 1
157 214 1
157 231 1
157 240 1
157 267 1
158 124 1
158 133 1
158 160 1
158 179 1
158 188 1
158 215 1
158 234 1
158 243 1
158 270 1
159 125 1
159 134 1
159 161 1
159 172 1
159 181 1
159 208 1
159 227 1
159 236 1
159 263 1
160 123 1
160 132 1
160 159 1
160 180 1
160 189 1
160 216 1
160 226 1
160 235 1
160 262 1
161 126 1
161 135 1
161 162 1
161 173 1
161 182 1
161 209 1
161 229 1
161 238 1
161 265 1
162 118 1
162 127 1
162 154 1
162 175 1
162 184 1
162 211 1
162 228 1
162 237 1
162 264 1
