%%MatrixMarket matrix coordinate integer general
192 384 3072
1 1 1
1 25 1
1 31 1
1 37 1
1 193 1
1 217 1
1 223 1
1 229 1
1 241 1
1 265 1
1 271 1
1 277 1
1 289 1
1 313 1
1 319 1
1 325 1
2 2 1
2 26 1
2 32 1
2 38 1
2 194 1
2 218 1
2 224 1
2 230 1
2 242 1
2 266 1
2 272 1
2 278 1
2 290 1
2 314 1
2 320 1
2 326 1
3 3 1
3 27 1
3 33 1
3 39 1
3 195 1
3 219 1
3 225 1
3 231 1
3 243 1
3 267 1
3 273 1
3 279 1
3 291 1
3 315 1
3 321 1
3 327 1
4 4 1
4 28 1
4 34 1
4 40 1
4 196 1
4 220 1
4 226 1
4 232 1
4 244 1
4 268 1
4 274 1
4 280 1
4 292 1
4 316 1
4 322 1
4 328 1
5 5 1
5 29 1
5 35 1
5 41 1
5 197 1
5 221 1
5 227 1
5 233 1
5 245 1
5 269 1
5 275 1
5 281 1
5 293 1
5 317 1
5 323 1
5 329 1
6 6 1
6 30 1
6 36 1
6 42 1
6 198 1
6 222 1
6 228 1
6 234 1
6 246 1
6 270 1
6 276 1
6 282 1
6 294 1
6 318 1
6 324 1
6 330 1
7 7 1
7 25 1
7 31 1
7 43 1
7 199 1
7 217 1
7 223 1
7 235 1
7 247 1
7 265 1
7 271 1
7 283 1
7 295 1
7 313 1
7 319 1
7 331 1
8 8 1
8 26 1
8 32 1
8 44 1
8 200 1
8 218 1
8 224 1
8 236 1
8 248 1
8 266 1
8 272 1
8 284 1
8 296 1
8 314 1
8 320 1
8 332 1
9 9 1
9 27 1
9 33 1
9 45 1
9 201 1
9 219 1
9 225 1
9 237 1
9 249 1
9 267 1
9 273 1
9 285 1
9 297 1
9 315 1
9 321 1
9 333 1
10 10 1
10 28 1
10 34 1
10 46 1
10 202 1
10 220 1
10 226 1
10 238 1
10 250 1
10 268 1
10 274 1
10 286 1
10 298 1
10 316 1
10 322 1
10 334 1
11 11 1
11 29 1
11 35 1
11 47 1
11 203 1
11 221 1
11 227 1
11 239 1
11 251 1
11 269 1
11 275 1
11 287 1
11 299 1
11 317 1
11 323 1
11 335 1
12 12 1
12 30 1
12 36 1
12 48 1
12 204 1
12 222 1
12 228 1
12 240 1
12 252 1
12 270 1
12 276 1
12 288 1
12 300 1
12 318 1
12 324 1
12 336 1
13 13 1
13 25 1
13 37 1
13 43 1
13 205 1
13 217 1
13 229 1
13 235 1
13 253 1
13 265 1
13 277 1
13 283 1
13 301 1
13 313 1
13 325 1
13 331 1
14 14 1
14 26 1
14 38 1
14 44 1
14 206 1
14 218 1
14 230 1
14 236 1
14 254 1
14 266 1
14 278 1
14 284 1
14 302 1
14 314 1
14 326 1
14 332 1
15 15 1
15 27 1
15 39 1
15 45 1
15 207 1
15 219 1
15 231 1
15 237 1
15 255 1
15 267 1
15 279 1
15 285 1
15 303 1
15 315 1
15 327 1
15 333 1
16 16 1
16 28 1
16 40 1
16 46 1
16 208 1
16 220 1
16 232 1
16 238 1
16 256 1
16 268 1
16 280 1
16 286 1
16 304 1
16 316 1
16 328 1
16 334 1
17 17 1
17 29 1
17 41 1
17 47 1
17 209 1
17 221 1
17 233 1
17 239 1
17 257 1
17 269 1
17 281 1
17 287 1
17 305 1
17 317 1
17 329 1
17 335 1
18 18 1
18 30 1
18 42 1
18 48 1
18 210 1
18 222 1
18 234 1
18 240 1
18 258 1
18 270 1
18 282 1
18 288 1
18 306 1
18 318 1
18 330 1
18 336 1
19 19 1
19 31 1
19 37 1
19 43 1
19 211 1
19 223 1
19 229 1
19 235 1
19 259 1
19 271 1
19 277 1
19 283 1
19 307 1
19 319 1
19 325 1
19 331 1
20 20 1
20 32 1
20 38 1
20 44 1
20 212 1
20 224 1
20 230 1
20 236 1
20 260 1
20 272 1
20 278 1
20 284 1
20 308 1
20 320 1
20 326 1
20 332 1
21 21 1
21 33 1
21 39 1
21 45 1
21 213 1
21 225 1
21 231 1
21 237 1
21 261 1
21 273 1
21 279 1
21 285 1
21 309 1
21 321 1
21 327 1
21 333 1
22 22 1
22 34 1
22 40 1
22 46 1
22 214 1
22 226 1
22 232 1
22 238 1
22 262 1
22 274 1
22 280 1
22 286 1
22 310 1
22 322 1
22 328 1
22 334 1
23 23 1
23 35 1
23 41 1
23 47 1
23 215 1
23 227 1
23 233 1
23 239 1
23 263 1
23 275 1
23 281 1
23 287 1
23 311 1
23 323 1
23 329 1
23 335 1
24 24 1
24 36 1
24 42 1
24 48 1
24 216 1
24 228 1
24 234 1
24 240 1
24 264 1
24 276 1
24 282 1
24 288 1
24 312 1
24 324 1
24 330 1
24 336 1
25 49 1
25 73 1
25 79 1
25 85 1
25 193 1
25 217 1
25 223 1
25 229 1
25 241 1
25 265 1
25 271 1
25 277 1
25 337 1
25 361 1
25 367 1
25 373 1
26 50 1
26 74 1
26 80 1
26 86 1
26 194 1
26 218 1
26 224 1
26 230 1
26 242 1
26 266 1
26 272 1
26 278 1
26 338 1
26 362 1
26 368 1
26 374 1
27 51 1
27 75 1
27 81 1
27 87 1
27 195 1
27 219 1
27 225 1
27 231 1
27 243 1
27 267 1
27 273 1
27 279 1
27 339 1
27 363 1
27 369 1
27 375 1
28 52 1
28 76 1
28 82 1
28 88 1
28 196 1
28 220 1
28 226 1
28 232 1
28 244 1
28 268 1
28 274 1
28 280 1
28 340 1
28 364 1
28 370 1
28 376 1
29 53 1
29 77 1
29 83 1
29 89 1
29 197 1
29 221 1
29 227 1
29 233 1
29 245 1
29 269 1
29 275 1
29 281 1
29 341 1
29 365 1
29 371 1
29 377 1
30 54 1
30 78 1
30 84 1
30 90 1
30 198 1
30 222 1
30 228 1
30 234 1
30 246 1
30 270 1
30 276 1
30 282 1
30 342 1
30 366 1
30 372 1
30 378 1
31 55 1
31 73 1
31 79 1
31 91 1
31 199 1
31 217 1
31 223 1
31 235 1
31 247 1
31 265 1
31 271 1
31 283 1
31 343 1
31 361 1
31 367 1
31 379 1
32 56 1
32 74 1
32 80 1
32 92 1
32 200 1
32 218 1
32 224 1
32 236 1
32 248 1
32 266 1
32 272 1
32 284 1
32 344 1
32 362 1
32 368 1
32 380 1
33 57 1
33 75 1
33 81 1
33 93 1
33 201 1
33 219 1
33 225 1
33 237 1
33 249 1
33 267 1
33 273 1
33 285 1
33 345 1
33 363 1
33 369 1
33 381 1
34 58 1
34 76 1
34 82 1
34 94 1
34 202 1
34 220 1
34 226 1
34 238 1
34 250 1
34 268 1
34 274 1
34 286 1
34 346 1
34 364 1
34 370 1
34 382 1
35 59 1
35 77 1
35 83 1
35 95 1
35 203 1
35 221 1
35 227 1
35 239 1
35 251 1
35 269 1
35 275 1
35 287 1
35 347 1
35 365 1
35 371 1
35 383 1
36 60 1
36 78 1
36 84 1
36 96 1
36 204 1
36 222 1
36 228 1
36 240 1
36 252 1
36 270 1
36 276 1
36 288 1
36 348 1
36 366 1
36 372 1
36 384 1
37 61 1
37 73 1
37 85 1
37 91 1
37 205 1
37 217 1
37 229 1
37 235 1
37 253 1
37 265 1
37 277 1
37 283 1
37 349 1
37 361 1
37 373 1
37 379 1
38 62 1
38 74 1
38 86 1
38 92 1
38 206 1
38 218 1
38 230 1
38 236 1
38 254 1
38 266 1
38 278 1
38 284 1
38 350 1
38 362 1
38 374 1
38 380 1
39 63 1
39 75 1
39 87 1
39 93 1
39 207 1
39 219 1
39 231 1
39 237 1
39 255 1
39 267 1
39 279 1
39 285 1
39 351 1
39 363 1
39 375 1
39 381 1
40 64 1
40 76 1
40 88 1
40 94 1
40 208 1
40 220 1
40 232 1
40 238 1
40 256 1
40 268 1
40 280 1
40 286 1
40 352 1
40 364 1
40 376 1
40 382 1
41 65 1
41 77 1
41 89 1
41 95 1
41 209 1
41 221 1
41 233 1
41 239 1
41 257 1
41 269 1
41 281 1
41 287 1
41 353 1
41 365 1
41 377 1
41 383 1
42 66 1
42 78 1
42 90 1
42 96 1
42 210 1
42 222 1
42 234 1
42 240 1
42 258 1
42 270 1
42 282 1
42 288 1
42 354 1
42 366 1
42 378 1
42 384 1
43 67 1
43 79 1
43 85 1
43 91 1
43 211 1
43 223 1
43 229 1
43 235 1
43 259 1
43 271 1
43 277 1
43 283 1
43 355 1
43 367 1
43 373 1
43 379 1
44 68 1
44 80 1
44 86 1
44 92 1
44 212 1
44 224 1
44 230 1
44 236 1
44 260 1
44 272 1
44 278 1
44 284 1
44 356 1
44 368 1
44 374 1
44 380 1
45 69 1
45 81 1
45 87 1
45 93 1
45 213 1
45 225 1
45 231 1
45 237 1
45 261 1
45 273 1
45 279 1
45 285 1
45 357 1
45 369 1
45 375 1
45 381 1
46 70 1
46 82 1
46 88 1
46 94 1
46 214 1
46 226 1
46 232 1
46 238 1
46 262 1
46 274 1
46 280 1
46 286 1
46 358 1
46 370 1
46 376 1
46 382 1
47 71 1
47 83 1
47 89 1
47 95 1
47 215 1
47 227 1
47 233 1
47 239 1
47 263 1
47 275 1
47 281 1
47 287 1
47 359 1
47 371 1
47 377 1
47 383 1
48 72 1
48 84 1
48 90 1
48 96 1
48 216 1
48 228 1
48 234 1
48 240 1
48 264 1
48 276 1
48 282 1
48 288 1
48 360 1
48 372 1
48 378 1
48 384 1
49 97 1
49 121 1
49 127 1
49 133 1
49 193 1
49 217 1
49 223 1
49 229 1
49 289 1
49 313 1
49 319 1
49 325 1
49 337 1
49 361 1
49 367 1
49 373 1
50 98 1
50 122 1
50 128 1
50 134 1
50 194 1
50 218 1
50 224 1
50 230 1
50 290 1
50 314 1
50 320 1
50 326 1
50 338 1
50 362 1
50 368 1
50 374 1
51 99 1
51 123 1
51 129 1
51 135 1
51 195 1
51 219 1
51 225 1
51 231 1
51 291 1
51 315 1
51 321 1
51 327 1
51 339 1
51 363 1
51 369 1
51 375 1
52 100 1
52 124 1
52 130 1
52 136 1
52 196 1
52 220 1
52 226 1
52 232 1
52 292 1
52 316 1
52 322 1
52 328 1
52 340 1
52 364 1
52 370 1
52 376 1
53 101 1
53 125 1
53 131 1
53 137 1
53 197 1
53 221 1
53 227 1
53 233 1
53 293 1
53 317 1
53 323 1
53 329 1
53 341 1
53 365 1
53 371 1
53 377 1
54 102 1
54 126 1
54 132 1
54 138 1
54 198 1
54 222 1
54 228 1
54 234 1
54 294 1
54 318 1
54 324 1
54 330 1
54 342 1
54 366 1
54 372 1
54 378 1
55 103 1
55 121 1
55 127 1
55 139 1
55 199 1
55 217 1
55 223 1
55 235 1
55 295 1
55 313 1
55 319 1
55 331 1
55 343 1
55 361 1
55 367 1
55 379 1
56 104 1
56 122 1
56 128 1
56 140 1
56 200 1
56 218 1
56 224 1
56 236 1
56 296 1
56 314 1
56 320 1
56 332 1
56 344 1
56 362 1
56 368 1
56 380 1
57 105 1
57 123 1
57 129 1
57 141 1
57 201 1
57 219 1
57 225 1
57 237 1
57 297 1
57 315 1
57 321 1
57 333 1
57 345 1
57 363 1
57 369 1
57 381 1
58 106 1
58 124 1
58 130 1
58 142 1
58 202 1
58 220 1
58 226 1
58 238 1
58 298 1
58 316 1
58 322 1
58 334 1
58 346 1
58 364 1
58 370 1
58 382 1
59 107 1
59 125 1
59 131 1
59 143 1
59 203 1
59 221 1
59 227 1
59 239 1
59 299 1
59 317 1
59 323 1
59 335 1
59 347 1
59 365 1
59 371 1
59 383 1
60 108 1
60 126 1
60 132 1
60 144 1
60 204 1
60 222 1
60 228 1
60 240 1
60 300 1
60 318 1
60 324 1
60 336 1
60 348 1
60 366 1
60 372 1
60 384 1
61 109 1
61 121 1
61 133 1
61 139 1
61 205 1
61 217 1
61 229 1
61 235 1
61 301 1
61 313 1
61 325 1
61 331 1
61 349 1
61 361 1
61 373 1
61 379 1
62 110 1
62 122 1
62 134 1
62 140 1
62 206 1
62 218 1
62 230 1
62 236 1
62 302 1
62 314 1
62 326 1
62 332 1
62 350 1
62 362 1
62 374 1
62 380 1
63 111 1
63 123 1
63 135 1
63 141 1
63 207 1
63 219 1
63 231 1
63 237 1
63 303 1
63 315 1
63 327 1
63 333 1
63 351 1
63 363 1
63 375 1
63 381 1
64 112 1
64 124 1
64 136 1
64 142 1
64 208 1
64 220 1
64 232 1
64 238 1
64 304 1
64 316 1
64 328 1
64 334 1
64 352 1
64 364 1
64 376 1
64 382 1
65 113 1
65 125 1
65 137 1
65 143 1
65 209 1
65 221 1
65 233 1
65 239 1
65 305 1
65 317 1
65 329 1
65 335 1
65 353 1
65 365 1
65 377 1
65 383 1
66 114 1
66 126 1
66 138 1
66 144 1
66 210 1
66 222 1
66 234 1
66 240 1
66 306 1
66 318 1
66 330 1
66 336 1
66 354 1
66 366 1
66 378 1
66 384 1
67 115 1
67 127 1
67 133 1
67 139 1
67 211 1
67 223 1
67 229 1
67 235 1
67 307 1
67 319 1
67 325 1
67 331 1
67 355 1
67 367 1
67 373 1
67 379 1
68 116 1
68 128 1
68 134 1
68 140 1
68 212 1
68 224 1
68 230 1
68 236 1
68 308 1
68 320 1
68 326 1
68 332 1
68 356 1
68 368 1
68 374 1
68 380 1
69 117 1
69 129 1
69 135 1
69 141 1
69 213 1
69 225 1
69 231 1
69 237 1
69 309 1
69 321 1
69 327 1
69 333 1
69 357 1
69 369 1
69 375 1
69 381 1
70 118 1
70 130 1
70 136 1
70 142 1
70 214 1
70 226 1
70 232 1
70 238 1
70 310 1
70 322 1
70 328 1
70 334 1
70 358 1
70 370 1
70 376 1
70 382 1
71 119 1
71 131 1
71 137 1
71 143 1
71 215 1
71 227 1
71 233 1
71 239 1
71 311 1
71 323 1
71 329 1
71 335 1
71 359 1
71 371 1
71 377 1
71 383 1
72 120 1
72 132 1
72 138 1
72 144 1
72 216 1
72 228 1
72 234 1
72 240 1
72 312 1
72 324 1
72 330 1
72 336 1
72 360 1
72 372 1
72 378 1
72 384 1
73 145 1
73 169 1
73 175 1
73 181 1
73 241 1
73 265 1
73 271 1
73 277 1
73 289 1
73 313 1
73 319 1
73 325 1
73 337 1
73 361 1
73 367 1
73 373 1
74 146 1
74 170 1
74 176 1
74 182 1
74 242 1
74 266 1
74 272 1
74 278 1
74 290 1
74 314 1
74 320 1
74 326 1
74 338 1
74 362 1
74 368 1
74 374 1
75 147 1
75 171 1
75 177 1
75 183 1
75 243 1
75 267 1
75 273 1
75 279 1
75 291 1
75 315 1
75 321 1
75 327 1
75 339 1
75 363 1
75 369 1
75 375 1
76 148 1
76 172 1
76 178 1
76 184 1
76 244 1
76 268 1
76 274 1
76 280 1
76 292 1
76 316 1
76 322 1
76 328 1
76 340 1
76 364 1
76 370 1
76 376 1
77 149 1
77 173 1
77 179 1
77 185 1
77 245 1
77 269 1
77 275 1
77 281 1
77 293 1
77 317 1
77 323 1
77 329 1
77 341 1
77 365 1
77 371 1
77 377 1
78 150 1
78 174 1
78 180 1
78 186 1
78 246 1
78 270 1
78 276 1
78 282 1
78 294 1
78 318 1
78 324 1
78 330 1
78 342 1
78 366 1
78 372 1
78 378 1
79 151 1
79 169 1
79 175 1
79 187 1
79 247 1
79 265 1
79 271 1
79 283 1
79 295 1
79 313 1
79 319 1
79 331 1
79 343 1
79 361 1
79 367 1
79 379 1
80 152 1
80 170 1
80 176 1
80 188 1
80 248 1
80 266 1
80 272 1
80 284 1
80 296 1
80 314 1
80 320 1
80 332 1
80 344 1
80 362 1
80 368 1
80 380 1
81 153 1
81 171 1
81 177 1
81 189 1
81 249 1
81 267 1
81 273 1
81 285 1
81 297 1
81 315 1
81 321 1
81 333 1
81 345 1
81 363 1
81 369 1
81 381 1
82 154 1
82 172 1
82 178 1
82 190 1
82 250 1
82 268 1
82 274 1
82 286 1
82 298 1
82 316 1
82 322 1
82 334 1
82 346 1
82 364 1
82 370 1
82 382 1
83 155 1
83 173 1
83 179 1
83 191 1
83 251 1
83 269 1
83 275 1
83 287 1
83 299 1
83 317 1
83 323 1
83 335 1
83 347 1
83 365 1
83 371 1
83 383 1
84 156 1
84 174 1
84 180 1
84 192 1
84 252 1
84 270 1
84 276 1
84 288 1
84 300 1
84 318 1
84 324 1
84 336 1
84 348 1
84 366 1
84 372 1
84 384 1
85 157 1
85 169 1
85 181 1
85 187 1
85 253 1
85 265 1
85 277 1
85 283 1
85 301 1
85 313 1
85 325 1
85 331 1
85 349 1
85 361 1
85 373 1
85 379 1
86 158 1
86 170 1
86 182 1
86 188 1
86 254 1
86 266 1
86 278 1
86 284 1
86 302 1
86 314 1
86 326 1
86 332 1
86 350 1
86 362 1
86 374 1
86 380 1
87 159 1
87 171 1
87 183 1
87 189 1
87 255 1
87 267 1
87 279 1
87 285 1
87 303 1
87 315 1
87 327 1
87 333 1
87 351 1
87 363 1
87 375 1
87 381 1
88 160 1
88 172 1
88 184 1
88 190 1
88 256 1
88 268 1
88 280 1
88 286 1
88 304 1
88 316 1
88 328 1
88 334 1
88 352 1
88 364 1
88 376 1
88 382 1
89 161 1
89 173 1
89 185 1
89 191 1
89 257 1
89 269 1
89 281 1
89 287 1
89 305 1
89 317 1
89 329 1
89 335 1
89 353 1
89 365 1
89 377 1
89 383 1
90 162 1
90 174 1
90 186 1
90 192 1
90 258 1
90 270 1
90 282 1
90 288 1
90 306 1
90 318 1
90 330 1
90 336 1
90 354 1
90 366 1
90 378 1
90 384 1
91 163 1
91 175 1
91 181 1
91 187 1
91 259 1
91 271 1
91 277 1
91 283 1
91 307 1
91 319 1
91 325 1
91 331 1
91 355 1
91 367 1
91 373 1
91 379 1
92 164 1
92 176 1
92 182 1
92 188 1
92 260 1
92 272 1
92 278 1
92 284 1
92 308 1
92 320 1
92 326 1
92 332 1
92 356 1
92 368 1
92 374 1
92 380 1
93 165 1
93 177 1
93 183 1
93 189 1
93 261 1
93 273 1
93 279 1
93 285 1
93 309 1
93 321 1
93 327 1
93 333 1
93 357 1
93 369 1
93 375 1
93 381 1
94 166 1
94 178 1
94 184 1
94 190 1
94 262 1
94 274 1
94 280 1
94 286 1
94 310 1
94 322 1
94 328 1
94 334 1
94 358 1
94 370 1
94 376 1
94 382 1
95 167 1
95 179 1
95 185 1
95 191 1
95 263 1
95 275 1
95 281 1
95 287 1
95 311 1
95 323 1
95 329 1
95 335 1
95 359 1
95 371 1
95 377 1
95 383 1
96 168 1
96 180 1
96 186 1
96 192 1
96 264 1
96 276 1
96 282 1
96 288 1
96 312 1
96 324 1
96 330 1
96 336 1
96 360 1
96 372 1
96 378 1
96 384 1
97 1 1
97 29 1
97 39 1
97 45 1
97 195 1
97 217 1
97 233 1
97 239 1
97 293 1
97 315 1
97 325 1
97 331 1
97 341 1
97 363 1
97 373 1
97 379 1
98 2 1
98 30 1
98 40 1
98 46 1
98 198 1
98 220 1
98 230 1
98 236 1
98 292 1
98 314 1
98 330 1
98 336 1
98 340 1
98 362 1
98 378 1
98 384 1
99 3 1
99 25 1
99 41 1
99 47 1
99 197 1
99 219 1
99 229 1
99 235 1
99 289 1
99 317 1
99 327 1
99 333 1
99 337 1
99 365 1
99 375 1
99 381 1
100 4 1
100 26 1
100 42 1
100 48 1
100 194 1
100 222 1
100 232 1
100 238 1
100 294 1
100 316 1
100 326 1
100 332 1
100 342 1
100 364 1
100 374 1
100 380 1
101 5 1
101 27 1
101 37 1
101 43 1
101 193 1
101 221 1
101 231 1
101 237 1
101 291 1
101 313 1
101 329 1
101 335 1
101 339 1
101 361 1
101 377 1
101 383 1
102 6 1
102 28 1
102 38 1
102 44 1
102 196 1
102 218 1
102 234 1
102 240 1
102 290 1
102 318 1
102 328 1
102 334 1
102 338 1
102 366 1
102 376 1
102 382 1
103 7 1
103 29 1
103 35 1
103 39 1
103 201 1
103 217 1
103 223 1
103 233 1
103 299 1
103 315 1
103 321 1
103 325 1
103 347 1
103 363 1
103 369 1
103 373 1
104 8 1
104 30 1
104 36 1
104 40 1
104 204 1
104 220 1
104 226 1
104 230 1
104 298 1
104 314 1
104 320 1
104 330 1
104 346 1
104 362 1
104 368 1
104 378 1
105 9 1
105 25 1
105 31 1
105 41 1
105 203 1
105 219 1
105 225 1
105 229 1
105 295 1
105 317 1
105 323 1
105 327 1
105 343 1
105 365 1
105 371 1
105 375 1
106 10 1
106 26 1
106 32 1
106 42 1
106 200 1
106 222 1
106 228 1
106 232 1
106 300 1
106 316 1
106 322 1
106 326 1
106 348 1
106 364 1
106 370 1
106 374 1
107 11 1
107 27 1
107 33 1
107 37 1
107 199 1
107 221 1
107 227 1
107 231 1
107 297 1
107 313 1
107 319 1
107 329 1
107 345 1
107 361 1
107 367 1
107 377 1
108 12 1
108 28 1
108 34 1
108 38 1
108 202 1
108 218 1
108 224 1
108 234 1
108 296 1
108 318 1
108 324 1
108 328 1
108 344 1
108 366 1
108 372 1
108 376 1
109 14 1
109 29 1
109 35 1
109 45 1
109 210 1
109 217 1
109 223 1
109 239 1
109 304 1
109 315 1
109 321 1
109 331 1
109 352 1
109 363 1
109 369 1
109 379 1
110 13 1
110 30 1
110 36 1
110 46 1
110 207 1
110 220 1
110 226 1
110 236 1
110 305 1
110 314 1
110 320 1
110 336 1
110 353 1
110 362 1
110 368 1
110 384 1
111 18 1
111 25 1
111 31 1
111 47 1
111 208 1
111 219 1
111 225 1
111 235 1
111 302 1
111 317 1
111 323 1
111 333 1
111 350 1
111 365 1
111 371 1
111 381 1
112 17 1
112 26 1
112 32 1
112 48 1
112 205 1
112 222 1
112 228 1
112 238 1
112 303 1
112 316 1
112 322 1
112 332 1
112 351 1
112 364 1
112 370 1
112 380 1
113 16 1
113 27 1
113 33 1
113 43 1
113 206 1
113 221 1
113 227 1
113 237 1
113 306 1
113 313 1
113 319 1
113 335 1
113 354 1
113 361 1
113 367 1
113 383 1
114 15 1
114 28 1
114 34 1
114 44 1
114 209 1
114 218 1
114 224 1
114 240 1
114 301 1
114 318 1
114 324 1
114 334 1
114 349 1
114 366 1
114 372 1
114 382 1
115 20 1
115 35 1
115 39 1
115 45 1
115 216 1
115 223 1
115 233 1
115 239 1
115 310 1
115 321 1
115 325 1
115 331 1
115 358 1
115 369 1
115 373 1
115 379 1
116 19 1
116 36 1
116 40 1
116 46 1
116 213 1
116 226 1
116 230 1
116 236 1
116 311 1
116 320 1
116 330 1
116 336 1
116 359 1
116 368 1
116 378 1
116 384 1
117 24 1
117 31 1
117 41 1
117 47 1
117 214 1
117 225 1
117 229 1
117 235 1
117 308 1
117 323 1
117 327 1
117 333 1
117 356 1
117 371 1
117 375 1
117 381 1
118 23 1
118 32 1
118 42 1
118 48 1
118 211 1
118 228 1
118 232 1
118 238 1
118 309 1
118 322 1
118 326 1
118 332 1
118 357 1
118 370 1
118 374 1
118 380 1
119 22 1
119 33 1
119 37 1
119 43 1
119 212 1
119 227 1
119 231 1
119 237 1
119 312 1
119 319 1
119 329 1
119 335 1
119 360 1
119 367 1
119 377 1
119 383 1
120 21 1
120 34 1
120 38 1
120 44 1
120 215 1
120 224 1
120 234 1
120 240 1
120 307 1
120 324 1
120 328 1
120 334 1
120 355 1
120 372 1
120 376 1
120 382 1
121 49 1
121 77 1
121 87 1
121 93 1
121 195 1
121 217 1
121 233 1
121 239 1
121 243 1
121 265 1
121 281 1
121 287 1
121 293 1
121 315 1
121 325 1
121 331 1
122 50 1
122 78 1
122 88 1
122 94 1
122 198 1
122 220 1
122 230 1
122 236 1
122 246 1
122 268 1
122 278 1
122 284 1
122 292 1
122 314 1
122 330 1
122 336 1
123 51 1
123 73 1
123 89 1
123 95 1
123 197 1
123 219 1
123 229 1
123 235 1
123 245 1
123 267 1
123 277 1
123 283 1
123 289 1
123 317 1
123 327 1
123 333 1
124 52 1
124 74 1
124 90 1
124 96 1
124 194 1
124 222 1
124 232 1
124 238 1
124 242 1
124 270 1
124 280 1
124 286 1
124 294 1
124 316 1
124 326 1
124 332 1
125 53 1
125 75 1
125 85 1
125 91 1
125 193 1
125 221 1
125 231 1
125 237 1
125 241 1
125 269 1
125 279 1
125 285 1
125 291 1
125 313 1
125 329 1
125 335 1
126 54 1
126 76 1
126 86 1
126 92 1
126 196 1
126 218 1
126 234 1
126 240 1
126 244 1
126 266 1
126 282 1
126 288 1
126 290 1
126 318 1
126 328 1
126 334 1
127 55 1
127 77 1
127 83 1
127 87 1
127 201 1
127 217 1
127 223 1
127 233 1
127 249 1
127 265 1
127 271 1
127 281 1
127 299 1
127 315 1
127 321 1
127 325 1
128 56 1
128 78 1
128 84 1
128 88 1
128 204 1
128 220 1
128 226 1
128 230 1
128 252 1
128 268 1
128 274 1
128 278 1
128 298 1
128 314 1
128 320 1
128 330 1
129 57 1
129 73 1
129 79 1
129 89 1
129 203 1
129 219 1
129 225 1
129 229 1
129 251 1
129 267 1
129 273 1
129 277 1
129 295 1
129 317 1
129 323 1
129 327 1
130 58 1
130 74 1
130 80 1
130 90 1
130 200 1
130 222 1
130 228 1
130 232 1
130 248 1
130 270 1
130 276 1
130 280 1
130 300 1
130 316 1
130 322 1
130 326 1
131 59 1
131 75 1
131 81 1
131 85 1
131 199 1
131 221 1
131 227 1
131 231 1
131 247 1
131 269 1
131 275 1
131 279 1
131 297 1
131 313 1
131 319 1
131 329 1
132 60 1
132 76 1
132 82 1
132 86 1
132 202 1
132 218 1
132 224 1
132 234 1
132 250 1
132 266 1
132 272 1
132 282 1
132 296 1
132 318 1
132 324 1
132 328 1
133 62 1
133 77 1
133 83 1
133 93 1
133 210 1
133 217 1
133 223 1
133 239 1
133 258 1
133 265 1
133 271 1
133 287 1
133 304 1
133 315 1
133 321 1
133 331 1
134 61 1
134 78 1
134 84 1
134 94 1
134 207 1
134 220 1
134 226 1
134 236 1
134 255 1
134 268 1
134 274 1
134 284 1
134 305 1
134 314 1
134 320 1
134 336 1
135 66 1
135 73 1
135 79 1
135 95 1
135 208 1
135 219 1
135 225 1
135 235 1
135 256 1
135 267 1
135 273 1
135 283 1
135 302 1
135 317 1
135 323 1
135 333 1
136 65 1
136 74 1
136 80 1
136 96 1
136 205 1
136 222 1
136 228 1
136 238 1
136 253 1
136 270 1
136 276 1
136 286 1
136 303 1
136 316 1
136 322 1
136 332 1
137 64 1
137 75 1
137 81 1
137 91 1
137 206 1
137 221 1
137 227 1
137 237 1
137 254 1
137 269 1
137 275 1
137 285 1
137 306 1
137 313 1
137 319 1
137 335 1
138 63 1
138 76 1
138 82 1
138 92 1
138 209 1
138 218 1
138 224 1
138 240 1
138 257 1
138 266 1
138 272 1
138 288 1
138 301 1
138 318 1
138 324 1
138 334 1
139 68 1
139 83 1
139 87 1
139 93 1
139 216 1
139 223 1
139 233 1
139 239 1
139 264 1
139 271 1
139 281 1
139 287 1
139 310 1
139 321 1
139 325 1
139 331 1
140 67 1
140 84 1
140 88 1
140 94 1
140 213 1
140 226 1
140 230 1
140 236 1
140 261 1
140 274 1
140 278 1
140 284 1
140 311 1
140 320 1
140 330 1
140 336 1
141 72 1
141 79 1
141 89 1
141 95 1
141 214 1
141 225 1
141 229 1
141 235 1
141 262 1
141 273 1
141 277 1
141 283 1
141 308 1
141 323 1
141 327 1
141 333 1
142 71 1
142 80 1
142 90 1
142 96 1
142 211 1
142 228 1
142 232 1
142 238 1
142 259 1
142 276 1
142 280 1
142 286 1
142 309 1
142 322 1
142 326 1
142 332 1
143 70 1
143 81 1
143 85 1
143 91 1
143 212 1
143 227 1
143 231 1
143 237 1
143 260 1
143 275 1
143 279 1
143 285 1
143 312 1
143 319 1
143 329 1
143 335 1
144 69 1
144 82 1
144 86 1
144 92 1
144 215 1
144 224 1
144 234 1
144 240 1
144 263 1
144 272 1
144 282 1
144 288 1
144 307 1
144 324 1
144 328 1
144 334 1
145 98 1
145 126 1
145 136 1
145 142 1
145 195 1
145 217 1
145 233 1
145 239 1
145 243 1
145 265 1
145 281 1
145 287 1
145 341 1
145 363 1
145 373 1
145 379 1
146 97 1
146 125 1
146 135 1
146 141 1
146 198 1
146 220 1
146 230 1
146 236 1
146 246 1
146 268 1
146 278 1
146 284 1
146 340 1
146 362 1
146 378 1
146 384 1
147 100 1
147 122 1
147 138 1
147 144 1
147 197 1
147 219 1
147 229 1
147 235 1
147 245 1
147 267 1
147 277 1
147 283 1
147 337 1
147 365 1
147 375 1
147 381 1
148 99 1
148 121 1
148 137 1
148 143 1
148 194 1
148 222 1
148 232 1
148 238 1
148 242 1
148 270 1
148 280 1
148 286 1
148 342 1
148 364 1
148 374 1
148 380 1
149 102 1
149 124 1
149 134 1
149 140 1
149 193 1
149 221 1
149 231 1
149 237 1
149 241 1
149 269 1
149 279 1
149 285 1
149 339 1
149 361 1
149 377 1
149 383 1
150 101 1
150 123 1
150 133 1
150 139 1
150 196 1
150 218 1
150 234 1
150 240 1
150 244 1
150 266 1
150 282 1
150 288 1
150 338 1
150 366 1
150 376 1
150 382 1
151 104 1
151 126 1
151 132 1
151 136 1
151 201 1
151 217 1
151 223 1
151 233 1
151 249 1
151 265 1
151 271 1
151 281 1
151 347 1
151 363 1
151 369 1
151 373 1
152 103 1
152 125 1
152 131 1
152 135 1
152 204 1
152 220 1
152 226 1
152 230 1
152 252 1
152 268 1
152 274 1
152 278 1
152 346 1
152 362 1
152 368 1
152 378 1
153 106 1
153 122 1
153 128 1
153 138 1
153 203 1
153 219 1
153 225 1
153 229 1
153 251 1
153 267 1
153 273 1
153 277 1
153 343 1
153 365 1
153 371 1
153 375 1
154 105 1
154 121 1
154 127 1
154 137 1
154 200 1
154 222 1
154 228 1
154 232 1
154 248 1
154 270 1
154 276 1
154 280 1
154 348 1
154 364 1
154 370 1
154 374 1
155 108 1
155 124 1
155 130 1
155 134 1
155 199 1
155 221 1
155 227 1
155 231 1
155 247 1
155 269 1
155 275 1
155 279 1
155 345 1
155 361 1
155 367 1
155 377 1
156 107 1
156 123 1
156 129 1
156 133 1
156 202 1
156 218 1
156 224 1
156 234 1
156 250 1
156 266 1
156 272 1
156 282 1
156 344 1
156 366 1
156 372 1
156 376 1
157 109 1
157 126 1
157 132 1
157 142 1
157 210 1
157 217 1
157 223 1
157 239 1
157 258 1
157 265 1
157 271 1
157 287 1
157 352 1
157 363 1
157 369 1
157 379 1
158 110 1
158 125 1
158 131 1
158 141 1
158 207 1
158 220 1
158 226 1
158 236 1
158 255 1
158 268 1
158 274 1
158 284 1
158 353 1
158 362 1
158 368 1
158 384 1
159 113 1
159 122 1
159 128 1
159 144 1
159 208 1
159 219 1
159 225 1
159 235 1
159 256 1
159 267 1
159 273 1
159 283 1
159 350 1
159 365 1
159 371 1
159 381 1
160 114 1
160 121 1
160 127 1
160 143 1
160 205 1
160 222 1
160 228 1
160 238 1
160 253 1
160 270 1
160 276 1
160 286 1
160 351 1
160 364 1
160 370 1
160 380 1
161 111 1
161 124 1
161 130 1
161 140 1
161 206 1
161 221 1
161 227 1
161 237 1
161 254 1
161 269 1
161 275 1
161 285 1
161 354 1
161 361 1
161 367 1
161 383 1
162 112 1
162 123 1
162 129 1
162 139 1
162 209 1
162 218 1
162 224 1
162 240 1
162 257 1
162 266 1
162 272 1
162 288 1
162 349 1
162 366 1
162 372 1
162 382 1
163 115 1
163 132 1
163 136 1
163 142 1
163 216 1
163 223 1
163 233 1
163 239 1
163 264 1
163 271 1
163 281 1
163 287 1
163 358 1
163 369 1
163 373 1
163 379 1
164 116 1
164 131 1
164 135 1
164 141 1
164 213 1
164 226 1
164 230 1
164 236 1
164 261 1
164 274 1
164 278 1
164 284 1
164 359 1
164 368 1
164 378 1
164 384 1
165 119 1
165 128 1
165 138 1
165 144 1
165 214 1
165 225 1
165 229 1
165 235 1
165 262 1
165 273 1
165 277 1
165 283 1
165 356 1
165 371 1
165 375 1
165 381 1
166 120 1
166 127 1
166 137 1
166 143 1
166 211 1
166 228 1
166 232 1
166 238 1
166 259 1
166 276 1
166 280 1
166 286 1
166 357 1
166 370 1
166 374 1
166 380 1
167 117 1
167 130 1
167 134 1
167 140 1
167 212 1
167 227 1
167 231 1
167 237 1
167 260 1
167 275 1
167 279 1
167 285 1
167 360 1
167 367 1
167 377 1
167 383 1
168 118 1
168 129 1
168 133 1
168 139 1
168 215 1
168 224 1
168 234 1
168 240 1
168 263 1
168 272 1
168 282 1
168 288 1
168 355 1
168 372 1
168 376 1
168 382 1
169 146 1
169 174 1
169 184 1
169 190 1
169 243 1
169 265 1
169 281 1
169 287 1
169 293 1
169 315 1
169 325 1
169 331 1
169 341 1
169 363 1
169 373 1
169 379 1
170 145 1
170 173 1
170 183 1
170 189 1
170 246 1
170 268 1
170 278 1
170 284 1
170 292 1
170 314 1
170 330 1
170 336 1
170 340 1
170 362 1
170 378 1
170 384 1
171 148 1
171 170 1
171 186 1
171 192 1
171 245 1
171 267 1
171 277 1
171 283 1
171 289 1
171 317 1
171 327 1
171 333 1
171 337 1
171 365 1
171 375 1
171 381 1
172 147 1
172 169 1
172 185 1
172 191 1
172 242 1
172 270 1
172 280 1
172 286 1
172 294 1
172 316 1
172 326 1
172 332 1
172 342 1
172 364 1
172 374 1
172 380 1
173 150 1
173 172 1
173 182 1
173 188 1
173 241 1
173 269 1
173 279 1
173 285 1
173 291 1
173 313 1
173 329 1
173 335 1
173 339 1
173 361 1
173 377 1
173 383 1
174 149 1
174 171 1
174 181 1
174 187 1
174 244 1
174 266 1
174 282 1
174 288 1
174 290 1
174 318 1
174 328 1
174 334 1
174 338 1
174 366 1
174 376 1
174 382 1
175 152 1
175 174 1
175 180 1
175 184 1
175 249 1
175 265 1
175 271 1
175 281 1
175 299 1
175 315 1
175 321 1
175 325 1
175 347 1
175 363 1
175 369 1
175 373 1
176 151 1
176 173 1
176 179 1
176 183 1
176 252 1
176 268 1
176 274 1
176 278 1
176 298 1
176 314 1
176 320 1
176 330 1
176 346 1
176 362 1
176 368 1
176 378 1
177 154 1
177 170 1
177 176 1
177 186 1
177 251 1
177 267 1
177 273 1
177 277 1
177 295 1
177 317 1
177 323 1
177 327 1
177 343 1
177 365 1
177 371 1
177 375 1
178 153 1
178 169 1
178 175 1
178 185 1
178 248 1
178 270 1
178 276 1
178 280 1
178 300 1
178 316 1
178 322 1
178 326 1
178 348 1
178 364 1
178 370 1
178 374 1
179 156 1
179 172 1
179 178 1
179 182 1
179 247 1
179 269 1
179 275 1
179 279 1
179 297 1
179 313 1
179 319 1
179 329 1
179 345 1
179 361 1
179 367 1
179 377 1
180 155 1
180 171 1
180 177 1
180 181 1
180 250 1
180 266 1
180 272 1
180 282 1
180 296 1
180 318 1
180 324 1
180 328 1
180 344 1
180 366 1
180 372 1
180 376 1
181 157 1
181 174 1
181 180 1
181 190 1
181 258 1
181 265 1
181 271 1
181 287 1
181 304 1
181 315 1
181 321 1
181 331 1
181 352 1
181 363 1
181 369 1
181 379 1
182 158 1
182 173 1
182 179 1
182 189 1
182 255 1
182 268 1
182 274 1
182 284 1
182 305 1
182 314 1
182 320 1
182 336 1
182 353 1
182 362 1
182 368 1
182 384 1
183 161 1
183 170 1
183 176 1
183 192 1
183 256 1
183 267 1
183 273 1
183 283 1
183 302 1
183 317 1
183 323 1
183 333 1
183 350 1
183 365 1
183 371 1
183 381 1
184 162 1
184 169 1
184 175 1
184 191 1
184 253 1
184 270 1
184 276 1
184 286 1
184 303 1
184 316 1
184 322 1
184 332 1
184 351 1
184 364 1
184 370 1
184 380 1
185 159 1
185 172 1
185 178 1
185 188 1
185 254 1
185 269 1
185 275 1
185 285 1
185 306 1
185 313 1
185 319 1
185 335 1
185 354 1
185 361 1
185 367 1
185 383 1
186 160 1
186 171 1
186 177 1
186 187 1
186 257 1
186 266 1
186 272 1
186 288 1
186 301 1
186 318 1
186 324 1
186 334 1
186 349 1
186 366 1
186 372 1
186 382 1
187 163 1
187 180 1
187 184 1
187 190 1
187 264 1
187 271 1
187 281 1
187 287 1
187 310 1
187 321 1
187 325 1
187 331 1
187 358 1
187 369 1
187 373 1
187 379 1
188 164 1
188 179 1
188 183 1
188 189 1
188 261 1
188 274 1
188 278 1
188 284 1
188 311 1
188 320 1
188 330 1
188 336 1
188 359 1
188 368 1
188 378 1
188 384 1
189 167 1
189 176 1
189 186 1
189 192 1
189 262 1
189 273 1
189 277 1
189 283 1
189 308 1
189 323 1
189 327 1
189 333 1
189 356 1
189 371 1
189 375 1
189 381 1
190 168 1
190 175 1
190 185 1
190 191 1
190 259 1
190 276 1
190 280 1
190 286 1
190 309 1
190 322 1
190 326 1
190 332 1
190 357 1
190 370 1
190 374 1
190 380 1
191 165 1
191 178 1
191 182 1
191 188 1
191 260 1
191 275 1
191 279 1
191 285 1
191 312 1
191 319 1
191 329 1
191 335 1
191 360 1
191 367 1
191 377 1
191 383 1
192 166 1
192 177 1
192 181 1
192 187 1
192 263 1
192 272 1
192 282 1
192 288 1
192 307 1
192 324 1
192 328 1
192 334 1
192 355 1
192 372 1
192 376 1
192 382 1
