%%MatrixMarket matrix coordinate integer general
288 576 2592
1 1 1
1 49 1
1 65 1
1 97 1
1 145 1
1 161 1
1 289 1
1 337 1
1 353 1
2 2 1
2 50 1
2 66 1
2 98 1
2 146 1
2 162 1
2 290 1
2 338 1
2 354 1
3 3 1
3 51 1
3 67 1
3 99 1
3 147 1
3 163 1
3 291 1
3 339 1
3 355 1
4 4 1
4 52 1
4 68 1
4 100 1
4 148 1
4 164 1
4 292 1
4 340 1
4 356 1
5 5 1
5 53 1
5 69 1
5 101 1
5 149 1
5 165 1
5 293 1
5 341 1
5 357 1
6 6 1
6 54 1
6 70 1
6 102 1
6 150 1
6 166 1
6 294 1
6 342 1
6 358 1
7 7 1
7 55 1
7 71 1
7 103 1
7 151 1
7 167 1
7 295 1
7 343 1
7 359 1
8 8 1
8 56 1
8 72 1
8 104 1
8 152 1
8 168 1
8 296 1
8 344 1
8 360 1
9 9 1
9 57 1
9 73 1
9 105 1
9 153 1
9 169 1
9 297 1
9 345 1
9 361 1
10 10 1
10 58 1
10 74 1
10 106 1
10 154 1
10 170 1
10 298 1
10 346 1
10 362 1
11 11 1
11 59 1
11 75 1
11 107 1
11 155 1
11 171 1
11 299 1
11 347 1
11 363 1
12 12 1
12 60 1
12 76 1
12 108 1
12 156 1
12 172 1
12 300 1
12 348 1
12 364 1
13 13 1
13 61 1
13 77 1
13 109 1
13 157 1
13 173 1
13 301 1
13 349 1
13 365 1
14 14 1
14 62 1
14 78 1
14 110 1
14 158 1
14 174 1
14 302 1
14 350 1
14 366 1
15 15 1
15 63 1
15 79 1
15 111 1
15 159 1
15 175 1
15 303 1
15 351 1
15 367 1
16 16 1
16 64 1
16 80 1
16 112 1
16 160 1
16 176 1
16 304 1
16 352 1
16 368 1
17 17 1
17 49 1
17 81 1
17 113 1
17 145 1
17 177 1
17 305 1
17 337 1
17 369 1
18 18 1
18 50 1
18 82 1
18 114 1
18 146 1
18 178 1
18 306 1
18 338 1
18 370 1
19 19 1
19 51 1
19 83 1
19 115 1
19 147 1
19 179 1
19 307 1
19 339 1
19 371 1
20 20 1
20 52 1
20 84 1
20 116 1
20 148 1
20 180 1
20 308 1
20 340 1
20 372 1
21 21 1
21 53 1
21 85 1
21 117 1
21 149 1
21 181 1
21 309 1
21 341 1
21 373 1
22 22 1
22 54 1
22 86 1
22 118 1
22 150 1
22 182 1
22 310 1
22 342 1
22 374 1
23 23 1
23 55 1
23 87 1
23 119 1
23 151 1
23 183 1
23 311 1
23 343 1
23 375 1
24 24 1
24 56 1
24 88 1
24 120 1
24 152 1
24 184 1
24 312 1
24 344 1
24 376 1
25 25 1
25 57 1
25 89 1
25 121 1
25 153 1
25 185 1
25 313 1
25 345 1
25 377 1
26 26 1
26 58 1
26 90 1
26 122 1
26 154 1
26 186 1
26 314 1
26 346 1
26 378 1
27 27 1
27 59 1
27 91 1
27 123 1
27 155 1
27 187 1
27 315 1
27 347 1
27 379 1
28 28 1
28 60 1
28 92 1
28 124 1
28 156 1
28 188 1
28 316 1
28 348 1
28 380 1
29 29 1
29 61 1
29 93 1
29 125 1
29 157 1
29 189 1
29 317 1
29 349 1
29 381 1
30 30 1
30 62 1
30 94 1
30 126 1
30 158 1
30 190 1
30 318 1
30 350 1
30 382 1
31 31 1
31 63 1
31 95 1
31 127 1
31 159 1
31 191 1
31 319 1
31 351 1
31 383 1
32 32 1
32 64 1
32 96 1
32 128 1
32 160 1
32 192 1
32 320 1
32 352 1
32 384 1
33 33 1
33 65 1
33 81 1
33 129 1
33 161 1
33 177 1
33 321 1
33 353 1
33 369 1
34 34 1
34 66 1
34 82 1
34 130 1
34 162 1
34 178 1
34 322 1
34 354 1
34 370 1
35 35 1
35 67 1
35 83 1
35 131 1
35 163 1
35 179 1
35 323 1
35 355 1
35 371 1
36 36 1
36 68 1
36 84 1
36 132 1
36 164 1
36 180 1
36 324 1
36 356 1
36 372 1
37 37 1
37 69 1
37 85 1
37 133 1
37 165 1
37 181 1
37 325 1
37 357 1
37 373 1
38 38 1
38 70 1
38 86 1
38 134 1
38 166 1
38 182 1
38 326 1
38 358 1
38 374 1
39 39 1
39 71 1
39 87 1
39 135 1
39 167 1
39 183 1
39 327 1
39 359 1
39 375 1
40 40 1
40 72 1
40 88 1
40 136 1
40 168 1
40 184 1
40 328 1
40 360 1
40 376 1
41 41 1
41 73 1
41 89 1
41 137 1
41 169 1
41 185 1
41 329 1
41 361 1
41 377 1
42 42 1
42 74 1
42 90 1
42 138 1
42 170 1
42 186 1
42 330 1
42 362 1
42 378 1
43 43 1
43 75 1
43 91 1
43 139 1
43 171 1
43 187 1
43 331 1
43 363 1
43 379 1
44 44 1
44 76 1
44 92 1
44 140 1
44 172 1
44 188 1
44 332 1
44 364 1
44 380 1
45 45 1
45 77 1
45 93 1
45 141 1
45 173 1
45 189 1
45 333 1
45 365 1
45 381 1
46 46 1
46 78 1
46 94 1
46 142 1
46 174 1
46 190 1
46 334 1
46 366 1
46 382 1
47 47 1
47 79 1
47 95 1
47 143 1
47 175 1
47 191 1
47 335 1
47 367 1
47 383 1
48 48 1
48 80 1
48 96 1
48 144 1
48 176 1
48 192 1
48 336 1
48 368 1
48 384 1
49 1 1
49 49 1
49 65 1
49 193 1
49 241 1
49 257 1
49 385 1
49 433 1
49 449 1
50 2 1
50 50 1
50 66 1
50 194 1
50 242 1
50 258 1
50 386 1
50 434 1
50 450 1
51 3 1
51 51 1
51 67 1
51 195 1
51 243 1
51 259 1
51 387 1
51 435 1
51 451 1
52 4 1
52 52 1
52 68 1
52 196 1
52 244 1
52 260 1
52 388 1
52 436 1
52 452 1
53 5 1
53 53 1
53 69 1
53 197 1
53 245 1
53 261 1
53 389 1
53 437 1
53 453 1
54 6 1
54 54 1
54 70 1
54 198 1
54 246 1
54 262 1
54 390 1
54 438 1
54 454 1
55 7 1
55 55 1
55 71 1
55 199 1
55 247 1
55 263 1
55 391 1
55 439 1
55 455 1
56 8 1
56 56 1
56 72 1
56 200 1
56 248 1
56 264 1
56 392 1
56 440 1
56 456 1
57 9 1
57 57 1
57 73 1
57 201 1
57 249 1
57 265 1
57 393 1
57 441 1
57 457 1
58 10 1
58 58 1
58 74 1
58 202 1
58 250 1
58 266 1
58 394 1
58 442 1
58 458 1
59 11 1
59 59 1
59 75 1
59 203 1
59 251 1
59 267 1
59 395 1
59 443 1
59 459 1
60 12 1
60 60 1
60 76 1
60 204 1
60 252 1
60 268 1
60 396 1
60 444 1
60 460 1
61 13 1
61 61 1
61 77 1
61 205 1
61 253 1
61 269 1
61 397 1
61 445 1
61 461 1
62 14 1
62 62 1
62 78 1
62 206 1
62 254 1
62 270 1
62 398 1
62 446 1
62 462 1
63 15 1
63 63 1
63 79 1
63 207 1
63 255 1
63 271 1
63 399 1
63 447 1
63 463 1
64 16 1
64 64 1
64 80 1
64 208 1
64 256 1
64 272 1
64 400 1
64 448 1
64 464 1
65 17 1
65 49 1
65 81 1
65 209 1
65 241 1
65 273 1
65 401 1
65 433 1
65 465 1
66 18 1
66 50 1
66 82 1
66 210 1
66 242 1
66 274 1
66 402 1
66 434 1
66 466 1
67 19 1
67 51 1
67 83 1
67 211 1
67 243 1
67 275 1
67 403 1
67 435 1
67 467 1
68 20 1
68 52 1
68 84 1
68 212 1
68 244 1
68 276 1
68 404 1
68 436 1
68 468 1
69 21 1
69 53 1
69 85 1
69 213 1
69 245 1
69 277 1
69 405 1
69 437 1
69 469 1
70 22 1
70 54 1
70 86 1
70 214 1
70 246 1
70 278 1
70 406 1
70 438 1
70 470 1
71 23 1
71 55 1
71 87 1
71 215 1
71 247 1
71 279 1
71 407 1
71 439 1
71 471 1
72 24 1
72 56 1
72 88 1
72 216 1
72 248 1
72 280 1
72 408 1
72 440 1
72 472 1
73 25 1
73 57 1
73 89 1
73 217 1
73 249 1
73 281 1
73 409 1
73 441 1
73 473 1
74 26 1
74 58 1
74 90 1
74 218 1
74 250 1
74 282 1
74 410 1
74 442 1
74 474 1
75 27 1
75 59 1
75 91 1
75 219 1
75 251 1
75 283 1
75 411 1
75 443 1
75 475 1
76 28 1
76 60 1
76 92 1
76 220 1
76 252 1
76 284 1
76 412 1
76 444 1
76 476 1
77 29 1
77 61 1
77 93 1
77 221 1
77 253 1
77 285 1
77 413 1
77 445 1
77 477 1
78 30 1
78 62 1
78 94 1
78 222 1
78 254 1
78 286 1
78 414 1
78 446 1
78 478 1
79 31 1
79 63 1
79 95 1
79 223 1
79 255 1
79 287 1
79 415 1
79 447 1
79 479 1
80 32 1
80 64 1
80 96 1
80 224 1
80 256 1
80 288 1
80 416 1
80 448 1
80 480 1
81 33 1
81 65 1
81 81 1
81 225 1
81 257 1
81 273 1
81 417 1
81 449 1
81 465 1
82 34 1
82 66 1
82 82 1
82 226 1
82 258 1
82 274 1
82 418 1
82 450 1
82 466 1
83 35 1
83 67 1
83 83 1
83 227 1
83 259 1
83 275 1
83 419 1
83 451 1
83 467 1
84 36 1
84 68 1
84 84 1
84 228 1
84 260 1
84 276 1
84 420 1
84 452 1
84 468 1
85 37 1
85 69 1
85 85 1
85 229 1
85 261 1
85 277 1
85 421 1
85 453 1
85 469 1
86 38 1
86 70 1
86 86 1
86 230 1
86 262 1
86 278 1
86 422 1
86 454 1
86 470 1
87 39 1
87 71 1
87 87 1
87 231 1
87 263 1
87 279 1
87 423 1
87 455 1
87 471 1
88 40 1
88 72 1
88 88 1
88 232 1
88 264 1
88 280 1
88 424 1
88 456 1
88 472 1
89 41 1
89 73 1
89 89 1
89 233 1
89 265 1
89 281 1
89 425 1
89 457 1
89 473 1
90 42 1
90 74 1
90 90 1
90 234 1
90 266 1
90 282 1
90 426 1
90 458 1
90 474 1
91 43 1
91 75 1
91 91 1
91 235 1
91 267 1
91 283 1
91 427 1
91 459 1
91 475 1
92 44 1
92 76 1
92 92 1
92 236 1
92 268 1
92 284 1
92 428 1
92 460 1
92 476 1
93 45 1
93 77 1
93 93 1
93 237 1
93 269 1
93 285 1
93 429 1
93 461 1
93 477 1
94 46 1
94 78 1
94 94 1
94 238 1
94 270 1
94 286 1
94 430 1
94 462 1
94 478 1
95 47 1
95 79 1
95 95 1
95 239 1
95 271 1
95 287 1
95 431 1
95 463 1
95 479 1
96 48 1
96 80 1
96 96 1
96 240 1
96 272 1
96 288 1
96 432 1
96 464 1
96 480 1
97 97 1
97 145 1
97 161 1
97 193 1
97 241 1
97 257 1
97 481 1
97 529 1
97 545 1
98 98 1
98 146 1
98 162 1
98 194 1
98 242 1
98 258 1
98 482 1
98 530 1
98 546 1
99 99 1
99 147 1
99 163 1
99 195 1
99 243 1
99 259 1
99 483 1
99 531 1
99 547 1
100 100 1
100 148 1
100 164 1
100 196 1
100 244 1
100 260 1
100 484 1
100 532 1
100 548 1
101 101 1
101 149 1
101 165 1
101 197 1
101 245 1
101 261 1
101 485 1
101 533 1
101 549 1
102 102 1
102 150 1
102 166 1
102 198 1
102 246 1
102 262 1
102 486 1
102 534 1
102 550 1
103 103 1
103 151 1
103 167 1
103 199 1
103 247 1
103 263 1
103 487 1
103 535 1
103 551 1
104 104 1
104 152 1
104 168 1
104 200 1
104 248 1
104 264 1
104 488 1
104 536 1
104 552 1
105 105 1
105 153 1
105 169 1
105 201 1
105 249 1
105 265 1
105 489 1
105 537 1
105 553 1
106 106 1
106 154 1
106 170 1
106 202 1
106 250 1
106 266 1
106 490 1
106 538 1
106 554 1
107 107 1
107 155 1
107 171 1
107 203 1
107 251 1
107 267 1
107 491 1
107 539 1
107 555 1
108 108 1
108 156 1
108 172 1
108 204 1
108 252 1
108 268 1
108 492 1
108 540 1
108 556 1
109 109 1
109 157 1
109 173 1
109 205 1
109 253 1
109 269 1
109 493 1
109 541 1
109 557 1
110 110 1
110 158 1
110 174 1
110 206 1
110 254 1
110 270 1
110 494 1
110 542 1
110 558 1
111 111 1
111 159 1
111 175 1
111 207 1
111 255 1
111 271 1
111 495 1
111 543 1
111 559 1
112 112 1
112 160 1
112 176 1
112 208 1
112 256 1
112 272 1
112 496 1
112 544 1
112 560 1
113 113 1
113 145 1
113 177 1
113 209 1
113 241 1
113 273 1
113 497 1
113 529 1
113 561 1
114 114 1
114 146 1
114 178 1
114 210 1
114 242 1
114 274 1
114 498 1
114 530 1
114 562 1
115 115 1
115 147 1
115 179 1
115 211 1
115 243 1
115 275 1
115 499 1
115 531 1
115 563 1
116 116 1
116 148 1
116 180 1
116 212 1
116 244 1
116 276 1
116 500 1
116 532 1
116 564 1
117 117 1
117 149 1
117 181 1
117 213 1
117 245 1
117 277 1
117 501 1
117 533 1
117 565 1
118 118 1
118 150 1
118 182 1
118 214 1
118 246 1
118 278 1
118 502 1
118 534 1
118 566 1
119 119 1
119 151 1
119 183 1
119 215 1
119 247 1
119 279 1
119 503 1
119 535 1
119 567 1
120 120 1
120 152 1
120 184 1
120 216 1
120 248 1
120 280 1
120 504 1
120 536 1
120 568 1
121 121 1
121 153 1
121 185 1
121 217 1
121 249 1
121 281 1
121 505 1
121 537 1
121 569 1
122 122 1
122 154 1
122 186 1
122 218 1
122 250 1
122 282 1
122 506 1
122 538 1
122 570 1
123 123 1
123 155 1
123 187 1
123 219 1
123 251 1
123 283 1
123 507 1
123 539 1
123 571 1
124 124 1
124 156 1
124 188 1
124 220 1
124 252 1
124 284 1
124 508 1
124 540 1
124 572 1
125 125 1
125 157 1
125 189 1
125 221 1
125 253 1
125 285 1
125 509 1
125 541 1
125 573 1
126 126 1
126 158 1
126 190 1
126 222 1
126 254 1
126 286 1
126 510 1
126 542 1
126 574 1
127 127 1
127 159 1
127 191 1
127 223 1
127 255 1
127 287 1
127 511 1
127 543 1
127 575 1
128 128 1
128 160 1
128 192 1
128 224 1
128 256 1
128 288 1
128 512 1
128 544 1
128 576 1
129 129 1
129 161 1
129 177 1
129 225 1
129 257 1
129 273 1
129 513 1
129 545 1
129 561 1
130 130 1
130 162 1
130 178 1
130 226 1
130 258 1
130 274 1
130 514 1
130 546 1
130 562 1
131 131 1
131 163 1
131 179 1
131 227 1
131 259 1
131 275 1
131 515 1
131 547 1
131 563 1
132 132 1
132 164 1
132 180 1
132 228 1
132 260 1
132 276 1
132 516 1
132 548 1
132 564 1
133 133 1
133 165 1
133 181 1
133 229 1
133 261 1
133 277 1
133 517 1
133 549 1
133 565 1
134 134 1
134 166 1
134 182 1
134 230 1
134 262 1
134 278 1
134 518 1
134 550 1
134 566 1
135 135 1
135 167 1
135 183 1
135 231 1
135 263 1
135 279 1
135 519 1
135 551 1
135 567 1
136 136 1
136 168 1
136 184 1
136 232 1
136 264 1
136 280 1
136 520 1
136 552 1
136 568 1
137 137 1
137 169 1
137 185 1
137 233 1
137 265 1
137 281 1
137 521 1
137 553 1
137 569 1
138 138 1
138 170 1
138 186 1
138 234 1
138 266 1
138 282 1
138 522 1
138 554 1
138 570 1
139 139 1
139 171 1
139 187 1
139 235 1
139 267 1
139 283 1
139 523 1
139 555 1
139 571 1
140 140 1
140 172 1
140 188 1
140 236 1
140 268 1
140 284 1
140 524 1
140 556 1
140 572 1
141 141 1
141 173 1
141 189 1
141 237 1
141 269 1
141 285 1
141 525 1
141 557 1
141 573 1
142 142 1
142 174 1
142 190 1
142 238 1
142 270 1
142 286 1
142 526 1
142 558 1
142 574 1
143 143 1
143 175 1
143 191 1
143 239 1
143 271 1
143 287 1
143 527 1
143 559 1
143 575 1
144 144 1
144 176 1
144 192 1
144 240 1
144 272 1
144 288 1
144 528 1
144 560 1
144 576 1
145 1 1
145 37 1
145 77 1
145 98 1
145 136 1
145 175 1
145 195 1
145 234 1
145 258 1
146 2 1
146 40 1
146 79 1
146 100 1
146 139 1
146 176 1
146 198 1
146 237 1
146 260 1
147 3 1
147 42 1
147 66 1
147 102 1
147 141 1
147 164 1
147 197 1
147 225 1
147 262 1
148 4 1
148 43 1
148 80 1
148 103 1
148 142 1
148 170 1
148 201 1
148 239 1
148 263 1
149 5 1
149 33 1
149 70 1
149 104 1
149 130 1
149 169 1
149 202 1
149 227 1
149 264 1
150 6 1
150 45 1
150 68 1
150 105 1
150 143 1
150 167 1
150 200 1
150 226 1
150 265 1
151 7 1
151 46 1
151 74 1
151 97 1
151 133 1
151 173 1
151 204 1
151 240 1
151 257 1
152 8 1
152 34 1
152 73 1
152 107 1
152 132 1
152 172 1
152 205 1
152 230 1
152 267 1
153 9 1
153 47 1
153 71 1
153 108 1
153 144 1
153 161 1
153 203 1
153 228 1
153 268 1
154 10 1
154 35 1
154 72 1
154 109 1
154 134 1
154 171 1
154 193 1
154 229 1
154 269 1
155 11 1
155 36 1
155 76 1
155 110 1
155 135 1
155 163 1
155 207 1
155 233 1
155 270 1
156 12 1
156 48 1
156 65 1
156 99 1
156 138 1
156 162 1
156 206 1
156 231 1
156 259 1
157 13 1
157 38 1
157 75 1
157 111 1
157 137 1
157 174 1
157 194 1
157 232 1
157 271 1
158 14 1
158 39 1
158 67 1
158 101 1
158 129 1
158 166 1
158 208 1
158 236 1
158 261 1
159 15 1
159 41 1
159 78 1
159 112 1
159 140 1
159 165 1
159 196 1
159 235 1
159 272 1
160 16 1
160 44 1
160 69 1
160 106 1
160 131 1
160 168 1
160 199 1
160 238 1
160 266 1
161 26 1
161 37 1
161 89 1
161 125 1
161 136 1
161 188 1
161 209 1
161 234 1
161 283 1
162 29 1
162 40 1
162 92 1
162 127 1
162 139 1
162 179 1
162 210 1
162 237 1
162 286 1
163 17 1
163 42 1
163 91 1
163 114 1
163 141 1
163 190 1
163 211 1
163 225 1
163 287 1
164 31 1
164 43 1
164 83 1
164 128 1
164 142 1
164 182 1
164 212 1
164 239 1
164 277 1
165 19 1
165 33 1
165 95 1
165 118 1
165 130 1
165 192 1
165 213 1
165 227 1
165 276 1
166 18 1
166 45 1
166 94 1
166 116 1
166 143 1
166 181 1
166 214 1
166 226 1
166 288 1
167 32 1
167 46 1
167 86 1
167 122 1
167 133 1
167 185 1
167 215 1
167 240 1
167 280 1
168 22 1
168 34 1
168 96 1
168 121 1
168 132 1
168 186 1
168 216 1
168 230 1
168 279 1
169 20 1
169 47 1
169 85 1
169 119 1
169 144 1
169 184 1
169 217 1
169 228 1
169 282 1
170 21 1
170 35 1
170 84 1
170 120 1
170 134 1
170 183 1
170 218 1
170 229 1
170 281 1
171 25 1
171 36 1
171 90 1
171 124 1
171 135 1
171 189 1
171 219 1
171 233 1
171 273 1
172 23 1
172 48 1
172 88 1
172 113 1
172 138 1
172 187 1
172 220 1
172 231 1
172 285 1
173 24 1
173 38 1
173 87 1
173 123 1
173 137 1
173 177 1
173 221 1
173 232 1
173 284 1
174 28 1
174 39 1
174 93 1
174 115 1
174 129 1
174 191 1
174 222 1
174 236 1
174 274 1
175 27 1
175 41 1
175 81 1
175 126 1
175 140 1
175 178 1
175 223 1
175 235 1
175 275 1
176 30 1
176 44 1
176 82 1
176 117 1
176 131 1
176 180 1
176 224 1
176 238 1
176 278 1
177 59 1
177 77 1
177 89 1
177 158 1
177 175 1
177 188 1
177 255 1
177 258 1
177 283 1
178 62 1
178 79 1
178 92 1
178 149 1
178 176 1
178 179 1
178 256 1
178 260 1
178 286 1
179 63 1
179 66 1
179 91 1
179 160 1
179 164 1
179 190 1
179 244 1
179 262 1
179 287 1
180 53 1
180 80 1
180 83 1
180 152 1
180 170 1
180 182 1
180 250 1
180 263 1
180 277 1
181 52 1
181 70 1
181 95 1
181 151 1
181 169 1
181 192 1
181 249 1
181 264 1
181 276 1
182 64 1
182 68 1
182 94 1
182 154 1
182 167 1
182 181 1
182 247 1
182 265 1
182 288 1
183 56 1
183 74 1
183 86 1
183 155 1
183 173 1
183 185 1
183 253 1
183 257 1
183 280 1
184 55 1
184 73 1
184 96 1
184 145 1
184 172 1
184 186 1
184 252 1
184 267 1
184 279 1
185 58 1
185 71 1
185 85 1
185 157 1
185 161 1
185 184 1
185 241 1
185 268 1
185 282 1
186 57 1
186 72 1
186 84 1
186 156 1
186 171 1
186 183 1
186 251 1
186 269 1
186 281 1
187 49 1
187 76 1
187 90 1
187 146 1
187 163 1
187 189 1
187 243 1
187 270 1
187 273 1
188 61 1
188 65 1
188 88 1
188 159 1
188 162 1
188 187 1
188 242 1
188 259 1
188 285 1
189 60 1
189 75 1
189 87 1
189 147 1
189 174 1
189 177 1
189 254 1
189 271 1
189 284 1
190 50 1
190 67 1
190 93 1
190 148 1
190 166 1
190 191 1
190 246 1
190 261 1
190 274 1
191 51 1
191 78 1
191 81 1
191 150 1
191 165 1
191 178 1
191 245 1
191 272 1
191 275 1
192 54 1
192 69 1
192 82 1
192 153 1
192 168 1
192 180 1
192 248 1
192 266 1
192 278 1
193 1 1
193 37 1
193 77 1
193 293 1
193 321 1
193 358 1
193 396 1
193 432 1
193 449 1
194 2 1
194 40 1
194 79 1
194 296 1
194 322 1
194 361 1
194 387 1
194 426 1
194 450 1
195 3 1
195 42 1
195 66 1
195 298 1
195 323 1
195 360 1
195 398 1
195 423 1
195 451 1
196 4 1
196 43 1
196 80 1
196 299 1
196 324 1
196 364 1
196 390 1
196 429 1
196 452 1
197 5 1
197 33 1
197 70 1
197 289 1
197 325 1
197 365 1
197 400 1
197 428 1
197 453 1
198 6 1
198 45 1
198 68 1
198 301 1
198 326 1
198 363 1
198 389 1
198 417 1
198 454 1
199 7 1
199 46 1
199 74 1
199 302 1
199 327 1
199 355 1
199 393 1
199 431 1
199 455 1
200 8 1
200 34 1
200 73 1
200 290 1
200 328 1
200 367 1
200 394 1
200 419 1
200 456 1
201 9 1
201 47 1
201 71 1
201 303 1
201 329 1
201 366 1
201 392 1
201 418 1
201 457 1
202 10 1
202 35 1
202 72 1
202 291 1
202 330 1
202 354 1
202 391 1
202 430 1
202 458 1
203 11 1
203 36 1
203 76 1
203 292 1
203 331 1
203 368 1
203 397 1
203 422 1
203 459 1
204 12 1
204 48 1
204 65 1
204 304 1
204 332 1
204 357 1
204 395 1
204 420 1
204 460 1
205 13 1
205 38 1
205 75 1
205 294 1
205 333 1
205 356 1
205 385 1
205 421 1
205 461 1
206 14 1
206 39 1
206 67 1
206 295 1
206 334 1
206 362 1
206 399 1
206 425 1
206 462 1
207 15 1
207 41 1
207 78 1
207 297 1
207 335 1
207 359 1
207 386 1
207 424 1
207 463 1
208 16 1
208 44 1
208 69 1
208 300 1
208 336 1
208 353 1
208 388 1
208 427 1
208 464 1
209 26 1
209 37 1
209 89 1
209 307 1
209 321 1
209 383 1
209 407 1
209 432 1
209 472 1
210 29 1
210 40 1
210 92 1
210 310 1
210 322 1
210 384 1
210 401 1
210 426 1
210 475 1
211 17 1
211 42 1
211 91 1
211 309 1
211 323 1
211 372 1
211 412 1
211 423 1
211 477 1
212 31 1
212 43 1
212 83 1
212 313 1
212 324 1
212 378 1
212 402 1
212 429 1
212 478 1
213 19 1
213 33 1
213 95 1
213 314 1
213 325 1
213 377 1
213 414 1
213 428 1
213 466 1
214 18 1
214 45 1
214 94 1
214 312 1
214 326 1
214 375 1
214 403 1
214 417 1
214 479 1
215 32 1
215 46 1
215 86 1
215 316 1
215 327 1
215 381 1
215 404 1
215 431 1
215 469 1
216 22 1
216 34 1
216 96 1
216 317 1
216 328 1
216 380 1
216 405 1
216 419 1
216 468 1
217 20 1
217 47 1
217 85 1
217 315 1
217 329 1
217 369 1
217 406 1
217 418 1
217 480 1
218 21 1
218 35 1
218 84 1
218 305 1
218 330 1
218 379 1
218 416 1
218 430 1
218 470 1
219 25 1
219 36 1
219 90 1
219 319 1
219 331 1
219 371 1
219 408 1
219 422 1
219 471 1
220 23 1
220 48 1
220 88 1
220 318 1
220 332 1
220 370 1
220 409 1
220 420 1
220 474 1
221 24 1
221 38 1
221 87 1
221 306 1
221 333 1
221 382 1
221 410 1
221 421 1
221 473 1
222 28 1
222 39 1
222 93 1
222 320 1
222 334 1
222 374 1
222 411 1
222 425 1
222 465 1
223 27 1
223 41 1
223 81 1
223 308 1
223 335 1
223 373 1
223 413 1
223 424 1
223 476 1
224 30 1
224 44 1
224 82 1
224 311 1
224 336 1
224 376 1
224 415 1
224 427 1
224 467 1
225 59 1
225 77 1
225 89 1
225 340 1
225 358 1
225 383 1
225 445 1
225 449 1
225 472 1
226 62 1
226 79 1
226 92 1
226 343 1
226 361 1
226 384 1
226 447 1
226 450 1
226 475 1
227 63 1
227 66 1
227 91 1
227 345 1
227 360 1
227 372 1
227 434 1
227 451 1
227 477 1
228 53 1
228 80 1
228 83 1
228 337 1
228 364 1
228 378 1
228 448 1
228 452 1
228 478 1
229 52 1
229 70 1
229 95 1
229 347 1
229 365 1
229 377 1
229 438 1
229 453 1
229 466 1
230 64 1
230 68 1
230 94 1
230 348 1
230 363 1
230 375 1
230 436 1
230 454 1
230 479 1
231 56 1
231 74 1
231 86 1
231 338 1
231 355 1
231 381 1
231 442 1
231 455 1
231 469 1
232 55 1
232 73 1
232 96 1
232 350 1
232 367 1
232 380 1
232 441 1
232 456 1
232 468 1
233 58 1
233 71 1
233 85 1
233 339 1
233 366 1
233 369 1
233 439 1
233 457 1
233 480 1
234 57 1
234 72 1
234 84 1
234 351 1
234 354 1
234 379 1
234 440 1
234 458 1
234 470 1
235 49 1
235 76 1
235 90 1
235 341 1
235 368 1
235 371 1
235 444 1
235 459 1
235 471 1
236 61 1
236 65 1
236 88 1
236 342 1
236 357 1
236 370 1
236 433 1
236 460 1
236 474 1
237 60 1
237 75 1
237 87 1
237 352 1
237 356 1
237 382 1
237 443 1
237 461 1
237 473 1
238 50 1
238 67 1
238 93 1
238 344 1
238 362 1
238 374 1
238 435 1
238 462 1
238 465 1
239 51 1
239 78 1
239 81 1
239 346 1
239 359 1
239 373 1
239 446 1
239 463 1
239 476 1
240 54 1
240 69 1
240 82 1
240 349 1
240 353 1
240 376 1
240 437 1
240 464 1
240 467 1
241 98 1
241 136 1
241 175 1
241 396 1
241 432 1
241 449 1
241 496 1
241 524 1
241 549 1
242 100 1
242 139 1
242 176 1
242 387 1
242 426 1
242 450 1
242 490 1
242 515 1
242 552 1
243 102 1
243 141 1
243 164 1
243 398 1
243 423 1
243 451 1
243 487 1
243 526 1
243 554 1
244 103 1
244 142 1
244 170 1
244 390 1
244 429 1
244 452 1
244 493 1
244 518 1
244 555 1
245 104 1
245 130 1
245 169 1
245 400 1
245 428 1
245 453 1
245 492 1
245 528 1
245 545 1
246 105 1
246 143 1
246 167 1
246 389 1
246 417 1
246 454 1
246 481 1
246 517 1
246 557 1
247 97 1
247 133 1
247 173 1
247 393 1
247 431 1
247 455 1
247 495 1
247 521 1
247 558 1
248 107 1
248 132 1
248 172 1
248 394 1
248 419 1
248 456 1
248 483 1
248 522 1
248 546 1
249 108 1
249 144 1
249 161 1
249 392 1
249 418 1
249 457 1
249 482 1
249 520 1
249 559 1
250 109 1
250 134 1
250 171 1
250 391 1
250 430 1
250 458 1
250 494 1
250 519 1
250 547 1
251 110 1
251 135 1
251 163 1
251 397 1
251 422 1
251 459 1
251 486 1
251 525 1
251 548 1
252 99 1
252 138 1
252 162 1
252 395 1
252 420 1
252 460 1
252 484 1
252 523 1
252 560 1
253 111 1
253 137 1
253 174 1
253 385 1
253 421 1
253 461 1
253 485 1
253 513 1
253 550 1
254 101 1
254 129 1
254 166 1
254 399 1
254 425 1
254 462 1
254 489 1
254 527 1
254 551 1
255 112 1
255 140 1
255 165 1
255 386 1
255 424 1
255 463 1
255 488 1
255 514 1
255 553 1
256 106 1
256 131 1
256 168 1
256 388 1
256 427 1
256 464 1
256 491 1
256 516 1
256 556 1
257 125 1
257 136 1
257 188 1
257 407 1
257 432 1
257 472 1
257 510 1
257 524 1
257 562 1
258 127 1
258 139 1
258 179 1
258 401 1
258 426 1
258 475 1
258 501 1
258 515 1
258 564 1
259 114 1
259 141 1
259 190 1
259 412 1
259 423 1
259 477 1
259 512 1
259 526 1
259 566 1
260 128 1
260 142 1
260 182 1
260 402 1
260 429 1
260 478 1
260 504 1
260 518 1
260 567 1
261 118 1
261 130 1
261 192 1
261 414 1
261 428 1
261 466 1
261 503 1
261 528 1
261 568 1
262 116 1
262 143 1
262 181 1
262 403 1
262 417 1
262 479 1
262 506 1
262 517 1
262 569 1
263 122 1
263 133 1
263 185 1
263 404 1
263 431 1
263 469 1
263 507 1
263 521 1
263 561 1
264 121 1
264 132 1
264 186 1
264 405 1
264 419 1
264 468 1
264 497 1
264 522 1
264 571 1
265 119 1
265 144 1
265 184 1
265 406 1
265 418 1
265 480 1
265 509 1
265 520 1
265 572 1
266 120 1
266 134 1
266 183 1
266 416 1
266 430 1
266 470 1
266 508 1
266 519 1
266 573 1
267 124 1
267 135 1
267 189 1
267 408 1
267 422 1
267 471 1
267 498 1
267 525 1
267 574 1
268 113 1
268 138 1
268 187 1
268 409 1
268 420 1
268 474 1
268 511 1
268 523 1
268 563 1
269 123 1
269 137 1
269 177 1
269 410 1
269 421 1
269 473 1
269 499 1
269 513 1
269 575 1
270 115 1
270 129 1
270 191 1
270 411 1
270 425 1
270 465 1
270 500 1
270 527 1
270 565 1
271 126 1
271 140 1
271 178 1
271 413 1
271 424 1
271 476 1
271 502 1
271 514 1
271 576 1
272 117 1
272 131 1
272 180 1
272 415 1
272 427 1
272 467 1
272 505 1
272 516 1
272 570 1
273 158 1
273 175 1
273 188 1
273 445 1
273 449 1
273 472 1
273 534 1
273 549 1
273 562 1
274 149 1
274 176 1
274 179 1
274 447 1
274 450 1
274 475 1
274 537 1
274 552 1
274 564 1
275 160 1
275 164 1
275 190 1
275 434 1
275 451 1
275 477 1
275 536 1
275 554 1
275 566 1
276 152 1
276 170 1
276 182 1
276 448 1
276 452 1
276 478 1
276 540 1
276 555 1
276 567 1
277 151 1
277 169 1
277 192 1
277 438 1
277 453 1
277 466 1
277 541 1
277 545 1
277 568 1
278 154 1
278 167 1
278 181 1
278 436 1
278 454 1
278 479 1
278 539 1
278 557 1
278 569 1
279 155 1
279 173 1
279 185 1
279 442 1
279 455 1
279 469 1
279 531 1
279 558 1
279 561 1
280 145 1
280 172 1
280 186 1
280 441 1
280 456 1
280 468 1
280 543 1
280 546 1
280 571 1
281 157 1
281 161 1
281 184 1
281 439 1
281 457 1
281 480 1
281 542 1
281 559 1
281 572 1
282 156 1
282 171 1
282 183 1
282 440 1
282 458 1
282 470 1
282 530 1
282 547 1
282 573 1
283 146 1
283 163 1
283 189 1
283 444 1
283 459 1
283 471 1
283 544 1
283 548 1
283 574 1
284 159 1
284 162 1
284 187 1
284 433 1
284 460 1
284 474 1
284 533 1
284 560 1
284 563 1
285 147 1
285 174 1
285 177 1
285 443 1
285 461 1
285 473 1
285 532 1
285 550 1
285 575 1
286 148 1
286 166 1
286 191 1
286 435 1
286 462 1
286 465 1
286 538 1
286 551 1
286 565 1
287 150 1
287 165 1
287 178 1
287 446 1
287 463 1
287 476 1
287 535 1
287 553 1
287 576 1
288 153 1
288 168 1
288 180 1
288 437 1
288 464 1
288 467 1
288 529 1
288 556 1
288 570 1
