%%MatrixMarket matrix coordinate integer general
324 648 2916
1 1 1
1 55 1
1 73 1
1 109 1
1 163 1
1 181 1
1 325 1
1 379 1
1 397 1
2 2 1
2 56 1
2 74 1
2 110 1
2 164 1
2 182 1
2 326 1
2 380 1
2 398 1
3 3 1
3 57 1
3 75 1
3 111 1
3 165 1
3 183 1
3 327 1
3 381 1
3 399 1
4 4 1
4 58 1
4 76 1
4 112 1
4 166 1
4 184 1
4 328 1
4 382 1
4 400 1
5 5 1
5 59 1
5 77 1
5 113 1
5 167 1
5 185 1
5 329 1
5 383 1
5 401 1
6 6 1
6 60 1
6 78 1
6 114 1
6 168 1
6 186 1
6 330 1
6 384 1
6 402 1
7 7 1
7 61 1
7 79 1
7 115 1
7 169 1
7 187 1
7 331 1
7 385 1
7 403 1
8 8 1
8 62 1
8 80 1
8 116 1
8 170 1
8 188 1
8 332 1
8 386 1
8 404 1
9 9 1
9 63 1
9 81 1
9 117 1
9 171 1
9 189 1
9 333 1
9 387 1
9 405 1
10 10 1
10 64 1
10 82 1
10 118 1
10 172 1
10 190 1
10 334 1
10 388 1
10 406 1
11 11 1
11 65 1
11 83 1
11 119 1
11 173 1
11 191 1
11 335 1
11 389 1
11 407 1
12 12 1
12 66 1
12 84 1
12 120 1
12 174 1
12 192 1
12 336 1
12 390 1
12 408 1
13 13 1
13 67 1
13 85 1
13 121 1
13 175 1
13 193 1
13 337 1
13 391 1
13 409 1
14 14 1
14 68 1
14 86 1
14 122 1
14 176 1
14 194 1
14 338 1
14 392 1
14 410 1
15 15 1
15 69 1
15 87 1
15 123 1
15 177 1
15 195 1
15 339 1
15 393 1
15 411 1
16 16 1
16 70 1
16 88 1
16 124 1
16 178 1
16 196 1
16 340 1
16 394 1
16 412 1
17 17 1
17 71 1
17 89 1
17 125 1
17 179 1
17 197 1
17 341 1
17 395 1
17 413 1
18 18 1
18 72 1
18 90 1
18 126 1
18 180 1
18 198 1
18 342 1
18 396 1
18 414 1
19 19 1
19 55 1
19 91 1
19 127 1
19 163 1
19 199 1
19 343 1
19 379 1
19 415 1
20 20 1
20 56 1
20 92 1
20 128 1
20 164 1
20 200 1
20 344 1
20 380 1
20 416 1
21 21 1
21 57 1
21 93 1
21 129 1
21 165 1
21 201 1
21 345 1
21 381 1
21 417 1
22 22 1
22 58 1
22 94 1
22 130 1
22 166 1
22 202 1
22 346 1
22 382 1
22 418 1
23 23 1
23 59 1
23 95 1
23 131 1
23 167 1
23 203 1
23 347 1
23 383 1
23 419 1
24 24 1
24 60 1
24 96 1
24 132 1
24 168 1
24 204 1
24 348 1
24 384 1
24 420 1
25 25 1
25 61 1
25 97 1
25 133 1
25 169 1
25 205 1
25 349 1
25 385 1
25 421 1
26 26 1
26 62 1
26 98 1
26 134 1
26 170 1
26 206 1
26 350 1
26 386 1
26 422 1
27 27 1
27 63 1
27 99 1
27 135 1
27 171 1
27 207 1
27 351 1
27 387 1
27 423 1
28 28 1
28 64 1
28 100 1
28 136 1
28 172 1
28 208 1
28 352 1
28 388 1
28 424 1
29 29 1
29 65 1
29 101 1
29 137 1
29 173 1
29 209 1
29 353 1
29 389 1
29 425 1
30 30 1
30 66 1
30 102 1
30 138 1
30 174 1
30 210 1
30 354 1
30 390 1
30 426 1
31 31 1
31 67 1
31 103 1
31 139 1
31 175 1
31 211 1
31 355 1
31 391 1
31 427 1
32 32 1
32 68 1
32 104 1
32 140 1
32 176 1
32 212 1
32 356 1
32 392 1
32 428 1
33 33 1
33 69 1
33 105 1
33 141 1
33 177 1
33 213 1
33 357 1
33 393 1
33 429 1
34 34 1
34 70 1
34 106 1
34 142 1
34 178 1
34 214 1
34 358 1
34 394 1
34 430 1
35 35 1
35 71 1
35 107 1
35 143 1
35 179 1
35 215 1
35 359 1
35 395 1
35 431 1
36 36 1
36 72 1
36 108 1
36 144 1
36 180 1
36 216 1
36 360 1
36 396 1
36 432 1
37 37 1
37 73 1
37 91 1
37 145 1
37 181 1
37 199 1
37 361 1
37 397 1
37 415 1
38 38 1
38 74 1
38 92 1
38 146 1
38 182 1
38 200 1
38 362 1
38 398 1
38 416 1
39 39 1
39 75 1
39 93 1
39 147 1
39 183 1
39 201 1
39 363 1
39 399 1
39 417 1
40 40 1
40 76 1
40 94 1
40 148 1
40 184 1
40 202 1
40 364 1
40 400 1
40 418 1
41 41 1
41 77 1
41 95 1
41 149 1
41 185 1
41 203 1
41 365 1
41 401 1
41 419 1
42 42 1
42 78 1
42 96 1
42 150 1
42 186 1
42 204 1
42 366 1
42 402 1
42 420 1
43 43 1
43 79 1
43 97 1
43 151 1
43 187 1
43 205 1
43 367 1
43 403 1
43 421 1
44 44 1
44 80 1
44 98 1
44 152 1
44 188 1
44 206 1
44 368 1
44 404 1
44 422 1
45 45 1
45 81 1
45 99 1
45 153 1
45 189 1
45 207 1
45 369 1
45 405 1
45 423 1
46 46 1
46 82 1
46 100 1
46 154 1
46 190 1
46 208 1
46 370 1
46 406 1
46 424 1
47 47 1
47 83 1
47 101 1
47 155 1
47 191 1
47 209 1
47 371 1
47 407 1
47 425 1
48 48 1
48 84 1
48 102 1
48 156 1
48 192 1
48 210 1
48 372 1
48 408 1
48 426 1
49 49 1
49 85 1
49 103 1
49 157 1
49 193 1
49 211 1
49 373 1
49 409 1
49 427 1
50 50 1
50 86 1
50 104 1
50 158 1
50 194 1
50 212 1
50 374 1
50 410 1
50 428 1
51 51 1
51 87 1
51 105 1
51 159 1
51 195 1
51 213 1
51 375 1
51 411 1
51 429 1
52 52 1
52 88 1
52 106 1
52 160 1
52 196 1
52 214 1
52 376 1
52 412 1
52 430 1
53 53 1
53 89 1
53 107 1
53 161 1
53 197 1
53 215 1
53 377 1
53 413 1
53 431 1
54 54 1
54 90 1
54 108 1
54 162 1
54 198 1
54 216 1
54 378 1
54 414 1
54 432 1
55 1 1
55 55 1
55 73 1
55 217 1
55 271 1
55 289 1
55 433 1
55 487 1
55 505 1
56 2 1
56 56 1
56 74 1
56 218 1
56 272 1
56 290 1
56 434 1
56 488 1
56 506 1
57 3 1
57 57 1
57 75 1
57 219 1
57 273 1
57 291 1
57 435 1
57 489 1
57 507 1
58 4 1
58 58 1
58 76 1
58 220 1
58 274 1
58 292 1
58 436 1
58 490 1
58 508 1
59 5 1
59 59 1
59 77 1
59 221 1
59 275 1
59 293 1
59 437 1
59 491 1
59 509 1
60 6 1
60 60 1
60 78 1
60 222 1
60 276 1
60 294 1
60 438 1
60 492 1
60 510 1
61 7 1
61 61 1
61 79 1
61 223 1
61 277 1
61 295 1
61 439 1
61 493 1
61 511 1
62 8 1
62 62 1
62 80 1
62 224 1
62 278 1
62 296 1
62 440 1
62 494 1
62 512 1
63 9 1
63 63 1
63 81 1
63 225 1
63 279 1
63 297 1
63 441 1
63 495 1
63 513 1
64 10 1
64 64 1
64 82 1
64 226 1
64 280 1
64 298 1
64 442 1
64 496 1
64 514 1
65 11 1
65 65 1
65 83 1
65 227 1
65 281 1
65 299 1
65 443 1
65 497 1
65 515 1
66 12 1
66 66 1
66 84 1
66 228 1
66 282 1
66 300 1
66 444 1
66 498 1
66 516 1
67 13 1
67 67 1
67 85 1
67 229 1
67 283 1
67 301 1
67 445 1
67 499 1
67 517 1
68 14 1
68 68 1
68 86 1
68 230 1
68 284 1
68 302 1
68 446 1
68 500 1
68 518 1
69 15 1
69 69 1
69 87 1
69 231 1
69 285 1
69 303 1
69 447 1
69 501 1
69 519 1
70 16 1
70 70 1
70 88 1
70 232 1
70 286 1
70 304 1
70 448 1
70 502 1
70 520 1
71 17 1
71 71 1
71 89 1
71 233 1
71 287 1
71 305 1
71 449 1
71 503 1
71 521 1
72 18 1
72 72 1
72 90 1
72 234 1
72 288 1
72 306 1
72 450 1
72 504 1
72 522 1
73 19 1
73 55 1
73 91 1
73 235 1
73 271 1
73 307 1
73 451 1
73 487 1
73 523 1
74 20 1
74 56 1
74 92 1
74 236 1
74 272 1
74 308 1
74 452 1
74 488 1
74 524 1
75 21 1
75 57 1
75 93 1
75 237 1
75 273 1
75 309 1
75 453 1
75 489 1
75 525 1
76 22 1
76 58 1
76 94 1
76 238 1
76 274 1
76 310 1
76 454 1
76 490 1
76 526 1
77 23 1
77 59 1
77 95 1
77 239 1
77 275 1
77 311 1
77 455 1
77 491 1
77 527 1
78 24 1
78 60 1
78 96 1
78 240 1
78 276 1
78 312 1
78 456 1
78 492 1
78 528 1
79 25 1
79 61 1
79 97 1
79 241 1
79 277 1
79 313 1
79 457 1
79 493 1
79 529 1
80 26 1
80 62 1
80 98 1
80 242 1
80 278 1
80 314 1
80 458 1
80 494 1
80 530 1
81 27 1
81 63 1
81 99 1
81 243 1
81 279 1
81 315 1
81 459 1
81 495 1
81 531 1
82 28 1
82 64 1
82 100 1
82 244 1
82 280 1
82 316 1
82 460 1
82 496 1
82 532 1
83 29 1
83 65 1
83 101 1
83 245 1
83 281 1
83 317 1
83 461 1
83 497 1
83 533 1
84 30 1
84 66 1
84 102 1
84 246 1
84 282 1
84 318 1
84 462 1
84 498 1
84 534 1
85 31 1
85 67 1
85 103 1
85 247 1
85 283 1
85 319 1
85 463 1
85 499 1
85 535 1
86 32 1
86 68 1
86 104 1
86 248 1
86 284 1
86 320 1
86 464 1
86 500 1
86 536 1
87 33 1
87 69 1
87 105 1
87 249 1
87 285 1
87 321 1
87 465 1
87 501 1
87 537 1
88 34 1
88 70 1
88 106 1
88 250 1
88 286 1
88 322 1
88 466 1
88 502 1
88 538 1
89 35 1
89 71 1
89 107 1
89 251 1
89 287 1
89 323 1
89 467 1
89 503 1
89 539 1
90 36 1
90 72 1
90 108 1
90 252 1
90 288 1
90 324 1
90 468 1
90 504 1
90 540 1
91 37 1
91 73 1
91 91 1
91 253 1
91 289 1
91 307 1
91 469 1
91 505 1
91 523 1
92 38 1
92 74 1
92 92 1
92 254 1
92 290 1
92 308 1
92 470 1
92 506 1
92 524 1
93 39 1
93 75 1
93 93 1
93 255 1
93 291 1
93 309 1
93 471 1
93 507 1
93 525 1
94 40 1
94 76 1
94 94 1
94 256 1
94 292 1
94 310 1
94 472 1
94 508 1
94 526 1
95 41 1
95 77 1
95 95 1
95 257 1
95 293 1
95 311 1
95 473 1
95 509 1
95 527 1
96 42 1
96 78 1
96 96 1
96 258 1
96 294 1
96 312 1
96 474 1
96 510 1
96 528 1
97 43 1
97 79 1
97 97 1
97 259 1
97 295 1
97 313 1
97 475 1
97 511 1
97 529 1
98 44 1
98 80 1
98 98 1
98 260 1
98 296 1
98 314 1
98 476 1
98 512 1
98 530 1
99 45 1
99 81 1
99 99 1
99 261 1
99 297 1
99 315 1
99 477 1
99 513 1
99 531 1
100 46 1
100 82 1
100 100 1
100 262 1
100 298 1
100 316 1
100 478 1
100 514 1
100 532 1
101 47 1
101 83 1
101 101 1
101 263 1
101 299 1
101 317 1
101 479 1
101 515 1
101 533 1
102 48 1
102 84 1
102 102 1
102 264 1
102 300 1
102 318 1
102 480 1
102 516 1
102 534 1
103 49 1
103 85 1
103 103 1
103 265 1
103 301 1
103 319 1
103 481 1
103 517 1
103 535 1
104 50 1
104 86 1
104 104 1
104 266 1
104 302 1
104 320 1
104 482 1
104 518 1
104 536 1
105 51 1
105 87 1
105 105 1
105 267 1
105 303 1
105 321 1
105 483 1
105 519 1
105 537 1
106 52 1
106 88 1
106 106 1
106 268 1
106 304 1
106 322 1
106 484 1
106 520 1
106 538 1
107 53 1
107 89 1
107 107 1
107 269 1
107 305 1
107 323 1
107 485 1
107 521 1
107 539 1
108 54 1
108 90 1
108 108 1
108 270 1
108 306 1
108 324 1
108 486 1
108 522 1
108 540 1
109 109 1
109 163 1
109 181 1
109 217 1
109 271 1
109 289 1
109 541 1
109 595 1
109 613 1
110 110 1
110 164 1
110 182 1
110 218 1
110 272 1
110 290 1
110 542 1
110 596 1
110 614 1
111 111 1
111 165 1
111 183 1
111 219 1
111 273 1
111 291 1
111 543 1
111 597 1
111 615 1
112 112 1
112 166 1
112 184 1
112 220 1
112 274 1
112 292 1
112 544 1
112 598 1
112 616 1
113 113 1
113 167 1
113 185 1
113 221 1
113 275 1
113 293 1
113 545 1
113 599 1
113 617 1
114 114 1
114 168 1
114 186 1
114 222 1
114 276 1
114 294 1
114 546 1
114 600 1
114 618 1
115 115 1
115 169 1
115 187 1
115 223 1
115 277 1
115 295 1
115 547 1
115 601 1
115 619 1
116 116 1
116 170 1
116 188 1
116 224 1
116 278 1
116 296 1
116 548 1
116 602 1
116 620 1
117 117 1
117 171 1
117 189 1
117 225 1
117 279 1
117 297 1
117 549 1
117 603 1
117 621 1
118 118 1
118 172 1
118 190 1
118 226 1
118 280 1
118 298 1
118 550 1
118 604 1
118 622 1
119 119 1
119 173 1
119 191 1
119 227 1
119 281 1
119 299 1
119 551 1
119 605 1
119 623 1
120 120 1
120 174 1
120 192 1
120 228 1
120 282 1
120 300 1
120 552 1
120 606 1
120 624 1
121 121 1
121 175 1
121 193 1
121 229 1
121 283 1
121 301 1
121 553 1
121 607 1
121 625 1
122 122 1
122 176 1
122 194 1
122 230 1
122 284 1
122 302 1
122 554 1
122 608 1
122 626 1
123 123 1
123 177 1
123 195 1
123 231 1
123 285 1
123 303 1
123 555 1
123 609 1
123 627 1
124 124 1
124 178 1
124 196 1
124 232 1
124 286 1
124 304 1
124 556 1
124 610 1
124 628 1
125 125 1
125 179 1
125 197 1
125 233 1
125 287 1
125 305 1
125 557 1
125 611 1
125 629 1
126 126 1
126 180 1
126 198 1
126 234 1
126 288 1
126 306 1
126 558 1
126 612 1
126 630 1
127 127 1
127 163 1
127 199 1
127 235 1
127 271 1
127 307 1
127 559 1
127 595 1
127 631 1
128 128 1
128 164 1
128 200 1
128 236 1
128 272 1
128 308 1
128 560 1
128 596 1
128 632 1
129 129 1
129 165 1
129 201 1
129 237 1
129 273 1
129 309 1
129 561 1
129 597 1
129 633 1
130 130 1
130 166 1
130 202 1
130 238 1
130 274 1
130 310 1
130 562 1
130 598 1
130 634 1
131 131 1
131 167 1
131 203 1
131 239 1
131 275 1
131 311 1
131 563 1
131 599 1
131 635 1
132 132 1
132 168 1
132 204 1
132 240 1
132 276 1
132 312 1
132 564 1
132 600 1
132 636 1
133 133 1
133 169 1
133 205 1
133 241 1
133 277 1
133 313 1
133 565 1
133 601 1
133 637 1
134 134 1
134 170 1
134 206 1
134 242 1
134 278 1
134 314 1
134 566 1
134 602 1
134 638 1
135 135 1
135 171 1
135 207 1
135 243 1
135 279 1
135 315 1
135 567 1
135 603 1
135 639 1
136 136 1
136 172 1
136 208 1
136 244 1
136 280 1
136 316 1
136 568 1
136 604 1
136 640 1
137 137 1
137 173 1
137 209 1
137 245 1
137 281 1
137 317 1
137 569 1
137 605 1
137 641 1
138 138 1
138 174 1
138 210 1
138 246 1
138 282 1
138 318 1
138 570 1
138 606 1
138 642 1
139 139 1
139 175 1
139 211 1
139 247 1
139 283 1
139 319 1
139 571 1
139 607 1
139 643 1
140 140 1
140 176 1
140 212 1
140 248 1
140 284 1
140 320 1
140 572 1
140 608 1
140 644 1
141 141 1
141 177 1
141 213 1
141 249 1
141 285 1
141 321 1
141 573 1
141 609 1
141 645 1
142 142 1
142 178 1
142 214 1
142 250 1
142 286 1
142 322 1
142 574 1
142 610 1
142 646 1
143 143 1
143 179 1
143 215 1
143 251 1
143 287 1
143 323 1
143 575 1
143 611 1
143 647 1
144 144 1
144 180 1
144 216 1
144 252 1
144 288 1
144 324 1
144 576 1
144 612 1
144 648 1
145 145 1
145 181 1
145 199 1
145 253 1
145 289 1
145 307 1
145 577 1
145 613 1
145 631 1
146 146 1
146 182 1
146 200 1
146 254 1
146 290 1
146 308 1
146 578 1
146 614 1
146 632 1
147 147 1
147 183 1
147 201 1
147 255 1
147 291 1
147 309 1
147 579 1
147 615 1
147 633 1
148 148 1
148 184 1
148 202 1
148 256 1
148 292 1
148 310 1
148 580 1
148 616 1
148 634 1
149 149 1
149 185 1
149 203 1
149 257 1
149 293 1
149 311 1
149 581 1
149 617 1
149 635 1
150 150 1
150 186 1
150 204 1
150 258 1
150 294 1
150 312 1
150 582 1
150 618 1
150 636 1
151 151 1
151 187 1
151 205 1
151 259 1
151 295 1
151 313 1
151 583 1
151 619 1
151 637 1
152 152 1
152 188 1
152 206 1
152 260 1
152 296 1
152 314 1
152 584 1
152 620 1
152 638 1
153 153 1
153 189 1
153 207 1
153 261 1
153 297 1
153 315 1
153 585 1
153 621 1
153 639 1
154 154 1
154 190 1
154 208 1
154 262 1
154 298 1
154 316 1
154 586 1
154 622 1
154 640 1
155 155 1
155 191 1
155 209 1
155 263 1
155 299 1
155 317 1
155 587 1
155 623 1
155 641 1
156 156 1
156 192 1
156 210 1
156 264 1
156 300 1
156 318 1
156 588 1
156 624 1
156 642 1
157 157 1
157 193 1
157 211 1
157 265 1
157 301 1
157 319 1
157 589 1
157 625 1
157 643 1
158 158 1
158 194 1
158 212 1
158 266 1
158 302 1
158 320 1
158 590 1
158 626 1
158 644 1
159 159 1
159 195 1
159 213 1
159 267 1
159 303 1
159 321 1
159 591 1
159 627 1
159 645 1
160 160 1
160 196 1
160 214 1
160 268 1
160 304 1
160 322 1
160 592 1
160 628 1
160 646 1
161 161 1
161 197 1
161 215 1
161 269 1
161 305 1
161 323 1
161 593 1
161 629 1
161 647 1
162 162 1
162 198 1
162 216 1
162 270 1
162 306 1
162 324 1
162 594 1
162 630 1
162 648 1
163 1 1
163 41 1
163 108 1
163 110 1
163 147 1
163 215 1
163 339 1
163 373 1
163 418 1
164 2 1
164 39 1
164 107 1
164 109 1
164 149 1
164 216 1
164 332 1
164 372 1
164 425 1
165 3 1
165 38 1
165 106 1
165 113 1
165 145 1
165 212 1
165 336 1
165 368 1
165 421 1
166 4 1
166 52 1
166 105 1
166 114 1
166 158 1
166 211 1
166 342 1
166 367 1
166 415 1
167 5 1
167 37 1
167 104 1
167 111 1
167 146 1
167 214 1
167 337 1
167 375 1
167 420 1
168 6 1
168 50 1
168 103 1
168 112 1
168 160 1
168 213 1
168 338 1
168 366 1
168 419 1
169 7 1
169 54 1
169 102 1
169 118 1
169 161 1
169 207 1
169 340 1
169 364 1
169 417 1
170 8 1
170 48 1
170 101 1
170 119 1
170 153 1
170 206 1
170 326 1
170 363 1
170 431 1
171 9 1
171 47 1
171 100 1
171 120 1
171 152 1
171 205 1
171 334 1
171 377 1
171 423 1
172 10 1
172 53 1
172 99 1
172 115 1
172 162 1
172 210 1
172 333 1
172 371 1
172 424 1
173 11 1
173 45 1
173 98 1
173 116 1
173 156 1
173 209 1
173 341 1
173 370 1
173 416 1
174 12 1
174 44 1
174 97 1
174 117 1
174 155 1
174 208 1
174 327 1
174 362 1
174 430 1
175 13 1
175 51 1
175 96 1
175 123 1
175 157 1
175 202 1
175 329 1
175 361 1
175 428 1
176 14 1
176 42 1
176 95 1
176 124 1
176 148 1
176 201 1
176 330 1
176 374 1
176 427 1
177 15 1
177 49 1
177 94 1
177 121 1
177 159 1
177 204 1
177 325 1
177 365 1
177 432 1
178 16 1
178 40 1
178 93 1
178 122 1
178 150 1
178 203 1
178 331 1
178 378 1
178 426 1
179 17 1
179 46 1
179 92 1
179 126 1
179 151 1
179 199 1
179 335 1
179 369 1
179 422 1
180 18 1
180 43 1
180 91 1
180 125 1
180 154 1
180 200 1
180 328 1
180 376 1
180 429 1
181 35 1
181 41 1
181 84 1
181 144 1
181 147 1
181 189 1
181 353 1
181 373 1
181 399 1
182 36 1
182 39 1
182 81 1
182 143 1
182 149 1
182 192 1
182 346 1
182 372 1
182 406 1
183 19 1
183 38 1
183 87 1
183 128 1
183 145 1
183 193 1
183 357 1
183 368 1
183 397 1
184 25 1
184 52 1
184 78 1
184 136 1
184 158 1
184 184 1
184 358 1
184 367 1
184 410 1
185 20 1
185 37 1
185 85 1
185 127 1
185 146 1
185 195 1
185 350 1
185 375 1
185 401 1
186 28 1
186 50 1
186 76 1
186 133 1
186 160 1
186 186 1
186 351 1
186 366 1
186 414 1
187 21 1
187 54 1
187 83 1
187 131 1
187 161 1
187 188 1
187 354 1
187 364 1
187 413 1
188 22 1
188 48 1
188 82 1
188 132 1
188 153 1
188 187 1
188 360 1
188 363 1
188 405 1
189 31 1
189 47 1
189 74 1
189 141 1
189 152 1
189 181 1
189 347 1
189 377 1
189 404 1
190 23 1
190 53 1
190 80 1
190 129 1
190 162 1
190 191 1
190 355 1
190 371 1
190 398 1
191 24 1
191 45 1
191 79 1
191 130 1
191 156 1
191 190 1
191 356 1
191 370 1
191 412 1
192 33 1
192 44 1
192 73 1
192 139 1
192 155 1
192 182 1
192 343 1
192 362 1
192 411 1
193 26 1
193 51 1
193 77 1
193 137 1
193 157 1
193 183 1
193 344 1
193 361 1
193 409 1
194 27 1
194 42 1
194 90 1
194 138 1
194 148 1
194 197 1
194 352 1
194 374 1
194 400 1
195 29 1
195 49 1
195 75 1
195 134 1
195 159 1
195 185 1
195 359 1
195 365 1
195 408 1
196 30 1
196 40 1
196 89 1
196 135 1
196 150 1
196 198 1
196 345 1
196 378 1
196 407 1
197 32 1
197 46 1
197 88 1
197 142 1
197 151 1
197 194 1
197 348 1
197 369 1
197 403 1
198 34 1
198 43 1
198 86 1
198 140 1
198 154 1
198 196 1
198 349 1
198 376 1
198 402 1
199 59 1
199 84 1
199 108 1
199 165 1
199 189 1
199 215 1
199 391 1
199 399 1
199 418 1
200 57 1
200 81 1
200 107 1
200 167 1
200 192 1
200 216 1
200 390 1
200 406 1
200 425 1
201 56 1
201 87 1
201 106 1
201 163 1
201 193 1
201 212 1
201 386 1
201 397 1
201 421 1
202 70 1
202 78 1
202 105 1
202 176 1
202 184 1
202 211 1
202 385 1
202 410 1
202 415 1
203 55 1
203 85 1
203 104 1
203 164 1
203 195 1
203 214 1
203 393 1
203 401 1
203 420 1
204 68 1
204 76 1
204 103 1
204 178 1
204 186 1
204 213 1
204 384 1
204 414 1
204 419 1
205 72 1
205 83 1
205 102 1
205 179 1
205 188 1
205 207 1
205 382 1
205 413 1
205 417 1
206 66 1
206 82 1
206 101 1
206 171 1
206 187 1
206 206 1
206 381 1
206 405 1
206 431 1
207 65 1
207 74 1
207 100 1
207 170 1
207 181 1
207 205 1
207 395 1
207 404 1
207 423 1
208 71 1
208 80 1
208 99 1
208 180 1
208 191 1
208 210 1
208 389 1
208 398 1
208 424 1
209 63 1
209 79 1
209 98 1
209 174 1
209 190 1
209 209 1
209 388 1
209 412 1
209 416 1
210 62 1
210 73 1
210 97 1
210 173 1
210 182 1
210 208 1
210 380 1
210 411 1
210 430 1
211 69 1
211 77 1
211 96 1
211 175 1
211 183 1
211 202 1
211 379 1
211 409 1
211 428 1
212 60 1
212 90 1
212 95 1
212 166 1
212 197 1
212 201 1
212 392 1
212 400 1
212 427 1
213 67 1
213 75 1
213 94 1
213 177 1
213 185 1
213 204 1
213 383 1
213 408 1
213 432 1
214 58 1
214 89 1
214 93 1
214 168 1
214 198 1
214 203 1
214 396 1
214 407 1
214 426 1
215 64 1
215 88 1
215 92 1
215 169 1
215 194 1
215 199 1
215 387 1
215 403 1
215 422 1
216 61 1
216 86 1
216 91 1
216 172 1
216 196 1
216 200 1
216 394 1
216 402 1
216 429 1
217 1 1
217 41 1
217 108 1
217 222 1
217 266 1
217 319 1
217 448 1
217 472 1
217 525 1
218 2 1
218 39 1
218 107 1
218 225 1
218 263 1
218 316 1
218 439 1
218 486 1
218 534 1
219 3 1
219 38 1
219 106 1
219 227 1
219 261 1
219 314 1
219 450 1
219 475 1
219 523 1
220 4 1
220 52 1
220 105 1
220 228 1
220 260 1
220 313 1
220 437 1
220 469 1
220 536 1
221 5 1
221 37 1
221 104 1
221 230 1
221 258 1
221 311 1
221 436 1
221 484 1
221 537 1
222 6 1
222 50 1
222 103 1
222 217 1
222 257 1
222 324 1
222 445 1
222 483 1
222 528 1
223 7 1
223 54 1
223 102 1
223 231 1
223 265 1
223 310 1
223 434 1
223 471 1
223 539 1
224 8 1
224 48 1
224 101 1
224 232 1
224 256 1
224 309 1
224 442 1
224 485 1
224 531 1
225 9 1
225 47 1
225 100 1
225 218 1
225 255 1
225 323 1
225 443 1
225 477 1
225 530 1
226 10 1
226 53 1
226 99 1
226 233 1
226 262 1
226 308 1
226 440 1
226 480 1
226 533 1
227 11 1
227 45 1
227 98 1
227 219 1
227 254 1
227 322 1
227 441 1
227 479 1
227 532 1
228 12 1
228 44 1
228 97 1
228 220 1
228 268 1
228 321 1
228 449 1
228 478 1
228 524 1
229 13 1
229 51 1
229 96 1
229 234 1
229 259 1
229 307 1
229 438 1
229 482 1
229 535 1
230 14 1
230 42 1
230 95 1
230 221 1
230 253 1
230 320 1
230 447 1
230 481 1
230 526 1
231 15 1
231 49 1
231 94 1
231 223 1
231 270 1
231 318 1
231 446 1
231 474 1
231 527 1
232 16 1
232 40 1
232 93 1
232 224 1
232 264 1
232 317 1
232 433 1
232 473 1
232 540 1
233 17 1
233 46 1
233 92 1
233 226 1
233 269 1
233 315 1
233 444 1
233 476 1
233 529 1
234 18 1
234 43 1
234 91 1
234 229 1
234 267 1
234 312 1
234 435 1
234 470 1
234 538 1
235 35 1
235 41 1
235 84 1
235 244 1
235 266 1
235 292 1
235 462 1
235 472 1
235 521 1
236 36 1
236 39 1
236 81 1
236 247 1
236 263 1
236 290 1
236 453 1
236 486 1
236 515 1
237 19 1
237 38 1
237 87 1
237 240 1
237 261 1
237 295 1
237 466 1
237 475 1
237 518 1
238 25 1
238 52 1
238 78 1
238 249 1
238 260 1
238 289 1
238 452 1
238 469 1
238 517 1
239 20 1
239 37 1
239 85 1
239 243 1
239 258 1
239 306 1
239 457 1
239 484 1
239 510 1
240 28 1
240 50 1
240 76 1
240 251 1
240 257 1
240 300 1
240 458 1
240 483 1
240 509 1
241 21 1
241 54 1
241 83 1
241 245 1
241 265 1
241 291 1
241 468 1
241 471 1
241 513 1
242 22 1
242 48 1
242 82 1
242 246 1
242 256 1
242 305 1
242 455 1
242 485 1
242 512 1
243 31 1
243 47 1
243 74 1
243 252 1
243 255 1
243 297 1
243 456 1
243 477 1
243 511 1
244 23 1
244 53 1
244 80 1
244 248 1
244 262 1
244 304 1
244 454 1
244 480 1
244 514 1
245 24 1
245 45 1
245 79 1
245 235 1
245 254 1
245 303 1
245 463 1
245 479 1
245 506 1
246 33 1
246 44 1
246 73 1
246 241 1
246 268 1
246 294 1
246 464 1
246 478 1
246 520 1
247 26 1
247 51 1
247 77 1
247 250 1
247 259 1
247 302 1
247 460 1
247 482 1
247 508 1
248 27 1
248 42 1
248 90 1
248 236 1
248 253 1
248 301 1
248 461 1
248 481 1
248 507 1
249 29 1
249 49 1
249 75 1
249 237 1
249 270 1
249 299 1
249 459 1
249 474 1
249 522 1
250 30 1
250 40 1
250 89 1
250 238 1
250 264 1
250 298 1
250 467 1
250 473 1
250 516 1
251 32 1
251 46 1
251 88 1
251 239 1
251 269 1
251 296 1
251 465 1
251 476 1
251 505 1
252 34 1
252 43 1
252 86 1
252 242 1
252 267 1
252 293 1
252 451 1
252 470 1
252 519 1
253 59 1
253 84 1
253 108 1
253 284 1
253 292 1
253 319 1
253 490 1
253 521 1
253 525 1
254 57 1
254 81 1
254 107 1
254 281 1
254 290 1
254 316 1
254 504 1
254 515 1
254 534 1
255 56 1
255 87 1
255 106 1
255 279 1
255 295 1
255 314 1
255 493 1
255 518 1
255 523 1
256 70 1
256 78 1
256 105 1
256 278 1
256 289 1
256 313 1
256 487 1
256 517 1
256 536 1
257 55 1
257 85 1
257 104 1
257 276 1
257 306 1
257 311 1
257 502 1
257 510 1
257 537 1
258 68 1
258 76 1
258 103 1
258 275 1
258 300 1
258 324 1
258 501 1
258 509 1
258 528 1
259 72 1
259 83 1
259 102 1
259 283 1
259 291 1
259 310 1
259 489 1
259 513 1
259 539 1
260 66 1
260 82 1
260 101 1
260 274 1
260 305 1
260 309 1
260 503 1
260 512 1
260 531 1
261 65 1
261 74 1
261 100 1
261 273 1
261 297 1
261 323 1
261 495 1
261 511 1
261 530 1
262 71 1
262 80 1
262 99 1
262 280 1
262 304 1
262 308 1
262 498 1
262 514 1
262 533 1
263 63 1
263 79 1
263 98 1
263 272 1
263 303 1
263 322 1
263 497 1
263 506 1
263 532 1
264 62 1
264 73 1
264 97 1
264 286 1
264 294 1
264 321 1
264 496 1
264 520 1
264 524 1
265 69 1
265 77 1
265 96 1
265 277 1
265 302 1
265 307 1
265 500 1
265 508 1
265 535 1
266 60 1
266 90 1
266 95 1
266 271 1
266 301 1
266 320 1
266 499 1
266 507 1
266 526 1
267 67 1
267 75 1
267 94 1
267 288 1
267 299 1
267 318 1
267 492 1
267 522 1
267 527 1
268 58 1
268 89 1
268 93 1
268 282 1
268 298 1
268 317 1
268 491 1
268 516 1
268 540 1
269 64 1
269 88 1
269 92 1
269 287 1
269 296 1
269 315 1
269 494 1
269 505 1
269 529 1
270 61 1
270 86 1
270 91 1
270 285 1
270 293 1
270 312 1
270 488 1
270 519 1
270 538 1
271 110 1
271 147 1
271 215 1
271 222 1
271 266 1
271 319 1
271 558 1
271 583 1
271 631 1
272 109 1
272 149 1
272 216 1
272 225 1
272 263 1
272 316 1
272 543 1
272 578 1
272 646 1
273 113 1
273 145 1
273 212 1
273 227 1
273 261 1
273 314 1
273 542 1
273 579 1
273 647 1
274 114 1
274 158 1
274 211 1
274 228 1
274 260 1
274 313 1
274 550 1
274 593 1
274 639 1
275 111 1
275 146 1
275 214 1
275 230 1
275 258 1
275 311 1
275 547 1
275 594 1
275 642 1
276 112 1
276 160 1
276 213 1
276 217 1
276 257 1
276 324 1
276 548 1
276 588 1
276 641 1
277 118 1
277 161 1
277 207 1
277 231 1
277 265 1
277 310 1
277 545 1
277 577 1
277 644 1
278 119 1
278 153 1
278 206 1
278 232 1
278 256 1
278 309 1
278 546 1
278 590 1
278 643 1
279 120 1
279 152 1
279 205 1
279 218 1
279 255 1
279 323 1
279 555 1
279 589 1
279 634 1
280 115 1
280 162 1
280 210 1
280 233 1
280 262 1
280 308 1
280 544 1
280 592 1
280 645 1
281 116 1
281 156 1
281 209 1
281 219 1
281 254 1
281 322 1
281 553 1
281 591 1
281 636 1
282 117 1
282 155 1
282 208 1
282 220 1
282 268 1
282 321 1
282 554 1
282 582 1
282 635 1
283 123 1
283 157 1
283 202 1
283 234 1
283 259 1
283 307 1
283 551 1
283 585 1
283 638 1
284 124 1
284 148 1
284 201 1
284 221 1
284 253 1
284 320 1
284 552 1
284 584 1
284 637 1
285 121 1
285 159 1
285 204 1
285 223 1
285 270 1
285 318 1
285 549 1
285 587 1
285 640 1
286 122 1
286 150 1
286 203 1
286 224 1
286 264 1
286 317 1
286 557 1
286 586 1
286 632 1
287 126 1
287 151 1
287 199 1
287 226 1
287 269 1
287 315 1
287 556 1
287 580 1
287 633 1
288 125 1
288 154 1
288 200 1
288 229 1
288 267 1
288 312 1
288 541 1
288 581 1
288 648 1
289 144 1
289 147 1
289 189 1
289 244 1
289 266 1
289 292 1
289 574 1
289 583 1
289 626 1
290 143 1
290 149 1
290 192 1
290 247 1
290 263 1
290 290 1
290 559 1
290 578 1
290 627 1
291 128 1
291 145 1
291 193 1
291 240 1
291 261 1
291 295 1
291 576 1
291 579 1
291 621 1
292 136 1
292 158 1
292 184 1
292 249 1
292 260 1
292 289 1
292 563 1
292 593 1
292 620 1
293 127 1
293 146 1
293 195 1
293 243 1
293 258 1
293 306 1
293 561 1
293 594 1
293 623 1
294 133 1
294 160 1
294 186 1
294 251 1
294 257 1
294 300 1
294 562 1
294 588 1
294 622 1
295 131 1
295 161 1
295 188 1
295 245 1
295 265 1
295 291 1
295 560 1
295 577 1
295 625 1
296 132 1
296 153 1
296 187 1
296 246 1
296 256 1
296 305 1
296 568 1
296 590 1
296 616 1
297 141 1
297 152 1
297 181 1
297 252 1
297 255 1
297 297 1
297 569 1
297 589 1
297 615 1
298 129 1
298 162 1
298 191 1
298 248 1
298 262 1
298 304 1
298 565 1
298 592 1
298 618 1
299 130 1
299 156 1
299 190 1
299 235 1
299 254 1
299 303 1
299 566 1
299 591 1
299 617 1
300 139 1
300 155 1
300 182 1
300 241 1
300 268 1
300 294 1
300 567 1
300 582 1
300 630 1
301 137 1
301 157 1
301 183 1
301 250 1
301 259 1
301 302 1
301 564 1
301 585 1
301 619 1
302 138 1
302 148 1
302 197 1
302 236 1
302 253 1
302 301 1
302 573 1
302 584 1
302 613 1
303 134 1
303 159 1
303 185 1
303 237 1
303 270 1
303 299 1
303 571 1
303 587 1
303 614 1
304 135 1
304 150 1
304 198 1
304 238 1
304 264 1
304 298 1
304 572 1
304 586 1
304 628 1
305 142 1
305 151 1
305 194 1
305 239 1
305 269 1
305 296 1
305 570 1
305 580 1
305 629 1
306 140 1
306 154 1
306 196 1
306 242 1
306 267 1
306 293 1
306 575 1
306 581 1
306 624 1
307 165 1
307 189 1
307 215 1
307 284 1
307 292 1
307 319 1
307 601 1
307 626 1
307 631 1
308 167 1
308 192 1
308 216 1
308 281 1
308 290 1
308 316 1
308 596 1
308 627 1
308 646 1
309 163 1
309 193 1
309 212 1
309 279 1
309 295 1
309 314 1
309 597 1
309 621 1
309 647 1
310 176 1
310 184 1
310 211 1
310 278 1
310 289 1
310 313 1
310 611 1
310 620 1
310 639 1
311 164 1
311 195 1
311 214 1
311 276 1
311 306 1
311 311 1
311 612 1
311 623 1
311 642 1
312 178 1
312 186 1
312 213 1
312 275 1
312 300 1
312 324 1
312 606 1
312 622 1
312 641 1
313 179 1
313 188 1
313 207 1
313 283 1
313 291 1
313 310 1
313 595 1
313 625 1
313 644 1
314 171 1
314 187 1
314 206 1
314 274 1
314 305 1
314 309 1
314 608 1
314 616 1
314 643 1
315 170 1
315 181 1
315 205 1
315 273 1
315 297 1
315 323 1
315 607 1
315 615 1
315 634 1
316 180 1
316 191 1
316 210 1
316 280 1
316 304 1
316 308 1
316 610 1
316 618 1
316 645 1
317 174 1
317 190 1
317 209 1
317 272 1
317 303 1
317 322 1
317 609 1
317 617 1
317 636 1
318 173 1
318 182 1
318 208 1
318 286 1
318 294 1
318 321 1
318 600 1
318 630 1
318 635 1
319 175 1
319 183 1
319 202 1
319 277 1
319 302 1
319 307 1
319 603 1
319 619 1
319 638 1
320 166 1
320 197 1
320 201 1
320 271 1
320 301 1
320 320 1
320 602 1
320 613 1
320 637 1
321 177 1
321 185 1
321 204 1
321 288 1
321 299 1
321 318 1
321 605 1
321 614 1
321 640 1
322 168 1
322 198 1
322 203 1
322 282 1
322 298 1
322 317 1
322 604 1
322 628 1
322 632 1
323 169 1
323 194 1
323 199 1
323 287 1
323 296 1
323 315 1
323 598 1
323 629 1
323 633 1
324 172 1
324 196 1
324 200 1
324 285 1
324 293 1
324 312 1
324 599 1
324 624 1
324 648 1
