%%MatrixMarket matrix coordinate integer general
306 612 2754
1 1 1
1 52 1
1 69 1
1 103 1
1 154 1
1 171 1
1 307 1
1 358 1
1 375 1
2 2 1
2 53 1
2 70 1
2 104 1
2 155 1
2 172 1
2 308 1
2 359 1
2 376 1
3 3 1
3 54 1
3 71 1
3 105 1
3 156 1
3 173 1
3 309 1
3 360 1
3 377 1
4 4 1
4 55 1
4 72 1
4 106 1
4 157 1
4 174 1
4 310 1
4 361 1
4 378 1
5 5 1
5 56 1
5 73 1
5 107 1
5 158 1
5 175 1
5 311 1
5 362 1
5 379 1
6 6 1
6 57 1
6 74 1
6 108 1
6 159 1
6 176 1
6 312 1
6 363 1
6 380 1
7 7 1
7 58 1
7 75 1
7 109 1
7 160 1
7 177 1
7 313 1
7 364 1
7 381 1
8 8 1
8 59 1
8 76 1
8 110 1
8 161 1
8 178 1
8 314 1
8 365 1
8 382 1
9 9 1
9 60 1
9 77 1
9 111 1
9 162 1
9 179 1
9 315 1
9 366 1
9 383 1
10 10 1
10 61 1
10 78 1
10 112 1
10 163 1
10 180 1
10 316 1
10 367 1
10 384 1
11 11 1
11 62 1
11 79 1
11 113 1
11 164 1
11 181 1
11 317 1
11 368 1
11 385 1
12 12 1
12 63 1
12 80 1
12 114 1
12 165 1
12 182 1
12 318 1
12 369 1
12 386 1
13 13 1
13 64 1
13 81 1
13 115 1
13 166 1
13 183 1
13 319 1
13 370 1
13 387 1
14 14 1
14 65 1
14 82 1
14 116 1
14 167 1
14 184 1
14 320 1
14 371 1
14 388 1
15 15 1
15 66 1
15 83 1
15 117 1
15 168 1
15 185 1
15 321 1
15 372 1
15 389 1
16 16 1
16 67 1
16 84 1
16 118 1
16 169 1
16 186 1
16 322 1
16 373 1
16 390 1
17 17 1
17 68 1
17 85 1
17 119 1
17 170 1
17 187 1
17 323 1
17 374 1
17 391 1
18 18 1
18 52 1
18 86 1
18 120 1
18 154 1
18 188 1
18 324 1
18 358 1
18 392 1
19 19 1
19 53 1
19 87 1
19 121 1
19 155 1
19 189 1
19 325 1
19 359 1
19 393 1
20 20 1
20 54 1
20 88 1
20 122 1
20 156 1
20 190 1
20 326 1
20 360 1
20 394 1
21 21 1
21 55 1
21 89 1
21 123 1
21 157 1
21 191 1
21 327 1
21 361 1
21 395 1
22 22 1
22 56 1
22 90 1
22 124 1
22 158 1
22 192 1
22 328 1
22 362 1
22 396 1
23 23 1
23 57 1
23 91 1
23 125 1
23 159 1
23 193 1
23 329 1
23 363 1
23 397 1
24 24 1
24 58 1
24 92 1
24 126 1
24 160 1
24 194 1
24 330 1
24 364 1
24 398 1
25 25 1
25 59 1
25 93 1
25 127 1
25 161 1
25 195 1
25 331 1
25 365 1
25 399 1
26 26 1
26 60 1
26 94 1
26 128 1
26 162 1
26 196 1
26 332 1
26 366 1
26 400 1
27 27 1
27 61 1
27 95 1
27 129 1
27 163 1
27 197 1
27 333 1
27 367 1
27 401 1
28 28 1
28 62 1
28 96 1
28 130 1
28 164 1
28 198 1
28 334 1
28 368 1
28 402 1
29 29 1
29 63 1
29 97 1
29 131 1
29 165 1
29 199 1
29 335 1
29 369 1
29 403 1
30 30 1
30 64 1
30 98 1
30 132 1
30 166 1
30 200 1
30 336 1
30 370 1
30 404 1
31 31 1
31 65 1
31 99 1
31 133 1
31 167 1
31 201 1
31 337 1
31 371 1
31 405 1
32 32 1
32 66 1
32 100 1
32 134 1
32 168 1
32 202 1
32 338 1
32 372 1
32 406 1
33 33 1
33 67 1
33 101 1
33 135 1
33 169 1
33 203 1
33 339 1
33 373 1
33 407 1
34 34 1
34 68 1
34 102 1
34 136 1
34 170 1
34 204 1
34 340 1
34 374 1
34 408 1
35 35 1
35 69 1
35 86 1
35 137 1
35 171 1
35 188 1
35 341 1
35 375 1
35 392 1
36 36 1
36 70 1
36 87 1
36 138 1
36 172 1
36 189 1
36 342 1
36 376 1
36 393 1
37 37 1
37 71 1
37 88 1
37 139 1
37 173 1
37 190 1
37 343 1
37 377 1
37 394 1
38 38 1
38 72 1
38 89 1
38 140 1
38 174 1
38 191 1
38 344 1
38 378 1
38 395 1
39 39 1
39 73 1
39 90 1
39 141 1
39 175 1
39 192 1
39 345 1
39 379 1
39 396 1
40 40 1
40 74 1
40 91 1
40 142 1
40 176 1
40 193 1
40 346 1
40 380 1
40 397 1
41 41 1
41 75 1
41 92 1
41 143 1
41 177 1
41 194 1
41 347 1
41 381 1
41 398 1
42 42 1
42 76 1
42 93 1
42 144 1
42 178 1
42 195 1
42 348 1
42 382 1
42 399 1
43 43 1
43 77 1
43 94 1
43 145 1
43 179 1
43 196 1
43 349 1
43 383 1
43 400 1
44 44 1
44 78 1
44 95 1
44 146 1
44 180 1
44 197 1
44 350 1
44 384 1
44 401 1
45 45 1
45 79 1
45 96 1
45 147 1
45 181 1
45 198 1
45 351 1
45 385 1
45 402 1
46 46 1
46 80 1
46 97 1
46 148 1
46 182 1
46 199 1
46 352 1
46 386 1
46 403 1
47 47 1
47 81 1
47 98 1
47 149 1
47 183 1
47 200 1
47 353 1
47 387 1
47 404 1
48 48 1
48 82 1
48 99 1
48 150 1
48 184 1
48 201 1
48 354 1
48 388 1
48 405 1
49 49 1
49 83 1
49 100 1
49 151 1
49 185 1
49 202 1
49 355 1
49 389 1
49 406 1
50 50 1
50 84 1
50 101 1
50 152 1
50 186 1
50 203 1
50 356 1
50 390 1
50 407 1
51 51 1
51 85 1
51 102 1
51 153 1
51 187 1
51 204 1
51 357 1
51 391 1
51 408 1
52 1 1
52 52 1
52 69 1
52 205 1
52 256 1
52 273 1
52 409 1
52 460 1
52 477 1
53 2 1
53 53 1
53 70 1
53 206 1
53 257 1
53 274 1
53 410 1
53 461 1
53 478 1
54 3 1
54 54 1
54 71 1
54 207 1
54 258 1
54 275 1
54 411 1
54 462 1
54 479 1
55 4 1
55 55 1
55 72 1
55 208 1
55 259 1
55 276 1
55 412 1
55 463 1
55 480 1
56 5 1
56 56 1
56 73 1
56 209 1
56 260 1
56 277 1
56 413 1
56 464 1
56 481 1
57 6 1
57 57 1
57 74 1
57 210 1
57 261 1
57 278 1
57 414 1
57 465 1
57 482 1
58 7 1
58 58 1
58 75 1
58 211 1
58 262 1
58 279 1
58 415 1
58 466 1
58 483 1
59 8 1
59 59 1
59 76 1
59 212 1
59 263 1
59 280 1
59 416 1
59 467 1
59 484 1
60 9 1
60 60 1
60 77 1
60 213 1
60 264 1
60 281 1
60 417 1
60 468 1
60 485 1
61 10 1
61 61 1
61 78 1
61 214 1
61 265 1
61 282 1
61 418 1
61 469 1
61 486 1
62 11 1
62 62 1
62 79 1
62 215 1
62 266 1
62 283 1
62 419 1
62 470 1
62 487 1
63 12 1
63 63 1
63 80 1
63 216 1
63 267 1
63 284 1
63 420 1
63 471 1
63 488 1
64 13 1
64 64 1
64 81 1
64 217 1
64 268 1
64 285 1
64 421 1
64 472 1
64 489 1
65 14 1
65 65 1
65 82 1
65 218 1
65 269 1
65 286 1
65 422 1
65 473 1
65 490 1
66 15 1
66 66 1
66 83 1
66 219 1
66 270 1
66 287 1
66 423 1
66 474 1
66 491 1
67 16 1
67 67 1
67 84 1
67 220 1
67 271 1
67 288 1
67 424 1
67 475 1
67 492 1
68 17 1
68 68 1
68 85 1
68 221 1
68 272 1
68 289 1
68 425 1
68 476 1
68 493 1
69 18 1
69 52 1
69 86 1
69 222 1
69 256 1
69 290 1
69 426 1
69 460 1
69 494 1
70 19 1
70 53 1
70 87 1
70 223 1
70 257 1
70 291 1
70 427 1
70 461 1
70 495 1
71 20 1
71 54 1
71 88 1
71 224 1
71 258 1
71 292 1
71 428 1
71 462 1
71 496 1
72 21 1
72 55 1
72 89 1
72 225 1
72 259 1
72 293 1
72 429 1
72 463 1
72 497 1
73 22 1
73 56 1
73 90 1
73 226 1
73 260 1
73 294 1
73 430 1
73 464 1
73 498 1
74 23 1
74 57 1
74 91 1
74 227 1
74 261 1
74 295 1
74 431 1
74 465 1
74 499 1
75 24 1
75 58 1
75 92 1
75 228 1
75 262 1
75 296 1
75 432 1
75 466 1
75 500 1
76 25 1
76 59 1
76 93 1
76 229 1
76 263 1
76 297 1
76 433 1
76 467 1
76 501 1
77 26 1
77 60 1
77 94 1
77 230 1
77 264 1
77 298 1
77 434 1
77 468 1
77 502 1
78 27 1
78 61 1
78 95 1
78 231 1
78 265 1
78 299 1
78 435 1
78 469 1
78 503 1
79 28 1
79 62 1
79 96 1
79 232 1
79 266 1
79 300 1
79 436 1
79 470 1
79 504 1
80 29 1
80 63 1
80 97 1
80 233 1
80 267 1
80 301 1
80 437 1
80 471 1
80 505 1
81 30 1
81 64 1
81 98 1
81 234 1
81 268 1
81 302 1
81 438 1
81 472 1
81 506 1
82 31 1
82 65 1
82 99 1
82 235 1
82 269 1
82 303 1
82 439 1
82 473 1
82 507 1
83 32 1
83 66 1
83 100 1
83 236 1
83 270 1
83 304 1
83 440 1
83 474 1
83 508 1
84 33 1
84 67 1
84 101 1
84 237 1
84 271 1
84 305 1
84 441 1
84 475 1
84 509 1
85 34 1
85 68 1
85 102 1
85 238 1
85 272 1
85 306 1
85 442 1
85 476 1
85 510 1
86 35 1
86 69 1
86 86 1
86 239 1
86 273 1
86 290 1
86 443 1
86 477 1
86 494 1
87 36 1
87 70 1
87 87 1
87 240 1
87 274 1
87 291 1
87 444 1
87 478 1
87 495 1
88 37 1
88 71 1
88 88 1
88 241 1
88 275 1
88 292 1
88 445 1
88 479 1
88 496 1
89 38 1
89 72 1
89 89 1
89 242 1
89 276 1
89 293 1
89 446 1
89 480 1
89 497 1
90 39 1
90 73 1
90 90 1
90 243 1
90 277 1
90 294 1
90 447 1
90 481 1
90 498 1
91 40 1
91 74 1
91 91 1
91 244 1
91 278 1
91 295 1
91 448 1
91 482 1
91 499 1
92 41 1
92 75 1
92 92 1
92 245 1
92 279 1
92 296 1
92 449 1
92 483 1
92 500 1
93 42 1
93 76 1
93 93 1
93 246 1
93 280 1
93 297 1
93 450 1
93 484 1
93 501 1
94 43 1
94 77 1
94 94 1
94 247 1
94 281 1
94 298 1
94 451 1
94 485 1
94 502 1
95 44 1
95 78 1
95 95 1
95 248 1
95 282 1
95 299 1
95 452 1
95 486 1
95 503 1
96 45 1
96 79 1
96 96 1
96 249 1
96 283 1
96 300 1
96 453 1
96 487 1
96 504 1
97 46 1
97 80 1
97 97 1
97 250 1
97 284 1
97 301 1
97 454 1
97 488 1
97 505 1
98 47 1
98 81 1
98 98 1
98 251 1
98 285 1
98 302 1
98 455 1
98 489 1
98 506 1
99 48 1
99 82 1
99 99 1
99 252 1
99 286 1
99 303 1
99 456 1
99 490 1
99 507 1
100 49 1
100 83 1
100 100 1
100 253 1
100 287 1
100 304 1
100 457 1
100 491 1
100 508 1
101 50 1
101 84 1
101 101 1
101 254 1
101 288 1
101 305 1
101 458 1
101 492 1
101 509 1
102 51 1
102 85 1
102 102 1
102 255 1
102 289 1
102 306 1
102 459 1
102 493 1
102 510 1
103 103 1
103 154 1
103 171 1
103 205 1
103 256 1
103 273 1
103 511 1
103 562 1
103 579 1
104 104 1
104 155 1
104 172 1
104 206 1
104 257 1
104 274 1
104 512 1
104 563 1
104 580 1
105 105 1
105 156 1
105 173 1
105 207 1
105 258 1
105 275 1
105 513 1
105 564 1
105 581 1
106 106 1
106 157 1
106 174 1
106 208 1
106 259 1
106 276 1
106 514 1
106 565 1
106 582 1
107 107 1
107 158 1
107 175 1
107 209 1
107 260 1
107 277 1
107 515 1
107 566 1
107 583 1
108 108 1
108 159 1
108 176 1
108 210 1
108 261 1
108 278 1
108 516 1
108 567 1
108 584 1
109 109 1
109 160 1
109 177 1
109 211 1
109 262 1
109 279 1
109 517 1
109 568 1
109 585 1
110 110 1
110 161 1
110 178 1
110 212 1
110 263 1
110 280 1
110 518 1
110 569 1
110 586 1
111 111 1
111 162 1
111 179 1
111 213 1
111 264 1
111 281 1
111 519 1
111 570 1
111 587 1
112 112 1
112 163 1
112 180 1
112 214 1
112 265 1
112 282 1
112 520 1
112 571 1
112 588 1
113 113 1
113 164 1
113 181 1
113 215 1
113 266 1
113 283 1
113 521 1
113 572 1
113 589 1
114 114 1
114 165 1
114 182 1
114 216 1
114 267 1
114 284 1
114 522 1
114 573 1
114 590 1
115 115 1
115 166 1
115 183 1
115 217 1
115 268 1
115 285 1
115 523 1
115 574 1
115 591 1
116 116 1
116 167 1
116 184 1
116 218 1
116 269 1
116 286 1
116 524 1
116 575 1
116 592 1
117 117 1
117 168 1
117 185 1
117 219 1
117 270 1
117 287 1
117 525 1
117 576 1
117 593 1
118 118 1
118 169 1
118 186 1
118 220 1
118 271 1
118 288 1
118 526 1
118 577 1
118 594 1
119 119 1
119 170 1
119 187 1
119 221 1
119 272 1
119 289 1
119 527 1
119 578 1
119 595 1
120 120 1
120 154 1
120 188 1
120 222 1
120 256 1
120 290 1
120 528 1
120 562 1
120 596 1
121 121 1
121 155 1
121 189 1
121 223 1
121 257 1
121 291 1
121 529 1
121 563 1
121 597 1
122 122 1
122 156 1
122 190 1
122 224 1
122 258 1
122 292 1
122 530 1
122 564 1
122 598 1
123 123 1
123 157 1
123 191 1
123 225 1
123 259 1
123 293 1
123 531 1
123 565 1
123 599 1
124 124 1
124 158 1
124 192 1
124 226 1
124 260 1
124 294 1
124 532 1
124 566 1
124 600 1
125 125 1
125 159 1
125 193 1
125 227 1
125 261 1
125 295 1
125 533 1
125 567 1
125 601 1
126 126 1
126 160 1
126 194 1
126 228 1
126 262 1
126 296 1
126 534 1
126 568 1
126 602 1
127 127 1
127 161 1
127 195 1
127 229 1
127 263 1
127 297 1
127 535 1
127 569 1
127 603 1
128 128 1
128 162 1
128 196 1
128 230 1
128 264 1
128 298 1
128 536 1
128 570 1
128 604 1
129 129 1
129 163 1
129 197 1
129 231 1
129 265 1
129 299 1
129 537 1
129 571 1
129 605 1
130 130 1
130 164 1
130 198 1
130 232 1
130 266 1
130 300 1
130 538 1
130 572 1
130 606 1
131 131 1
131 165 1
131 199 1
131 233 1
131 267 1
131 301 1
131 539 1
131 573 1
131 607 1
132 132 1
132 166 1
132 200 1
132 234 1
132 268 1
132 302 1
132 540 1
132 574 1
132 608 1
133 133 1
133 167 1
133 201 1
133 235 1
133 269 1
133 303 1
133 541 1
133 575 1
133 609 1
134 134 1
134 168 1
134 202 1
134 236 1
134 270 1
134 304 1
134 542 1
134 576 1
134 610 1
135 135 1
135 169 1
135 203 1
135 237 1
135 271 1
135 305 1
135 543 1
135 577 1
135 611 1
136 136 1
136 170 1
136 204 1
136 238 1
136 272 1
136 306 1
136 544 1
136 578 1
136 612 1
137 137 1
137 171 1
137 188 1
137 239 1
137 273 1
137 290 1
137 545 1
137 579 1
137 596 1
138 138 1
138 172 1
138 189 1
138 240 1
138 274 1
138 291 1
138 546 1
138 580 1
138 597 1
139 139 1
139 173 1
139 190 1
139 241 1
139 275 1
139 292 1
139 547 1
139 581 1
139 598 1
140 140 1
140 174 1
140 191 1
140 242 1
140 276 1
140 293 1
140 548 1
140 582 1
140 599 1
141 141 1
141 175 1
141 192 1
141 243 1
141 277 1
141 294 1
141 549 1
141 583 1
141 600 1
142 142 1
142 176 1
142 193 1
142 244 1
142 278 1
142 295 1
142 550 1
142 584 1
142 601 1
143 143 1
143 177 1
143 194 1
143 245 1
143 279 1
143 296 1
143 551 1
143 585 1
143 602 1
144 144 1
144 178 1
144 195 1
144 246 1
144 280 1
144 297 1
144 552 1
144 586 1
144 603 1
145 145 1
145 179 1
145 196 1
145 247 1
145 281 1
145 298 1
145 553 1
145 587 1
145 604 1
146 146 1
146 180 1
146 197 1
146 248 1
146 282 1
146 299 1
146 554 1
146 588 1
146 605 1
147 147 1
147 181 1
147 198 1
147 249 1
147 283 1
147 300 1
147 555 1
147 589 1
147 606 1
148 148 1
148 182 1
148 199 1
148 250 1
148 284 1
148 301 1
148 556 1
148 590 1
148 607 1
149 149 1
149 183 1
149 200 1
149 251 1
149 285 1
149 302 1
149 557 1
149 591 1
149 608 1
150 150 1
150 184 1
150 201 1
150 252 1
150 286 1
150 303 1
150 558 1
150 592 1
150 609 1
151 151 1
151 185 1
151 202 1
151 253 1
151 287 1
151 304 1
151 559 1
151 593 1
151 610 1
152 152 1
152 186 1
152 203 1
152 254 1
152 288 1
152 305 1
152 560 1
152 594 1
152 611 1
153 153 1
153 187 1
153 204 1
153 255 1
153 289 1
153 306 1
153 561 1
153 595 1
153 612 1
154 1 1
154 55 1
154 72 1
154 104 1
154 158 1
154 175 1
154 313 1
154 367 1
154 384 1
155 2 1
155 56 1
155 73 1
155 105 1
155 159 1
155 176 1
155 314 1
155 368 1
155 385 1
156 3 1
156 57 1
156 74 1
156 106 1
156 160 1
156 177 1
156 315 1
156 369 1
156 386 1
157 4 1
157 58 1
157 75 1
157 107 1
157 161 1
157 178 1
157 316 1
157 370 1
157 387 1
158 5 1
158 59 1
158 76 1
158 108 1
158 162 1
158 179 1
158 317 1
158 371 1
158 388 1
159 6 1
159 60 1
159 77 1
159 109 1
159 163 1
159 180 1
159 318 1
159 372 1
159 389 1
160 7 1
160 61 1
160 78 1
160 110 1
160 164 1
160 181 1
160 319 1
160 373 1
160 390 1
161 8 1
161 62 1
161 79 1
161 111 1
161 165 1
161 182 1
161 320 1
161 374 1
161 391 1
162 9 1
162 63 1
162 80 1
162 112 1
162 166 1
162 183 1
162 321 1
162 358 1
162 375 1
163 10 1
163 64 1
163 81 1
163 113 1
163 167 1
163 184 1
163 322 1
163 359 1
163 376 1
164 11 1
164 65 1
164 82 1
164 114 1
164 168 1
164 185 1
164 323 1
164 360 1
164 377 1
165 12 1
165 66 1
165 83 1
165 115 1
165 169 1
165 186 1
165 307 1
165 361 1
165 378 1
166 13 1
166 67 1
166 84 1
166 116 1
166 170 1
166 187 1
166 308 1
166 362 1
166 379 1
167 14 1
167 68 1
167 85 1
167 117 1
167 154 1
167 171 1
167 309 1
167 363 1
167 380 1
168 15 1
168 52 1
168 69 1
168 118 1
168 155 1
168 172 1
168 310 1
168 364 1
168 381 1
169 16 1
169 53 1
169 70 1
169 119 1
169 156 1
169 173 1
169 311 1
169 365 1
169 382 1
170 17 1
170 54 1
170 71 1
170 103 1
170 157 1
170 174 1
170 312 1
170 366 1
170 383 1
171 32 1
171 55 1
171 87 1
171 135 1
171 158 1
171 190 1
171 327 1
171 367 1
171 399 1
172 33 1
172 56 1
172 88 1
172 136 1
172 159 1
172 191 1
172 328 1
172 368 1
172 400 1
173 34 1
173 57 1
173 89 1
173 120 1
173 160 1
173 192 1
173 329 1
173 369 1
173 401 1
174 18 1
174 58 1
174 90 1
174 121 1
174 161 1
174 193 1
174 330 1
174 370 1
174 402 1
175 19 1
175 59 1
175 91 1
175 122 1
175 162 1
175 194 1
175 331 1
175 371 1
175 403 1
176 20 1
176 60 1
176 92 1
176 123 1
176 163 1
176 195 1
176 332 1
176 372 1
176 404 1
177 21 1
177 61 1
177 93 1
177 124 1
177 164 1
177 196 1
177 333 1
177 373 1
177 405 1
178 22 1
178 62 1
178 94 1
178 125 1
178 165 1
178 197 1
178 334 1
178 374 1
178 406 1
179 23 1
179 63 1
179 95 1
179 126 1
179 166 1
179 198 1
179 335 1
179 358 1
179 407 1
180 24 1
180 64 1
180 96 1
180 127 1
180 167 1
180 199 1
180 336 1
180 359 1
180 408 1
181 25 1
181 65 1
181 97 1
181 128 1
181 168 1
181 200 1
181 337 1
181 360 1
181 392 1
182 26 1
182 66 1
182 98 1
182 129 1
182 169 1
182 201 1
182 338 1
182 361 1
182 393 1
183 27 1
183 67 1
183 99 1
183 130 1
183 170 1
183 202 1
183 339 1
183 362 1
183 394 1
184 28 1
184 68 1
184 100 1
184 131 1
184 154 1
184 203 1
184 340 1
184 363 1
184 395 1
185 29 1
185 52 1
185 101 1
185 132 1
185 155 1
185 204 1
185 324 1
185 364 1
185 396 1
186 30 1
186 53 1
186 102 1
186 133 1
186 156 1
186 188 1
186 325 1
186 365 1
186 397 1
187 31 1
187 54 1
187 86 1
187 134 1
187 157 1
187 189 1
187 326 1
187 366 1
187 398 1
188 42 1
188 72 1
188 87 1
188 145 1
188 175 1
188 190 1
188 354 1
188 384 1
188 399 1
189 43 1
189 73 1
189 88 1
189 146 1
189 176 1
189 191 1
189 355 1
189 385 1
189 400 1
190 44 1
190 74 1
190 89 1
190 147 1
190 177 1
190 192 1
190 356 1
190 386 1
190 401 1
191 45 1
191 75 1
191 90 1
191 148 1
191 178 1
191 193 1
191 357 1
191 387 1
191 402 1
192 46 1
192 76 1
192 91 1
192 149 1
192 179 1
192 194 1
192 341 1
192 388 1
192 403 1
193 47 1
193 77 1
193 92 1
193 150 1
193 180 1
193 195 1
193 342 1
193 389 1
193 404 1
194 48 1
194 78 1
194 93 1
194 151 1
194 181 1
194 196 1
194 343 1
194 390 1
194 405 1
195 49 1
195 79 1
195 94 1
195 152 1
195 182 1
195 197 1
195 344 1
195 391 1
195 406 1
196 50 1
196 80 1
196 95 1
196 153 1
196 183 1
196 198 1
196 345 1
196 375 1
196 407 1
197 51 1
197 81 1
197 96 1
197 137 1
197 184 1
197 199 1
197 346 1
197 376 1
197 408 1
198 35 1
198 82 1
198 97 1
198 138 1
198 185 1
198 200 1
198 347 1
198 377 1
198 392 1
199 36 1
199 83 1
199 98 1
199 139 1
199 186 1
199 201 1
199 348 1
199 378 1
199 393 1
200 37 1
200 84 1
200 99 1
200 140 1
200 187 1
200 202 1
200 349 1
200 379 1
200 394 1
201 38 1
201 85 1
201 100 1
201 141 1
201 171 1
201 203 1
201 350 1
201 380 1
201 395 1
202 39 1
202 69 1
202 101 1
202 142 1
202 172 1
202 204 1
202 351 1
202 381 1
202 396 1
203 40 1
203 70 1
203 102 1
203 143 1
203 173 1
203 188 1
203 352 1
203 382 1
203 397 1
204 41 1
204 71 1
204 86 1
204 144 1
204 174 1
204 189 1
204 353 1
204 383 1
204 398 1
205 1 1
205 55 1
205 72 1
205 209 1
205 263 1
205 280 1
205 418 1
205 472 1
205 489 1
206 2 1
206 56 1
206 73 1
206 210 1
206 264 1
206 281 1
206 419 1
206 473 1
206 490 1
207 3 1
207 57 1
207 74 1
207 211 1
207 265 1
207 282 1
207 420 1
207 474 1
207 491 1
208 4 1
208 58 1
208 75 1
208 212 1
208 266 1
208 283 1
208 421 1
208 475 1
208 492 1
209 5 1
209 59 1
209 76 1
209 213 1
209 267 1
209 284 1
209 422 1
209 476 1
209 493 1
210 6 1
210 60 1
210 77 1
210 214 1
210 268 1
210 285 1
210 423 1
210 460 1
210 477 1
211 7 1
211 61 1
211 78 1
211 215 1
211 269 1
211 286 1
211 424 1
211 461 1
211 478 1
212 8 1
212 62 1
212 79 1
212 216 1
212 270 1
212 287 1
212 425 1
212 462 1
212 479 1
213 9 1
213 63 1
213 80 1
213 217 1
213 271 1
213 288 1
213 409 1
213 463 1
213 480 1
214 10 1
214 64 1
214 81 1
214 218 1
214 272 1
214 289 1
214 410 1
214 464 1
214 481 1
215 11 1
215 65 1
215 82 1
215 219 1
215 256 1
215 273 1
215 411 1
215 465 1
215 482 1
216 12 1
216 66 1
216 83 1
216 220 1
216 257 1
216 274 1
216 412 1
216 466 1
216 483 1
217 13 1
217 67 1
217 84 1
217 221 1
217 258 1
217 275 1
217 413 1
217 467 1
217 484 1
218 14 1
218 68 1
218 85 1
218 205 1
218 259 1
218 276 1
218 414 1
218 468 1
218 485 1
219 15 1
219 52 1
219 69 1
219 206 1
219 260 1
219 277 1
219 415 1
219 469 1
219 486 1
220 16 1
220 53 1
220 70 1
220 207 1
220 261 1
220 278 1
220 416 1
220 470 1
220 487 1
221 17 1
221 54 1
221 71 1
221 208 1
221 262 1
221 279 1
221 417 1
221 471 1
221 488 1
222 32 1
222 55 1
222 87 1
222 223 1
222 263 1
222 295 1
222 432 1
222 472 1
222 504 1
223 33 1
223 56 1
223 88 1
223 224 1
223 264 1
223 296 1
223 433 1
223 473 1
223 505 1
224 34 1
224 57 1
224 89 1
224 225 1
224 265 1
224 297 1
224 434 1
224 474 1
224 506 1
225 18 1
225 58 1
225 90 1
225 226 1
225 266 1
225 298 1
225 435 1
225 475 1
225 507 1
226 19 1
226 59 1
226 91 1
226 227 1
226 267 1
226 299 1
226 436 1
226 476 1
226 508 1
227 20 1
227 60 1
227 92 1
227 228 1
227 268 1
227 300 1
227 437 1
227 460 1
227 509 1
228 21 1
228 61 1
228 93 1
228 229 1
228 269 1
228 301 1
228 438 1
228 461 1
228 510 1
229 22 1
229 62 1
229 94 1
229 230 1
229 270 1
229 302 1
229 439 1
229 462 1
229 494 1
230 23 1
230 63 1
230 95 1
230 231 1
230 271 1
230 303 1
230 440 1
230 463 1
230 495 1
231 24 1
231 64 1
231 96 1
231 232 1
231 272 1
231 304 1
231 441 1
231 464 1
231 496 1
232 25 1
232 65 1
232 97 1
232 233 1
232 256 1
232 305 1
232 442 1
232 465 1
232 497 1
233 26 1
233 66 1
233 98 1
233 234 1
233 257 1
233 306 1
233 426 1
233 466 1
233 498 1
234 27 1
234 67 1
234 99 1
234 235 1
234 258 1
234 290 1
234 427 1
234 467 1
234 499 1
235 28 1
235 68 1
235 100 1
235 236 1
235 259 1
235 291 1
235 428 1
235 468 1
235 500 1
236 29 1
236 52 1
236 101 1
236 237 1
236 260 1
236 292 1
236 429 1
236 469 1
236 501 1
237 30 1
237 53 1
237 102 1
237 238 1
237 261 1
237 293 1
237 430 1
237 470 1
237 502 1
238 31 1
238 54 1
238 86 1
238 222 1
238 262 1
238 294 1
238 431 1
238 471 1
238 503 1
239 42 1
239 72 1
239 87 1
239 250 1
239 280 1
239 295 1
239 459 1
239 489 1
239 504 1
240 43 1
240 73 1
240 88 1
240 251 1
240 281 1
240 296 1
240 443 1
240 490 1
240 505 1
241 44 1
241 74 1
241 89 1
241 252 1
241 282 1
241 297 1
241 444 1
241 491 1
241 506 1
242 45 1
242 75 1
242 90 1
242 253 1
242 283 1
242 298 1
242 445 1
242 492 1
242 507 1
243 46 1
243 76 1
243 91 1
243 254 1
243 284 1
243 299 1
243 446 1
243 493 1
243 508 1
244 47 1
244 77 1
244 92 1
244 255 1
244 285 1
244 300 1
244 447 1
244 477 1
244 509 1
245 48 1
245 78 1
245 93 1
245 239 1
245 286 1
245 301 1
245 448 1
245 478 1
245 510 1
246 49 1
246 79 1
246 94 1
246 240 1
246 287 1
246 302 1
246 449 1
246 479 1
246 494 1
247 50 1
247 80 1
247 95 1
247 241 1
247 288 1
247 303 1
247 450 1
247 480 1
247 495 1
248 51 1
248 81 1
248 96 1
248 242 1
248 289 1
248 304 1
248 451 1
248 481 1
248 496 1
249 35 1
249 82 1
249 97 1
249 243 1
249 273 1
249 305 1
249 452 1
249 482 1
249 497 1
250 36 1
250 83 1
250 98 1
250 244 1
250 274 1
250 306 1
250 453 1
250 483 1
250 498 1
251 37 1
251 84 1
251 99 1
251 245 1
251 275 1
251 290 1
251 454 1
251 484 1
251 499 1
252 38 1
252 85 1
252 100 1
252 246 1
252 276 1
252 291 1
252 455 1
252 485 1
252 500 1
253 39 1
253 69 1
253 101 1
253 247 1
253 277 1
253 292 1
253 456 1
253 486 1
253 501 1
254 40 1
254 70 1
254 102 1
254 248 1
254 278 1
254 293 1
254 457 1
254 487 1
254 502 1
255 41 1
255 71 1
255 86 1
255 249 1
255 279 1
255 294 1
255 458 1
255 488 1
255 503 1
256 104 1
256 158 1
256 175 1
256 209 1
256 263 1
256 280 1
256 521 1
256 575 1
256 592 1
257 105 1
257 159 1
257 176 1
257 210 1
257 264 1
257 281 1
257 522 1
257 576 1
257 593 1
258 106 1
258 160 1
258 177 1
258 211 1
258 265 1
258 282 1
258 523 1
258 577 1
258 594 1
259 107 1
259 161 1
259 178 1
259 212 1
259 266 1
259 283 1
259 524 1
259 578 1
259 595 1
260 108 1
260 162 1
260 179 1
260 213 1
260 267 1
260 284 1
260 525 1
260 562 1
260 579 1
261 109 1
261 163 1
261 180 1
261 214 1
261 268 1
261 285 1
261 526 1
261 563 1
261 580 1
262 110 1
262 164 1
262 181 1
262 215 1
262 269 1
262 286 1
262 527 1
262 564 1
262 581 1
263 111 1
263 165 1
263 182 1
263 216 1
263 270 1
263 287 1
263 511 1
263 565 1
263 582 1
264 112 1
264 166 1
264 183 1
264 217 1
264 271 1
264 288 1
264 512 1
264 566 1
264 583 1
265 113 1
265 167 1
265 184 1
265 218 1
265 272 1
265 289 1
265 513 1
265 567 1
265 584 1
266 114 1
266 168 1
266 185 1
266 219 1
266 256 1
266 273 1
266 514 1
266 568 1
266 585 1
267 115 1
267 169 1
267 186 1
267 220 1
267 257 1
267 274 1
267 515 1
267 569 1
267 586 1
268 116 1
268 170 1
268 187 1
268 221 1
268 258 1
268 275 1
268 516 1
268 570 1
268 587 1
269 117 1
269 154 1
269 171 1
269 205 1
269 259 1
269 276 1
269 517 1
269 571 1
269 588 1
270 118 1
270 155 1
270 172 1
270 206 1
270 260 1
270 277 1
270 518 1
270 572 1
270 589 1
271 119 1
271 156 1
271 173 1
271 207 1
271 261 1
271 278 1
271 519 1
271 573 1
271 590 1
272 103 1
272 157 1
272 174 1
272 208 1
272 262 1
272 279 1
272 520 1
272 574 1
272 591 1
273 135 1
273 158 1
273 190 1
273 223 1
273 263 1
273 295 1
273 535 1
273 575 1
273 607 1
274 136 1
274 159 1
274 191 1
274 224 1
274 264 1
274 296 1
274 536 1
274 576 1
274 608 1
275 120 1
275 160 1
275 192 1
275 225 1
275 265 1
275 297 1
275 537 1
275 577 1
275 609 1
276 121 1
276 161 1
276 193 1
276 226 1
276 266 1
276 298 1
276 538 1
276 578 1
276 610 1
277 122 1
277 162 1
277 194 1
277 227 1
277 267 1
277 299 1
277 539 1
277 562 1
277 611 1
278 123 1
278 163 1
278 195 1
278 228 1
278 268 1
278 300 1
278 540 1
278 563 1
278 612 1
279 124 1
279 164 1
279 196 1
279 229 1
279 269 1
279 301 1
279 541 1
279 564 1
279 596 1
280 125 1
280 165 1
280 197 1
280 230 1
280 270 1
280 302 1
280 542 1
280 565 1
280 597 1
281 126 1
281 166 1
281 198 1
281 231 1
281 271 1
281 303 1
281 543 1
281 566 1
281 598 1
282 127 1
282 167 1
282 199 1
282 232 1
282 272 1
282 304 1
282 544 1
282 567 1
282 599 1
283 128 1
283 168 1
283 200 1
283 233 1
283 256 1
283 305 1
283 528 1
283 568 1
283 600 1
284 129 1
284 169 1
284 201 1
284 234 1
284 257 1
284 306 1
284 529 1
284 569 1
284 601 1
285 130 1
285 170 1
285 202 1
285 235 1
285 258 1
285 290 1
285 530 1
285 570 1
285 602 1
286 131 1
286 154 1
286 203 1
286 236 1
286 259 1
286 291 1
286 531 1
286 571 1
286 603 1
287 132 1
287 155 1
287 204 1
287 237 1
287 260 1
287 292 1
287 532 1
287 572 1
287 604 1
288 133 1
288 156 1
288 188 1
288 238 1
288 261 1
288 293 1
288 533 1
288 573 1
288 605 1
289 134 1
289 157 1
289 189 1
289 222 1
289 262 1
289 294 1
289 534 1
289 574 1
289 606 1
290 145 1
290 175 1
290 190 1
290 250 1
290 280 1
290 295 1
290 545 1
290 592 1
290 607 1
291 146 1
291 176 1
291 191 1
291 251 1
291 281 1
291 296 1
291 546 1
291 593 1
291 608 1
292 147 1
292 177 1
292 192 1
292 252 1
292 282 1
292 297 1
292 547 1
292 594 1
292 609 1
293 148 1
293 178 1
293 193 1
293 253 1
293 283 1
293 298 1
293 548 1
293 595 1
293 610 1
294 149 1
294 179 1
294 194 1
294 254 1
294 284 1
294 299 1
294 549 1
294 579 1
294 611 1
295 150 1
295 180 1
295 195 1
295 255 1
295 285 1
295 300 1
295 550 1
295 580 1
295 612 1
296 151 1
296 181 1
296 196 1
296 239 1
296 286 1
296 301 1
296 551 1
296 581 1
296 596 1
297 152 1
297 182 1
297 197 1
297 240 1
297 287 1
297 302 1
297 552 1
297 582 1
297 597 1
298 153 1
298 183 1
298 198 1
298 241 1
298 288 1
298 303 1
298 553 1
298 583 1
298 598 1
299 137 1
299 184 1
299 199 1
299 242 1
299 289 1
299 304 1
299 554 1
299 584 1
299 599 1
300 138 1
300 185 1
300 200 1
300 243 1
300 273 1
300 305 1
300 555 1
300 585 1
300 600 1
301 139 1
301 186 1
301 201 1
301 244 1
301 274 1
301 306 1
301 556 1
301 586 1
301 601 1
302 140 1
302 187 1
302 202 1
302 245 1
302 275 1
302 290 1
302 557 1
302 587 1
302 602 1
303 141 1
303 171 1
303 203 1
303 246 1
303 276 1
303 291 1
303 558 1
303 588 1
303 603 1
304 142 1
304 172 1
304 204 1
304 247 1
304 277 1
304 292 1
304 559 1
304 589 1
304 604 1
305 143 1
305 173 1
305 188 1
305 248 1
305 278 1
305 293 1
305 560 1
305 590 1
305 605 1
306 144 1
306 174 1
306 189 1
306 249 1
306 279 1
306 294 1
306 561 1
306 591 1
306 606 1
