%%MatrixMarket matrix coordinate integer general
144 288 1296
1 1 1
1 25 1
1 33 1
1 49 1
1 73 1
1 81 1
1 145 1
1 169 1
1 177 1
2 2 1
2 26 1
2 34 1
2 50 1
2 74 1
2 82 1
2 146 1
2 170 1
2 178 1
3 3 1
3 27 1
3 35 1
3 51 1
3 75 1
3 83 1
3 147 1
3 171 1
3 179 1
4 4 1
4 28 1
4 36 1
4 52 1
4 76 1
4 84 1
4 148 1
4 172 1
4 180 1
5 5 1
5 29 1
5 37 1
5 53 1
5 77 1
5 85 1
5 149 1
5 173 1
5 181 1
6 6 1
6 30 1
6 38 1
6 54 1
6 78 1
6 86 1
6 150 1
6 174 1
6 182 1
7 7 1
7 31 1
7 39 1
7 55 1
7 79 1
7 87 1
7 151 1
7 175 1
7 183 1
8 8 1
8 32 1
8 40 1
8 56 1
8 80 1
8 88 1
8 152 1
8 176 1
8 184 1
9 9 1
9 25 1
9 41 1
9 57 1
9 73 1
9 89 1
9 153 1
9 169 1
9 185 1
10 10 1
10 26 1
10 42 1
10 58 1
10 74 1
10 90 1
10 154 1
10 170 1
10 186 1
11 11 1
11 27 1
11 43 1
11 59 1
11 75 1
11 91 1
11 155 1
11 171 1
11 187 1
12 12 1
12 28 1
12 44 1
12 60 1
12 76 1
12 92 1
12 156 1
12 172 1
12 188 1
13 13 1
13 29 1
13 45 1
13 61 1
13 77 1
13 93 1
13 157 1
13 173 1
13 189 1
14 14 1
14 30 1
14 46 1
14 62 1
14 78 1
14 94 1
14 158 1
14 174 1
14 190 1
15 15 1
15 31 1
15 47 1
15 63 1
15 79 1
15 95 1
15 159 1
15 175 1
15 191 1
16 16 1
16 32 1
16 48 1
16 64 1
16 80 1
16 96 1
16 160 1
16 176 1
16 192 1
17 17 1
17 33 1
17 41 1
17 65 1
17 81 1
17 89 1
17 161 1
17 177 1
17 185 1
18 18 1
18 34 1
18 42 1
18 66 1
18 82 1
18 90 1
18 162 1
18 178 1
18 186 1
19 19 1
19 35 1
19 43 1
19 67 1
19 83 1
19 91 1
19 163 1
19 179 1
19 187 1
20 20 1
20 36 1
20 44 1
20 68 1
20 84 1
20 92 1
20 164 1
20 180 1
20 188 1
21 21 1
21 37 1
21 45 1
21 69 1
21 85 1
21 93 1
21 165 1
21 181 1
21 189 1
22 22 1
22 38 1
22 46 1
22 70 1
22 86 1
22 94 1
22 166 1
22 182 1
22 190 1
23 23 1
23 39 1
23 47 1
23 71 1
23 87 1
23 95 1
23 167 1
23 183 1
23 191 1
24 24 1
24 40 1
24 48 1
24 72 1
24 88 1
24 96 1
24 168 1
24 184 1
24 192 1
25 1 1
25 25 1
25 33 1
25 97 1
25 121 1
25 129 1
25 193 1
25 217 1
25 225 1
26 2 1
26 26 1
26 34 1
26 98 1
26 122 1
26 130 1
26 194 1
26 218 1
26 226 1
27 3 1
27 27 1
27 35 1
27 99 1
27 123 1
27 131 1
27 195 1
27 219 1
27 227 1
28 4 1
28 28 1
28 36 1
28 100 1
28 124 1
28 132 1
28 196 1
28 220 1
28 228 1
29 5 1
29 29 1
29 37 1
29 101 1
29 125 1
29 133 1
29 197 1
29 221 1
29 229 1
30 6 1
30 30 1
30 38 1
30 102 1
30 126 1
30 134 1
30 198 1
30 222 1
30 230 1
31 7 1
31 31 1
31 39 1
31 103 1
31 127 1
31 135 1
31 199 1
31 223 1
31 231 1
32 8 1
32 32 1
32 40 1
32 104 1
32 128 1
32 136 1
32 200 1
32 224 1
32 232 1
33 9 1
33 25 1
33 41 1
33 105 1
33 121 1
33 137 1
33 201 1
33 217 1
33 233 1
34 10 1
34 26 1
34 42 1
34 106 1
34 122 1
34 138 1
34 202 1
34 218 1
34 234 1
35 11 1
35 27 1
35 43 1
35 107 1
35 123 1
35 139 1
35 203 1
35 219 1
35 235 1
36 12 1
36 28 1
36 44 1
36 108 1
36 124 1
36 140 1
36 204 1
36 220 1
36 236 1
37 13 1
37 29 1
37 45 1
37 109 1
37 125 1
37 141 1
37 205 1
37 221 1
37 237 1
38 14 1
38 30 1
38 46 1
38 110 1
38 126 1
38 142 1
38 206 1
38 222 1
38 238 1
39 15 1
39 31 1
39 47 1
39 111 1
39 127 1
39 143 1
39 207 1
39 223 1
39 239 1
40 16 1
40 32 1
40 48 1
40 112 1
40 128 1
40 144 1
40 208 1
40 224 1
40 240 1
41 17 1
41 33 1
41 41 1
41 113 1
41 129 1
41 137 1
41 209 1
41 225 1
41 233 1
42 18 1
42 34 1
42 42 1
42 114 1
42 130 1
42 138 1
42 210 1
42 226 1
42 234 1
43 19 1
43 35 1
43 43 1
43 115 1
43 131 1
43 139 1
43 211 1
43 227 1
43 235 1
44 20 1
44 36 1
44 44 1
44 116 1
44 132 1
44 140 1
44 212 1
44 228 1
44 236 1
45 21 1
45 37 1
45 45 1
45 117 1
45 133 1
45 141 1
45 213 1
45 229 1
45 237 1
46 22 1
46 38 1
46 46 1
46 118 1
46 134 1
46 142 1
46 214 1
46 230 1
46 238 1
47 23 1
47 39 1
47 47 1
47 119 1
47 135 1
47 143 1
47 215 1
47 231 1
47 239 1
48 24 1
48 40 1
48 48 1
48 120 1
48 136 1
48 144 1
48 216 1
48 232 1
48 240 1
49 49 1
49 73 1
49 81 1
49 97 1
49 121 1
49 129 1
49 241 1
49 265 1
49 273 1
50 50 1
50 74 1
50 82 1
50 98 1
50 122 1
50 130 1
50 242 1
50 266 1
50 274 1
51 51 1
51 75 1
51 83 1
51 99 1
51 123 1
51 131 1
51 243 1
51 267 1
51 275 1
52 52 1
52 76 1
52 84 1
52 100 1
52 124 1
52 132 1
52 244 1
52 268 1
52 276 1
53 53 1
53 77 1
53 85 1
53 101 1
53 125 1
53 133 1
53 245 1
53 269 1
53 277 1
54 54 1
54 78 1
54 86 1
54 102 1
54 126 1
54 134 1
54 246 1
54 270 1
54 278 1
55 55 1
55 79 1
55 87 1
55 103 1
55 127 1
55 135 1
55 247 1
55 271 1
55 279 1
56 56 1
56 80 1
56 88 1
56 104 1
56 128 1
56 136 1
56 248 1
56 272 1
56 280 1
57 57 1
57 73 1
57 89 1
57 105 1
57 121 1
57 137 1
57 249 1
57 265 1
57 281 1
58 58 1
58 74 1
58 90 1
58 106 1
58 122 1
58 138 1
58 250 1
58 266 1
58 282 1
59 59 1
59 75 1
59 91 1
59 107 1
59 123 1
59 139 1
59 251 1
59 267 1
59 283 1
60 60 1
60 76 1
60 92 1
60 108 1
60 124 1
60 140 1
60 252 1
60 268 1
60 284 1
61 61 1
61 77 1
61 93 1
61 109 1
61 125 1
61 141 1
61 253 1
61 269 1
61 285 1
62 62 1
62 78 1
62 94 1
62 110 1
62 126 1
62 142 1
62 254 1
62 270 1
62 286 1
63 63 1
63 79 1
63 95 1
63 111 1
63 127 1
63 143 1
63 255 1
63 271 1
63 287 1
64 64 1
64 80 1
64 96 1
64 112 1
64 128 1
64 144 1
64 256 1
64 272 1
64 288 1
65 65 1
65 81 1
65 89 1
65 113 1
65 129 1
65 137 1
65 257 1
65 273 1
65 281 1
66 66 1
66 82 1
66 90 1
66 114 1
66 130 1
66 138 1
66 258 1
66 274 1
66 282 1
67 67 1
67 83 1
67 91 1
67 115 1
67 131 1
67 139 1
67 259 1
67 275 1
67 283 1
68 68 1
68 84 1
68 92 1
68 116 1
68 132 1
68 140 1
68 260 1
68 276 1
68 284 1
69 69 1
69 85 1
69 93 1
69 117 1
69 133 1
69 141 1
69 261 1
69 277 1
69 285 1
70 70 1
70 86 1
70 94 1
70 118 1
70 134 1
70 142 1
70 262 1
70 278 1
70 286 1
71 71 1
71 87 1
71 95 1
71 119 1
71 135 1
71 143 1
71 263 1
71 279 1
71 287 1
72 72 1
72 88 1
72 96 1
72 120 1
72 136 1
72 144 1
72 264 1
72 280 1
72 288 1
73 1 1
73 32 1
73 38 1
73 50 1
73 79 1
73 84 1
73 149 1
73 169 1
73 179 1
74 2 1
74 31 1
74 36 1
74 49 1
74 80 1
74 86 1
74 151 1
74 174 1
74 184 1
75 3 1
75 26 1
75 37 1
75 53 1
75 73 1
75 83 1
75 146 1
75 175 1
75 180 1
76 4 1
76 29 1
76 34 1
76 54 1
76 75 1
76 81 1
76 152 1
76 172 1
76 183 1
77 5 1
77 25 1
77 35 1
77 51 1
77 74 1
77 85 1
77 148 1
77 173 1
77 178 1
78 6 1
78 27 1
78 33 1
78 52 1
78 77 1
78 82 1
78 147 1
78 170 1
78 181 1
79 7 1
79 30 1
79 40 1
79 56 1
79 76 1
79 87 1
79 150 1
79 171 1
79 177 1
80 8 1
80 28 1
80 39 1
80 55 1
80 78 1
80 88 1
80 145 1
80 176 1
80 182 1
81 10 1
81 32 1
81 47 1
81 57 1
81 79 1
81 96 1
81 159 1
81 169 1
81 190 1
82 9 1
82 31 1
82 48 1
82 58 1
82 80 1
82 95 1
82 157 1
82 174 1
82 185 1
83 16 1
83 26 1
83 44 1
83 63 1
83 73 1
83 94 1
83 153 1
83 175 1
83 192 1
84 14 1
84 29 1
84 43 1
84 60 1
84 75 1
84 93 1
84 155 1
84 172 1
84 186 1
85 15 1
85 25 1
85 46 1
85 64 1
85 74 1
85 92 1
85 158 1
85 173 1
85 187 1
86 12 1
86 27 1
86 45 1
86 62 1
86 77 1
86 91 1
86 160 1
86 170 1
86 188 1
87 13 1
87 30 1
87 41 1
87 59 1
87 76 1
87 90 1
87 156 1
87 171 1
87 189 1
88 11 1
88 28 1
88 42 1
88 61 1
88 78 1
88 89 1
88 154 1
88 176 1
88 191 1
89 24 1
89 38 1
89 47 1
89 71 1
89 84 1
89 96 1
89 161 1
89 179 1
89 190 1
90 23 1
90 36 1
90 48 1
90 72 1
90 86 1
90 95 1
90 166 1
90 184 1
90 185 1
91 18 1
91 37 1
91 44 1
91 65 1
91 83 1
91 94 1
91 167 1
91 180 1
91 192 1
92 21 1
92 34 1
92 43 1
92 67 1
92 81 1
92 93 1
92 164 1
92 183 1
92 186 1
93 17 1
93 35 1
93 46 1
93 66 1
93 85 1
93 92 1
93 165 1
93 178 1
93 187 1
94 19 1
94 33 1
94 45 1
94 69 1
94 82 1
94 91 1
94 162 1
94 181 1
94 188 1
95 22 1
95 40 1
95 41 1
95 68 1
95 87 1
95 90 1
95 163 1
95 177 1
95 189 1
96 20 1
96 39 1
96 42 1
96 70 1
96 88 1
96 89 1
96 168 1
96 182 1
96 191 1
97 1 1
97 32 1
97 38 1
97 99 1
97 122 1
97 133 1
97 199 1
97 222 1
97 232 1
98 2 1
98 31 1
98 36 1
98 104 1
98 124 1
98 135 1
98 197 1
98 217 1
98 227 1
99 3 1
99 26 1
99 37 1
99 97 1
99 128 1
99 134 1
99 196 1
99 221 1
99 226 1
100 4 1
100 29 1
100 34 1
100 103 1
100 126 1
100 136 1
100 195 1
100 218 1
100 229 1
101 5 1
101 25 1
101 35 1
101 102 1
101 123 1
101 129 1
101 194 1
101 223 1
101 228 1
102 6 1
102 27 1
102 33 1
102 101 1
102 121 1
102 131 1
102 200 1
102 220 1
102 231 1
103 7 1
103 30 1
103 40 1
103 100 1
103 125 1
103 130 1
103 193 1
103 224 1
103 230 1
104 8 1
104 28 1
104 39 1
104 98 1
104 127 1
104 132 1
104 198 1
104 219 1
104 225 1
105 10 1
105 32 1
105 47 1
105 112 1
105 122 1
105 140 1
105 205 1
105 222 1
105 233 1
106 9 1
106 31 1
106 48 1
106 107 1
106 124 1
106 138 1
106 207 1
106 217 1
106 238 1
107 16 1
107 26 1
107 44 1
107 106 1
107 128 1
107 143 1
107 206 1
107 221 1
107 235 1
108 14 1
108 29 1
108 43 1
108 109 1
108 126 1
108 137 1
108 208 1
108 218 1
108 236 1
109 15 1
109 25 1
109 46 1
109 108 1
109 123 1
109 141 1
109 201 1
109 223 1
109 240 1
110 12 1
110 27 1
110 45 1
110 111 1
110 121 1
110 142 1
110 203 1
110 220 1
110 234 1
111 13 1
111 30 1
111 41 1
111 110 1
111 125 1
111 139 1
111 202 1
111 224 1
111 239 1
112 11 1
112 28 1
112 42 1
112 105 1
112 127 1
112 144 1
112 204 1
112 219 1
112 237 1
113 24 1
113 38 1
113 47 1
113 114 1
113 133 1
113 140 1
113 214 1
113 232 1
113 233 1
114 23 1
114 36 1
114 48 1
114 116 1
114 135 1
114 138 1
114 209 1
114 227 1
114 238 1
115 18 1
115 37 1
115 44 1
115 120 1
115 134 1
115 143 1
115 213 1
115 226 1
115 235 1
116 21 1
116 34 1
116 43 1
116 118 1
116 136 1
116 137 1
116 210 1
116 229 1
116 236 1
117 17 1
117 35 1
117 46 1
117 115 1
117 129 1
117 141 1
117 215 1
117 228 1
117 240 1
118 19 1
118 33 1
118 45 1
118 113 1
118 131 1
118 142 1
118 212 1
118 231 1
118 234 1
119 22 1
119 40 1
119 41 1
119 117 1
119 130 1
119 139 1
119 216 1
119 230 1
119 239 1
120 20 1
120 39 1
120 42 1
120 119 1
120 132 1
120 144 1
120 211 1
120 225 1
120 237 1
121 50 1
121 79 1
121 84 1
121 199 1
121 222 1
121 232 1
121 248 1
121 268 1
121 279 1
122 49 1
122 80 1
122 86 1
122 197 1
122 217 1
122 227 1
122 243 1
122 266 1
122 277 1
123 53 1
123 73 1
123 83 1
123 196 1
123 221 1
123 226 1
123 246 1
123 267 1
123 273 1
124 54 1
124 75 1
124 81 1
124 195 1
124 218 1
124 229 1
124 245 1
124 265 1
124 275 1
125 51 1
125 74 1
125 85 1
125 194 1
125 223 1
125 228 1
125 241 1
125 272 1
125 278 1
126 52 1
126 77 1
126 82 1
126 200 1
126 220 1
126 231 1
126 247 1
126 270 1
126 280 1
127 56 1
127 76 1
127 87 1
127 193 1
127 224 1
127 230 1
127 242 1
127 271 1
127 276 1
128 55 1
128 78 1
128 88 1
128 198 1
128 219 1
128 225 1
128 244 1
128 269 1
128 274 1
129 57 1
129 79 1
129 96 1
129 205 1
129 222 1
129 233 1
129 251 1
129 268 1
129 282 1
130 58 1
130 80 1
130 95 1
130 207 1
130 217 1
130 238 1
130 256 1
130 266 1
130 284 1
131 63 1
131 73 1
131 94 1
131 206 1
131 221 1
131 235 1
131 252 1
131 267 1
131 285 1
132 60 1
132 75 1
132 93 1
132 208 1
132 218 1
132 236 1
132 255 1
132 265 1
132 286 1
133 64 1
133 74 1
133 92 1
133 201 1
133 223 1
133 240 1
133 250 1
133 272 1
133 287 1
134 62 1
134 77 1
134 91 1
134 203 1
134 220 1
134 234 1
134 253 1
134 270 1
134 281 1
135 59 1
135 76 1
135 90 1
135 202 1
135 224 1
135 239 1
135 249 1
135 271 1
135 288 1
136 61 1
136 78 1
136 89 1
136 204 1
136 219 1
136 237 1
136 254 1
136 269 1
136 283 1
137 71 1
137 84 1
137 96 1
137 214 1
137 232 1
137 233 1
137 260 1
137 279 1
137 282 1
138 72 1
138 86 1
138 95 1
138 209 1
138 227 1
138 238 1
138 258 1
138 277 1
138 284 1
139 65 1
139 83 1
139 94 1
139 213 1
139 226 1
139 235 1
139 259 1
139 273 1
139 285 1
140 67 1
140 81 1
140 93 1
140 210 1
140 229 1
140 236 1
140 257 1
140 275 1
140 286 1
141 66 1
141 85 1
141 92 1
141 215 1
141 228 1
141 240 1
141 264 1
141 278 1
141 287 1
142 69 1
142 82 1
142 91 1
142 212 1
142 231 1
142 234 1
142 262 1
142 280 1
142 281 1
143 68 1
143 87 1
143 90 1
143 216 1
143 230 1
143 239 1
143 263 1
143 276 1
143 288 1
144 70 1
144 88 1
144 89 1
144 211 1
144 225 1
144 237 1
144 261 1
144 274 1
144 283 1
