%%MatrixMarket matrix coordinate integer general
256 512 4096
1 1 1
1 33 1
1 41 1
1 58 1
1 257 1
1 289 1
1 297 1
1 314 1
1 321 1
1 353 1
1 361 1
1 378 1
1 385 1
1 417 1
1 425 1
1 442 1
2 2 1
2 34 1
2 42 1
2 59 1
2 258 1
2 290 1
2 298 1
2 315 1
2 322 1
2 354 1
2 362 1
2 379 1
2 386 1
2 418 1
2 426 1
2 443 1
3 3 1
3 35 1
3 43 1
3 61 1
3 259 1
3 291 1
3 299 1
3 317 1
3 323 1
3 355 1
3 363 1
3 381 1
3 387 1
3 419 1
3 427 1
3 445 1
4 4 1
4 36 1
4 44 1
4 62 1
4 260 1
4 292 1
4 300 1
4 318 1
4 324 1
4 356 1
4 364 1
4 382 1
4 388 1
4 420 1
4 428 1
4 446 1
5 5 1
5 37 1
5 45 1
5 60 1
5 261 1
5 293 1
5 301 1
5 316 1
5 325 1
5 357 1
5 365 1
5 380 1
5 389 1
5 421 1
5 429 1
5 444 1
6 6 1
6 38 1
6 46 1
6 63 1
6 262 1
6 294 1
6 302 1
6 319 1
6 326 1
6 358 1
6 366 1
6 383 1
6 390 1
6 422 1
6 430 1
6 447 1
7 7 1
7 39 1
7 47 1
7 64 1
7 263 1
7 295 1
7 303 1
7 320 1
7 327 1
7 359 1
7 367 1
7 384 1
7 391 1
7 423 1
7 431 1
7 448 1
8 8 1
8 40 1
8 48 1
8 57 1
8 264 1
8 296 1
8 304 1
8 313 1
8 328 1
8 360 1
8 368 1
8 377 1
8 392 1
8 424 1
8 432 1
8 441 1
9 9 1
9 33 1
9 55 1
9 58 1
9 265 1
9 289 1
9 311 1
9 314 1
9 329 1
9 353 1
9 375 1
9 378 1
9 393 1
9 417 1
9 439 1
9 442 1
10 10 1
10 34 1
10 56 1
10 59 1
10 266 1
10 290 1
10 312 1
10 315 1
10 330 1
10 354 1
10 376 1
10 379 1
10 394 1
10 418 1
10 440 1
10 443 1
11 11 1
11 35 1
11 49 1
11 61 1
11 267 1
11 291 1
11 305 1
11 317 1
11 331 1
11 355 1
11 369 1
11 381 1
11 395 1
11 419 1
11 433 1
11 445 1
12 12 1
12 36 1
12 51 1
12 62 1
12 268 1
12 292 1
12 307 1
12 318 1
12 332 1
12 356 1
12 371 1
12 382 1
12 396 1
12 420 1
12 435 1
12 446 1
13 13 1
13 37 1
13 50 1
13 60 1
13 269 1
13 293 1
13 306 1
13 316 1
13 333 1
13 357 1
13 370 1
13 380 1
13 397 1
13 421 1
13 434 1
13 444 1
14 14 1
14 38 1
14 53 1
14 63 1
14 270 1
14 294 1
14 309 1
14 319 1
14 334 1
14 358 1
14 373 1
14 383 1
14 398 1
14 422 1
14 437 1
14 447 1
15 15 1
15 39 1
15 52 1
15 64 1
15 271 1
15 295 1
15 308 1
15 320 1
15 335 1
15 359 1
15 372 1
15 384 1
15 399 1
15 423 1
15 436 1
15 448 1
16 16 1
16 40 1
16 54 1
16 57 1
16 272 1
16 296 1
16 310 1
16 313 1
16 336 1
16 360 1
16 374 1
16 377 1
16 400 1
16 424 1
16 438 1
16 441 1
17 17 1
17 41 1
17 55 1
17 58 1
17 273 1
17 297 1
17 311 1
17 314 1
17 337 1
17 361 1
17 375 1
17 378 1
17 401 1
17 425 1
17 439 1
17 442 1
18 18 1
18 42 1
18 56 1
18 59 1
18 274 1
18 298 1
18 312 1
18 315 1
18 338 1
18 362 1
18 376 1
18 379 1
18 402 1
18 426 1
18 440 1
18 443 1
19 19 1
19 43 1
19 49 1
19 61 1
19 275 1
19 299 1
19 305 1
19 317 1
19 339 1
19 363 1
19 369 1
19 381 1
19 403 1
19 427 1
19 433 1
19 445 1
20 20 1
20 44 1
20 51 1
20 62 1
20 276 1
20 300 1
20 307 1
20 318 1
20 340 1
20 364 1
20 371 1
20 382 1
20 404 1
20 428 1
20 435 1
20 446 1
21 21 1
21 45 1
21 50 1
21 60 1
21 277 1
21 301 1
21 306 1
21 316 1
21 341 1
21 365 1
21 370 1
21 380 1
21 405 1
21 429 1
21 434 1
21 444 1
22 22 1
22 46 1
22 53 1
22 63 1
22 278 1
22 302 1
22 309 1
22 319 1
22 342 1
22 366 1
22 373 1
22 383 1
22 406 1
22 430 1
22 437 1
22 447 1
23 23 1
23 47 1
23 52 1
23 64 1
23 279 1
23 303 1
23 308 1
23 320 1
23 343 1
23 367 1
23 372 1
23 384 1
23 407 1
23 431 1
23 436 1
23 448 1
24 24 1
24 48 1
24 54 1
24 57 1
24 280 1
24 304 1
24 310 1
24 313 1
24 344 1
24 368 1
24 374 1
24 377 1
24 408 1
24 432 1
24 438 1
24 441 1
25 25 1
25 33 1
25 41 1
25 55 1
25 281 1
25 289 1
25 297 1
25 311 1
25 345 1
25 353 1
25 361 1
25 375 1
25 409 1
25 417 1
25 425 1
25 439 1
26 26 1
26 34 1
26 42 1
26 56 1
26 282 1
26 290 1
26 298 1
26 312 1
26 346 1
26 354 1
26 362 1
26 376 1
26 410 1
26 418 1
26 426 1
26 440 1
27 27 1
27 35 1
27 43 1
27 49 1
27 283 1
27 291 1
27 299 1
27 305 1
27 347 1
27 355 1
27 363 1
27 369 1
27 411 1
27 419 1
27 427 1
27 433 1
28 28 1
28 36 1
28 44 1
28 51 1
28 284 1
28 292 1
28 300 1
28 307 1
28 348 1
28 356 1
28 364 1
28 371 1
28 412 1
28 420 1
28 428 1
28 435 1
29 29 1
29 37 1
29 45 1
29 50 1
29 285 1
29 293 1
29 301 1
29 306 1
29 349 1
29 357 1
29 365 1
29 370 1
29 413 1
29 421 1
29 429 1
29 434 1
30 30 1
30 38 1
30 46 1
30 53 1
30 286 1
30 294 1
30 302 1
30 309 1
30 350 1
30 358 1
30 366 1
30 373 1
30 414 1
30 422 1
30 430 1
30 437 1
31 31 1
31 39 1
31 47 1
31 52 1
31 287 1
31 295 1
31 303 1
31 308 1
31 351 1
31 359 1
31 367 1
31 372 1
31 415 1
31 423 1
31 431 1
31 436 1
32 32 1
32 40 1
32 48 1
32 54 1
32 288 1
32 296 1
32 304 1
32 310 1
32 352 1
32 360 1
32 368 1
32 374 1
32 416 1
32 424 1
32 432 1
32 438 1
33 65 1
33 97 1
33 105 1
33 122 1
33 257 1
33 289 1
33 297 1
33 314 1
33 321 1
33 353 1
33 361 1
33 378 1
33 449 1
33 481 1
33 489 1
33 506 1
34 66 1
34 98 1
34 106 1
34 123 1
34 258 1
34 290 1
34 298 1
34 315 1
34 322 1
34 354 1
34 362 1
34 379 1
34 450 1
34 482 1
34 490 1
34 507 1
35 67 1
35 99 1
35 107 1
35 125 1
35 259 1
35 291 1
35 299 1
35 317 1
35 323 1
35 355 1
35 363 1
35 381 1
35 451 1
35 483 1
35 491 1
35 509 1
36 68 1
36 100 1
36 108 1
36 126 1
36 260 1
36 292 1
36 300 1
36 318 1
36 324 1
36 356 1
36 364 1
36 382 1
36 452 1
36 484 1
36 492 1
36 510 1
37 69 1
37 101 1
37 109 1
37 124 1
37 261 1
37 293 1
37 301 1
37 316 1
37 325 1
37 357 1
37 365 1
37 380 1
37 453 1
37 485 1
37 493 1
37 508 1
38 70 1
38 102 1
38 110 1
38 127 1
38 262 1
38 294 1
38 302 1
38 319 1
38 326 1
38 358 1
38 366 1
38 383 1
38 454 1
38 486 1
38 494 1
38 511 1
39 71 1
39 103 1
39 111 1
39 128 1
39 263 1
39 295 1
39 303 1
39 320 1
39 327 1
39 359 1
39 367 1
39 384 1
39 455 1
39 487 1
39 495 1
39 512 1
40 72 1
40 104 1
40 112 1
40 121 1
40 264 1
40 296 1
40 304 1
40 313 1
40 328 1
40 360 1
40 368 1
40 377 1
40 456 1
40 488 1
40 496 1
40 505 1
41 73 1
41 97 1
41 119 1
41 122 1
41 265 1
41 289 1
41 311 1
41 314 1
41 329 1
41 353 1
41 375 1
41 378 1
41 457 1
41 481 1
41 503 1
41 506 1
42 74 1
42 98 1
42 120 1
42 123 1
42 266 1
42 290 1
42 312 1
42 315 1
42 330 1
42 354 1
42 376 1
42 379 1
42 458 1
42 482 1
42 504 1
42 507 1
43 75 1
43 99 1
43 113 1
43 125 1
43 267 1
43 291 1
43 305 1
43 317 1
43 331 1
43 355 1
43 369 1
43 381 1
43 459 1
43 483 1
43 497 1
43 509 1
44 76 1
44 100 1
44 115 1
44 126 1
44 268 1
44 292 1
44 307 1
44 318 1
44 332 1
44 356 1
44 371 1
44 382 1
44 460 1
44 484 1
44 499 1
44 510 1
45 77 1
45 101 1
45 114 1
45 124 1
45 269 1
45 293 1
45 306 1
45 316 1
45 333 1
45 357 1
45 370 1
45 380 1
45 461 1
45 485 1
45 498 1
45 508 1
46 78 1
46 102 1
46 117 1
46 127 1
46 270 1
46 294 1
46 309 1
46 319 1
46 334 1
46 358 1
46 373 1
46 383 1
46 462 1
46 486 1
46 501 1
46 511 1
47 79 1
47 103 1
47 116 1
47 128 1
47 271 1
47 295 1
47 308 1
47 320 1
47 335 1
47 359 1
47 372 1
47 384 1
47 463 1
47 487 1
47 500 1
47 512 1
48 80 1
48 104 1
48 118 1
48 121 1
48 272 1
48 296 1
48 310 1
48 313 1
48 336 1
48 360 1
48 374 1
48 377 1
48 464 1
48 488 1
48 502 1
48 505 1
49 81 1
49 105 1
49 119 1
49 122 1
49 273 1
49 297 1
49 311 1
49 314 1
49 337 1
49 361 1
49 375 1
49 378 1
49 465 1
49 489 1
49 503 1
49 506 1
50 82 1
50 106 1
50 120 1
50 123 1
50 274 1
50 298 1
50 312 1
50 315 1
50 338 1
50 362 1
50 376 1
50 379 1
50 466 1
50 490 1
50 504 1
50 507 1
51 83 1
51 107 1
51 113 1
51 125 1
51 275 1
51 299 1
51 305 1
51 317 1
51 339 1
51 363 1
51 369 1
51 381 1
51 467 1
51 491 1
51 497 1
51 509 1
52 84 1
52 108 1
52 115 1
52 126 1
52 276 1
52 300 1
52 307 1
52 318 1
52 340 1
52 364 1
52 371 1
52 382 1
52 468 1
52 492 1
52 499 1
52 510 1
53 85 1
53 109 1
53 114 1
53 124 1
53 277 1
53 301 1
53 306 1
53 316 1
53 341 1
53 365 1
53 370 1
53 380 1
53 469 1
53 493 1
53 498 1
53 508 1
54 86 1
54 110 1
54 117 1
54 127 1
54 278 1
54 302 1
54 309 1
54 319 1
54 342 1
54 366 1
54 373 1
54 383 1
54 470 1
54 494 1
54 501 1
54 511 1
55 87 1
55 111 1
55 116 1
55 128 1
55 279 1
55 303 1
55 308 1
55 320 1
55 343 1
55 367 1
55 372 1
55 384 1
55 471 1
55 495 1
55 500 1
55 512 1
56 88 1
56 112 1
56 118 1
56 121 1
56 280 1
56 304 1
56 310 1
56 313 1
56 344 1
56 368 1
56 374 1
56 377 1
56 472 1
56 496 1
56 502 1
56 505 1
57 89 1
57 97 1
57 105 1
57 119 1
57 281 1
57 289 1
57 297 1
57 311 1
57 345 1
57 353 1
57 361 1
57 375 1
57 473 1
57 481 1
57 489 1
57 503 1
58 90 1
58 98 1
58 106 1
58 120 1
58 282 1
58 290 1
58 298 1
58 312 1
58 346 1
58 354 1
58 362 1
58 376 1
58 474 1
58 482 1
58 490 1
58 504 1
59 91 1
59 99 1
59 107 1
59 113 1
59 283 1
59 291 1
59 299 1
59 305 1
59 347 1
59 355 1
59 363 1
59 369 1
59 475 1
59 483 1
59 491 1
59 497 1
60 92 1
60 100 1
60 108 1
60 115 1
60 284 1
60 292 1
60 300 1
60 307 1
60 348 1
60 356 1
60 364 1
60 371 1
60 476 1
60 484 1
60 492 1
60 499 1
61 93 1
61 101 1
61 109 1
61 114 1
61 285 1
61 293 1
61 301 1
61 306 1
61 349 1
61 357 1
61 365 1
61 370 1
61 477 1
61 485 1
61 493 1
61 498 1
62 94 1
62 102 1
62 110 1
62 117 1
62 286 1
62 294 1
62 302 1
62 309 1
62 350 1
62 358 1
62 366 1
62 373 1
62 478 1
62 486 1
62 494 1
62 501 1
63 95 1
63 103 1
63 111 1
63 116 1
63 287 1
63 295 1
63 303 1
63 308 1
63 351 1
63 359 1
63 367 1
63 372 1
63 479 1
63 487 1
63 495 1
63 500 1
64 96 1
64 104 1
64 112 1
64 118 1
64 288 1
64 296 1
64 304 1
64 310 1
64 352 1
64 360 1
64 368 1
64 374 1
64 480 1
64 488 1
64 496 1
64 502 1
65 129 1
65 161 1
65 169 1
65 186 1
65 257 1
65 289 1
65 297 1
65 314 1
65 385 1
65 417 1
65 425 1
65 442 1
65 449 1
65 481 1
65 489 1
65 506 1
66 130 1
66 162 1
66 170 1
66 187 1
66 258 1
66 290 1
66 298 1
66 315 1
66 386 1
66 418 1
66 426 1
66 443 1
66 450 1
66 482 1
66 490 1
66 507 1
67 131 1
67 163 1
67 171 1
67 189 1
67 259 1
67 291 1
67 299 1
67 317 1
67 387 1
67 419 1
67 427 1
67 445 1
67 451 1
67 483 1
67 491 1
67 509 1
68 132 1
68 164 1
68 172 1
68 190 1
68 260 1
68 292 1
68 300 1
68 318 1
68 388 1
68 420 1
68 428 1
68 446 1
68 452 1
68 484 1
68 492 1
68 510 1
69 133 1
69 165 1
69 173 1
69 188 1
69 261 1
69 293 1
69 301 1
69 316 1
69 389 1
69 421 1
69 429 1
69 444 1
69 453 1
69 485 1
69 493 1
69 508 1
70 134 1
70 166 1
70 174 1
70 191 1
70 262 1
70 294 1
70 302 1
70 319 1
70 390 1
70 422 1
70 430 1
70 447 1
70 454 1
70 486 1
70 494 1
70 511 1
71 135 1
71 167 1
71 175 1
71 192 1
71 263 1
71 295 1
71 303 1
71 320 1
71 391 1
71 423 1
71 431 1
71 448 1
71 455 1
71 487 1
71 495 1
71 512 1
72 136 1
72 168 1
72 176 1
72 185 1
72 264 1
72 296 1
72 304 1
72 313 1
72 392 1
72 424 1
72 432 1
72 441 1
72 456 1
72 488 1
72 496 1
72 505 1
73 137 1
73 161 1
73 183 1
73 186 1
73 265 1
73 289 1
73 311 1
73 314 1
73 393 1
73 417 1
73 439 1
73 442 1
73 457 1
73 481 1
73 503 1
73 506 1
74 138 1
74 162 1
74 184 1
74 187 1
74 266 1
74 290 1
74 312 1
74 315 1
74 394 1
74 418 1
74 440 1
74 443 1
74 458 1
74 482 1
74 504 1
74 507 1
75 139 1
75 163 1
75 177 1
75 189 1
75 267 1
75 291 1
75 305 1
75 317 1
75 395 1
75 419 1
75 433 1
75 445 1
75 459 1
75 483 1
75 497 1
75 509 1
76 140 1
76 164 1
76 179 1
76 190 1
76 268 1
76 292 1
76 307 1
76 318 1
76 396 1
76 420 1
76 435 1
76 446 1
76 460 1
76 484 1
76 499 1
76 510 1
77 141 1
77 165 1
77 178 1
77 188 1
77 269 1
77 293 1
77 306 1
77 316 1
77 397 1
77 421 1
77 434 1
77 444 1
77 461 1
77 485 1
77 498 1
77 508 1
78 142 1
78 166 1
78 181 1
78 191 1
78 270 1
78 294 1
78 309 1
78 319 1
78 398 1
78 422 1
78 437 1
78 447 1
78 462 1
78 486 1
78 501 1
78 511 1
79 143 1
79 167 1
79 180 1
79 192 1
79 271 1
79 295 1
79 308 1
79 320 1
79 399 1
79 423 1
79 436 1
79 448 1
79 463 1
79 487 1
79 500 1
79 512 1
80 144 1
80 168 1
80 182 1
80 185 1
80 272 1
80 296 1
80 310 1
80 313 1
80 400 1
80 424 1
80 438 1
80 441 1
80 464 1
80 488 1
80 502 1
80 505 1
81 145 1
81 169 1
81 183 1
81 186 1
81 273 1
81 297 1
81 311 1
81 314 1
81 401 1
81 425 1
81 439 1
81 442 1
81 465 1
81 489 1
81 503 1
81 506 1
82 146 1
82 170 1
82 184 1
82 187 1
82 274 1
82 298 1
82 312 1
82 315 1
82 402 1
82 426 1
82 440 1
82 443 1
82 466 1
82 490 1
82 504 1
82 507 1
83 147 1
83 171 1
83 177 1
83 189 1
83 275 1
83 299 1
83 305 1
83 317 1
83 403 1
83 427 1
83 433 1
83 445 1
83 467 1
83 491 1
83 497 1
83 509 1
84 148 1
84 172 1
84 179 1
84 190 1
84 276 1
84 300 1
84 307 1
84 318 1
84 404 1
84 428 1
84 435 1
84 446 1
84 468 1
84 492 1
84 499 1
84 510 1
85 149 1
85 173 1
85 178 1
85 188 1
85 277 1
85 301 1
85 306 1
85 316 1
85 405 1
85 429 1
85 434 1
85 444 1
85 469 1
85 493 1
85 498 1
85 508 1
86 150 1
86 174 1
86 181 1
86 191 1
86 278 1
86 302 1
86 309 1
86 319 1
86 406 1
86 430 1
86 437 1
86 447 1
86 470 1
86 494 1
86 501 1
86 511 1
87 151 1
87 175 1
87 180 1
87 192 1
87 279 1
87 303 1
87 308 1
87 320 1
87 407 1
87 431 1
87 436 1
87 448 1
87 471 1
87 495 1
87 500 1
87 512 1
88 152 1
88 176 1
88 182 1
88 185 1
88 280 1
88 304 1
88 310 1
88 313 1
88 408 1
88 432 1
88 438 1
88 441 1
88 472 1
88 496 1
88 502 1
88 505 1
89 153 1
89 161 1
89 169 1
89 183 1
89 281 1
89 289 1
89 297 1
89 311 1
89 409 1
89 417 1
89 425 1
89 439 1
89 473 1
89 481 1
89 489 1
89 503 1
90 154 1
90 162 1
90 170 1
90 184 1
90 282 1
90 290 1
90 298 1
90 312 1
90 410 1
90 418 1
90 426 1
90 440 1
90 474 1
90 482 1
90 490 1
90 504 1
91 155 1
91 163 1
91 171 1
91 177 1
91 283 1
91 291 1
91 299 1
91 305 1
91 411 1
91 419 1
91 427 1
91 433 1
91 475 1
91 483 1
91 491 1
91 497 1
92 156 1
92 164 1
92 172 1
92 179 1
92 284 1
92 292 1
92 300 1
92 307 1
92 412 1
92 420 1
92 428 1
92 435 1
92 476 1
92 484 1
92 492 1
92 499 1
93 157 1
93 165 1
93 173 1
93 178 1
93 285 1
93 293 1
93 301 1
93 306 1
93 413 1
93 421 1
93 429 1
93 434 1
93 477 1
93 485 1
93 493 1
93 498 1
94 158 1
94 166 1
94 174 1
94 181 1
94 286 1
94 294 1
94 302 1
94 309 1
94 414 1
94 422 1
94 430 1
94 437 1
94 478 1
94 486 1
94 494 1
94 501 1
95 159 1
95 167 1
95 175 1
95 180 1
95 287 1
95 295 1
95 303 1
95 308 1
95 415 1
95 423 1
95 431 1
95 436 1
95 479 1
95 487 1
95 495 1
95 500 1
96 160 1
96 168 1
96 176 1
96 182 1
96 288 1
96 296 1
96 304 1
96 310 1
96 416 1
96 424 1
96 432 1
96 438 1
96 480 1
96 488 1
96 496 1
96 502 1
97 193 1
97 225 1
97 233 1
97 250 1
97 321 1
97 353 1
97 361 1
97 378 1
97 385 1
97 417 1
97 425 1
97 442 1
97 449 1
97 481 1
97 489 1
97 506 1
98 194 1
98 226 1
98 234 1
98 251 1
98 322 1
98 354 1
98 362 1
98 379 1
98 386 1
98 418 1
98 426 1
98 443 1
98 450 1
98 482 1
98 490 1
98 507 1
99 195 1
99 227 1
99 235 1
99 253 1
99 323 1
99 355 1
99 363 1
99 381 1
99 387 1
99 419 1
99 427 1
99 445 1
99 451 1
99 483 1
99 491 1
99 509 1
100 196 1
100 228 1
100 236 1
100 254 1
100 324 1
100 356 1
100 364 1
100 382 1
100 388 1
100 420 1
100 428 1
100 446 1
100 452 1
100 484 1
100 492 1
100 510 1
101 197 1
101 229 1
101 237 1
101 252 1
101 325 1
101 357 1
101 365 1
101 380 1
101 389 1
101 421 1
101 429 1
101 444 1
101 453 1
101 485 1
101 493 1
101 508 1
102 198 1
102 230 1
102 238 1
102 255 1
102 326 1
102 358 1
102 366 1
102 383 1
102 390 1
102 422 1
102 430 1
102 447 1
102 454 1
102 486 1
102 494 1
102 511 1
103 199 1
103 231 1
103 239 1
103 256 1
103 327 1
103 359 1
103 367 1
103 384 1
103 391 1
103 423 1
103 431 1
103 448 1
103 455 1
103 487 1
103 495 1
103 512 1
104 200 1
104 232 1
104 240 1
104 249 1
104 328 1
104 360 1
104 368 1
104 377 1
104 392 1
104 424 1
104 432 1
104 441 1
104 456 1
104 488 1
104 496 1
104 505 1
105 201 1
105 225 1
105 247 1
105 250 1
105 329 1
105 353 1
105 375 1
105 378 1
105 393 1
105 417 1
105 439 1
105 442 1
105 457 1
105 481 1
105 503 1
105 506 1
106 202 1
106 226 1
106 248 1
106 251 1
106 330 1
106 354 1
106 376 1
106 379 1
106 394 1
106 418 1
106 440 1
106 443 1
106 458 1
106 482 1
106 504 1
106 507 1
107 203 1
107 227 1
107 241 1
107 253 1
107 331 1
107 355 1
107 369 1
107 381 1
107 395 1
107 419 1
107 433 1
107 445 1
107 459 1
107 483 1
107 497 1
107 509 1
108 204 1
108 228 1
108 243 1
108 254 1
108 332 1
108 356 1
108 371 1
108 382 1
108 396 1
108 420 1
108 435 1
108 446 1
108 460 1
108 484 1
108 499 1
108 510 1
109 205 1
109 229 1
109 242 1
109 252 1
109 333 1
109 357 1
109 370 1
109 380 1
109 397 1
109 421 1
109 434 1
109 444 1
109 461 1
109 485 1
109 498 1
109 508 1
110 206 1
110 230 1
110 245 1
110 255 1
110 334 1
110 358 1
110 373 1
110 383 1
110 398 1
110 422 1
110 437 1
110 447 1
110 462 1
110 486 1
110 501 1
110 511 1
111 207 1
111 231 1
111 244 1
111 256 1
111 335 1
111 359 1
111 372 1
111 384 1
111 399 1
111 423 1
111 436 1
111 448 1
111 463 1
111 487 1
111 500 1
111 512 1
112 208 1
112 232 1
112 246 1
112 249 1
112 336 1
112 360 1
112 374 1
112 377 1
112 400 1
112 424 1
112 438 1
112 441 1
112 464 1
112 488 1
112 502 1
112 505 1
113 209 1
113 233 1
113 247 1
113 250 1
113 337 1
113 361 1
113 375 1
113 378 1
113 401 1
113 425 1
113 439 1
113 442 1
113 465 1
113 489 1
113 503 1
113 506 1
114 210 1
114 234 1
114 248 1
114 251 1
114 338 1
114 362 1
114 376 1
114 379 1
114 402 1
114 426 1
114 440 1
114 443 1
114 466 1
114 490 1
114 504 1
114 507 1
115 211 1
115 235 1
115 241 1
115 253 1
115 339 1
115 363 1
115 369 1
115 381 1
115 403 1
115 427 1
115 433 1
115 445 1
115 467 1
115 491 1
115 497 1
115 509 1
116 212 1
116 236 1
116 243 1
116 254 1
116 340 1
116 364 1
116 371 1
116 382 1
116 404 1
116 428 1
116 435 1
116 446 1
116 468 1
116 492 1
116 499 1
116 510 1
117 213 1
117 237 1
117 242 1
117 252 1
117 341 1
117 365 1
117 370 1
117 380 1
117 405 1
117 429 1
117 434 1
117 444 1
117 469 1
117 493 1
117 498 1
117 508 1
118 214 1
118 238 1
118 245 1
118 255 1
118 342 1
118 366 1
118 373 1
118 383 1
118 406 1
118 430 1
118 437 1
118 447 1
118 470 1
118 494 1
118 501 1
118 511 1
119 215 1
119 239 1
119 244 1
119 256 1
119 343 1
119 367 1
119 372 1
119 384 1
119 407 1
119 431 1
119 436 1
119 448 1
119 471 1
119 495 1
119 500 1
119 512 1
120 216 1
120 240 1
120 246 1
120 249 1
120 344 1
120 368 1
120 374 1
120 377 1
120 408 1
120 432 1
120 438 1
120 441 1
120 472 1
120 496 1
120 502 1
120 505 1
121 217 1
121 225 1
121 233 1
121 247 1
121 345 1
121 353 1
121 361 1
121 375 1
121 409 1
121 417 1
121 425 1
121 439 1
121 473 1
121 481 1
121 489 1
121 503 1
122 218 1
122 226 1
122 234 1
122 248 1
122 346 1
122 354 1
122 362 1
122 376 1
122 410 1
122 418 1
122 426 1
122 440 1
122 474 1
122 482 1
122 490 1
122 504 1
123 219 1
123 227 1
123 235 1
123 241 1
123 347 1
123 355 1
123 363 1
123 369 1
123 411 1
123 419 1
123 427 1
123 433 1
123 475 1
123 483 1
123 491 1
123 497 1
124 220 1
124 228 1
124 236 1
124 243 1
124 348 1
124 356 1
124 364 1
124 371 1
124 412 1
124 420 1
124 428 1
124 435 1
124 476 1
124 484 1
124 492 1
124 499 1
125 221 1
125 229 1
125 237 1
125 242 1
125 349 1
125 357 1
125 365 1
125 370 1
125 413 1
125 421 1
125 429 1
125 434 1
125 477 1
125 485 1
125 493 1
125 498 1
126 222 1
126 230 1
126 238 1
126 245 1
126 350 1
126 358 1
126 366 1
126 373 1
126 414 1
126 422 1
126 430 1
126 437 1
126 478 1
126 486 1
126 494 1
126 501 1
127 223 1
127 231 1
127 239 1
127 244 1
127 351 1
127 359 1
127 367 1
127 372 1
127 415 1
127 423 1
127 431 1
127 436 1
127 479 1
127 487 1
127 495 1
127 500 1
128 224 1
128 232 1
128 240 1
128 246 1
128 352 1
128 360 1
128 368 1
128 374 1
128 416 1
128 424 1
128 432 1
128 438 1
128 480 1
128 488 1
128 496 1
128 502 1
129 1 1
129 33 1
129 41 1
129 49 1
129 261 1
129 293 1
129 301 1
129 309 1
129 391 1
129 423 1
129 431 1
129 439 1
129 456 1
129 488 1
129 496 1
129 504 1
130 2 1
130 34 1
130 42 1
130 50 1
130 260 1
130 292 1
130 300 1
130 308 1
130 392 1
130 424 1
130 432 1
130 440 1
130 449 1
130 481 1
130 489 1
130 497 1
131 3 1
131 35 1
131 43 1
131 51 1
131 262 1
131 294 1
131 302 1
131 310 1
131 385 1
131 417 1
131 425 1
131 433 1
131 450 1
131 482 1
131 490 1
131 498 1
132 4 1
132 36 1
132 44 1
132 52 1
132 264 1
132 296 1
132 304 1
132 312 1
132 387 1
132 419 1
132 427 1
132 435 1
132 453 1
132 485 1
132 493 1
132 501 1
133 5 1
133 37 1
133 45 1
133 53 1
133 263 1
133 295 1
133 303 1
133 311 1
133 386 1
133 418 1
133 426 1
133 434 1
133 451 1
133 483 1
133 491 1
133 499 1
134 6 1
134 38 1
134 46 1
134 54 1
134 257 1
134 289 1
134 297 1
134 305 1
134 389 1
134 421 1
134 429 1
134 437 1
134 452 1
134 484 1
134 492 1
134 500 1
135 7 1
135 39 1
135 47 1
135 55 1
135 258 1
135 290 1
135 298 1
135 306 1
135 388 1
135 420 1
135 428 1
135 436 1
135 454 1
135 486 1
135 494 1
135 502 1
136 8 1
136 40 1
136 48 1
136 56 1
136 259 1
136 291 1
136 299 1
136 307 1
136 390 1
136 422 1
136 430 1
136 438 1
136 455 1
136 487 1
136 495 1
136 503 1
137 9 1
137 33 1
137 41 1
137 57 1
137 269 1
137 293 1
137 301 1
137 317 1
137 399 1
137 423 1
137 431 1
137 447 1
137 464 1
137 488 1
137 496 1
137 512 1
138 10 1
138 34 1
138 42 1
138 58 1
138 268 1
138 292 1
138 300 1
138 316 1
138 400 1
138 424 1
138 432 1
138 448 1
138 457 1
138 481 1
138 489 1
138 505 1
139 11 1
139 35 1
139 43 1
139 59 1
139 270 1
139 294 1
139 302 1
139 318 1
139 393 1
139 417 1
139 425 1
139 441 1
139 458 1
139 482 1
139 490 1
139 506 1
140 12 1
140 36 1
140 44 1
140 60 1
140 272 1
140 296 1
140 304 1
140 320 1
140 395 1
140 419 1
140 427 1
140 443 1
140 461 1
140 485 1
140 493 1
140 509 1
141 13 1
141 37 1
141 45 1
141 61 1
141 271 1
141 295 1
141 303 1
141 319 1
141 394 1
141 418 1
141 426 1
141 442 1
141 459 1
141 483 1
141 491 1
141 507 1
142 14 1
142 38 1
142 46 1
142 62 1
142 265 1
142 289 1
142 297 1
142 313 1
142 397 1
142 421 1
142 429 1
142 445 1
142 460 1
142 484 1
142 492 1
142 508 1
143 15 1
143 39 1
143 47 1
143 63 1
143 266 1
143 290 1
143 298 1
143 314 1
143 396 1
143 420 1
143 428 1
143 444 1
143 462 1
143 486 1
143 494 1
143 510 1
144 16 1
144 40 1
144 48 1
144 64 1
144 267 1
144 291 1
144 299 1
144 315 1
144 398 1
144 422 1
144 430 1
144 446 1
144 463 1
144 487 1
144 495 1
144 511 1
145 17 1
145 33 1
145 49 1
145 57 1
145 277 1
145 293 1
145 309 1
145 317 1
145 407 1
145 423 1
145 439 1
145 447 1
145 472 1
145 488 1
145 504 1
145 512 1
146 18 1
146 34 1
146 50 1
146 58 1
146 276 1
146 292 1
146 308 1
146 316 1
146 408 1
146 424 1
146 440 1
146 448 1
146 465 1
146 481 1
146 497 1
146 505 1
147 19 1
147 35 1
147 51 1
147 59 1
147 278 1
147 294 1
147 310 1
147 318 1
147 401 1
147 417 1
147 433 1
147 441 1
147 466 1
147 482 1
147 498 1
147 506 1
148 20 1
148 36 1
148 52 1
148 60 1
148 280 1
148 296 1
148 312 1
148 320 1
148 403 1
148 419 1
148 435 1
148 443 1
148 469 1
148 485 1
148 501 1
148 509 1
149 21 1
149 37 1
149 53 1
149 61 1
149 279 1
149 295 1
149 311 1
149 319 1
149 402 1
149 418 1
149 434 1
149 442 1
149 467 1
149 483 1
149 499 1
149 507 1
150 22 1
150 38 1
150 54 1
150 62 1
150 273 1
150 289 1
150 305 1
150 313 1
150 405 1
150 421 1
150 437 1
150 445 1
150 468 1
150 484 1
150 500 1
150 508 1
151 23 1
151 39 1
151 55 1
151 63 1
151 274 1
151 290 1
151 306 1
151 314 1
151 404 1
151 420 1
151 436 1
151 444 1
151 470 1
151 486 1
151 502 1
151 510 1
152 24 1
152 40 1
152 56 1
152 64 1
152 275 1
152 291 1
152 307 1
152 315 1
152 406 1
152 422 1
152 438 1
152 446 1
152 471 1
152 487 1
152 503 1
152 511 1
153 25 1
153 41 1
153 49 1
153 57 1
153 285 1
153 301 1
153 309 1
153 317 1
153 415 1
153 431 1
153 439 1
153 447 1
153 480 1
153 496 1
153 504 1
153 512 1
154 26 1
154 42 1
154 50 1
154 58 1
154 284 1
154 300 1
154 308 1
154 316 1
154 416 1
154 432 1
154 440 1
154 448 1
154 473 1
154 489 1
154 497 1
154 505 1
155 27 1
155 43 1
155 51 1
155 59 1
155 286 1
155 302 1
155 310 1
155 318 1
155 409 1
155 425 1
155 433 1
155 441 1
155 474 1
155 490 1
155 498 1
155 506 1
156 28 1
156 44 1
156 52 1
156 60 1
156 288 1
156 304 1
156 312 1
156 320 1
156 411 1
156 427 1
156 435 1
156 443 1
156 477 1
156 493 1
156 501 1
156 509 1
157 29 1
157 45 1
157 53 1
157 61 1
157 287 1
157 303 1
157 311 1
157 319 1
157 410 1
157 426 1
157 434 1
157 442 1
157 475 1
157 491 1
157 499 1
157 507 1
158 30 1
158 46 1
158 54 1
158 62 1
158 281 1
158 297 1
158 305 1
158 313 1
158 413 1
158 429 1
158 437 1
158 445 1
158 476 1
158 492 1
158 500 1
158 508 1
159 31 1
159 47 1
159 55 1
159 63 1
159 282 1
159 298 1
159 306 1
159 314 1
159 412 1
159 428 1
159 436 1
159 444 1
159 478 1
159 494 1
159 502 1
159 510 1
160 32 1
160 48 1
160 56 1
160 64 1
160 283 1
160 299 1
160 307 1
160 315 1
160 414 1
160 430 1
160 438 1
160 446 1
160 479 1
160 495 1
160 503 1
160 511 1
161 66 1
161 98 1
161 106 1
161 114 1
161 261 1
161 293 1
161 301 1
161 309 1
161 326 1
161 358 1
161 366 1
161 374 1
161 391 1
161 423 1
161 431 1
161 439 1
162 67 1
162 99 1
162 107 1
162 115 1
162 260 1
162 292 1
162 300 1
162 308 1
162 327 1
162 359 1
162 367 1
162 375 1
162 392 1
162 424 1
162 432 1
162 440 1
163 69 1
163 101 1
163 109 1
163 117 1
163 262 1
163 294 1
163 302 1
163 310 1
163 328 1
163 360 1
163 368 1
163 376 1
163 385 1
163 417 1
163 425 1
163 433 1
164 70 1
164 102 1
164 110 1
164 118 1
164 264 1
164 296 1
164 304 1
164 312 1
164 322 1
164 354 1
164 362 1
164 370 1
164 387 1
164 419 1
164 427 1
164 435 1
165 68 1
165 100 1
165 108 1
165 116 1
165 263 1
165 295 1
165 303 1
165 311 1
165 321 1
165 353 1
165 361 1
165 369 1
165 386 1
165 418 1
165 426 1
165 434 1
166 71 1
166 103 1
166 111 1
166 119 1
166 257 1
166 289 1
166 297 1
166 305 1
166 323 1
166 355 1
166 363 1
166 371 1
166 389 1
166 421 1
166 429 1
166 437 1
167 72 1
167 104 1
167 112 1
167 120 1
167 258 1
167 290 1
167 298 1
167 306 1
167 325 1
167 357 1
167 365 1
167 373 1
167 388 1
167 420 1
167 428 1
167 436 1
168 65 1
168 97 1
168 105 1
168 113 1
168 259 1
168 291 1
168 299 1
168 307 1
168 324 1
168 356 1
168 364 1
168 372 1
168 390 1
168 422 1
168 430 1
168 438 1
169 74 1
169 98 1
169 106 1
169 122 1
169 269 1
169 293 1
169 301 1
169 317 1
169 334 1
169 358 1
169 366 1
169 382 1
169 399 1
169 423 1
169 431 1
169 447 1
170 75 1
170 99 1
170 107 1
170 123 1
170 268 1
170 292 1
170 300 1
170 316 1
170 335 1
170 359 1
170 367 1
170 383 1
170 400 1
170 424 1
170 432 1
170 448 1
171 77 1
171 101 1
171 109 1
171 125 1
171 270 1
171 294 1
171 302 1
171 318 1
171 336 1
171 360 1
171 368 1
171 384 1
171 393 1
171 417 1
171 425 1
171 441 1
172 78 1
172 102 1
172 110 1
172 126 1
172 272 1
172 296 1
172 304 1
172 320 1
172 330 1
172 354 1
172 362 1
172 378 1
172 395 1
172 419 1
172 427 1
172 443 1
173 76 1
173 100 1
173 108 1
173 124 1
173 271 1
173 295 1
173 303 1
173 319 1
173 329 1
173 353 1
173 361 1
173 377 1
173 394 1
173 418 1
173 426 1
173 442 1
174 79 1
174 103 1
174 111 1
174 127 1
174 265 1
174 289 1
174 297 1
174 313 1
174 331 1
174 355 1
174 363 1
174 379 1
174 397 1
174 421 1
174 429 1
174 445 1
175 80 1
175 104 1
175 112 1
175 128 1
175 266 1
175 290 1
175 298 1
175 314 1
175 333 1
175 357 1
175 365 1
175 381 1
175 396 1
175 420 1
175 428 1
175 444 1
176 73 1
176 97 1
176 105 1
176 121 1
176 267 1
176 291 1
176 299 1
176 315 1
176 332 1
176 356 1
176 364 1
176 380 1
176 398 1
176 422 1
176 430 1
176 446 1
177 82 1
177 98 1
177 114 1
177 122 1
177 277 1
177 293 1
177 309 1
177 317 1
177 342 1
177 358 1
177 374 1
177 382 1
177 407 1
177 423 1
177 439 1
177 447 1
178 83 1
178 99 1
178 115 1
178 123 1
178 276 1
178 292 1
178 308 1
178 316 1
178 343 1
178 359 1
178 375 1
178 383 1
178 408 1
178 424 1
178 440 1
178 448 1
179 85 1
179 101 1
179 117 1
179 125 1
179 278 1
179 294 1
179 310 1
179 318 1
179 344 1
179 360 1
179 376 1
179 384 1
179 401 1
179 417 1
179 433 1
179 441 1
180 86 1
180 102 1
180 118 1
180 126 1
180 280 1
180 296 1
180 312 1
180 320 1
180 338 1
180 354 1
180 370 1
180 378 1
180 403 1
180 419 1
180 435 1
180 443 1
181 84 1
181 100 1
181 116 1
181 124 1
181 279 1
181 295 1
181 311 1
181 319 1
181 337 1
181 353 1
181 369 1
181 377 1
181 402 1
181 418 1
181 434 1
181 442 1
182 87 1
182 103 1
182 119 1
182 127 1
182 273 1
182 289 1
182 305 1
182 313 1
182 339 1
182 355 1
182 371 1
182 379 1
182 405 1
182 421 1
182 437 1
182 445 1
183 88 1
183 104 1
183 120 1
183 128 1
183 274 1
183 290 1
183 306 1
183 314 1
183 341 1
183 357 1
183 373 1
183 381 1
183 404 1
183 420 1
183 436 1
183 444 1
184 81 1
184 97 1
184 113 1
184 121 1
184 275 1
184 291 1
184 307 1
184 315 1
184 340 1
184 356 1
184 372 1
184 380 1
184 406 1
184 422 1
184 438 1
184 446 1
185 90 1
185 106 1
185 114 1
185 122 1
185 285 1
185 301 1
185 309 1
185 317 1
185 350 1
185 366 1
185 374 1
185 382 1
185 415 1
185 431 1
185 439 1
185 447 1
186 91 1
186 107 1
186 115 1
186 123 1
186 284 1
186 300 1
186 308 1
186 316 1
186 351 1
186 367 1
186 375 1
186 383 1
186 416 1
186 432 1
186 440 1
186 448 1
187 93 1
187 109 1
187 117 1
187 125 1
187 286 1
187 302 1
187 310 1
187 318 1
187 352 1
187 368 1
187 376 1
187 384 1
187 409 1
187 425 1
187 433 1
187 441 1
188 94 1
188 110 1
188 118 1
188 126 1
188 288 1
188 304 1
188 312 1
188 320 1
188 346 1
188 362 1
188 370 1
188 378 1
188 411 1
188 427 1
188 435 1
188 443 1
189 92 1
189 108 1
189 116 1
189 124 1
189 287 1
189 303 1
189 311 1
189 319 1
189 345 1
189 361 1
189 369 1
189 377 1
189 410 1
189 426 1
189 434 1
189 442 1
190 95 1
190 111 1
190 119 1
190 127 1
190 281 1
190 297 1
190 305 1
190 313 1
190 347 1
190 363 1
190 371 1
190 379 1
190 413 1
190 429 1
190 437 1
190 445 1
191 96 1
191 112 1
191 120 1
191 128 1
191 282 1
191 298 1
191 306 1
191 314 1
191 349 1
191 365 1
191 373 1
191 381 1
191 412 1
191 428 1
191 436 1
191 444 1
192 89 1
192 105 1
192 113 1
192 121 1
192 283 1
192 299 1
192 307 1
192 315 1
192 348 1
192 364 1
192 372 1
192 380 1
192 414 1
192 430 1
192 438 1
192 446 1
193 131 1
193 163 1
193 171 1
193 179 1
193 261 1
193 293 1
193 301 1
193 309 1
193 326 1
193 358 1
193 366 1
193 374 1
193 456 1
193 488 1
193 496 1
193 504 1
194 133 1
194 165 1
194 173 1
194 181 1
194 260 1
194 292 1
194 300 1
194 308 1
194 327 1
194 359 1
194 367 1
194 375 1
194 449 1
194 481 1
194 489 1
194 497 1
195 132 1
195 164 1
195 172 1
195 180 1
195 262 1
195 294 1
195 302 1
195 310 1
195 328 1
195 360 1
195 368 1
195 376 1
195 450 1
195 482 1
195 490 1
195 498 1
196 135 1
196 167 1
196 175 1
196 183 1
196 264 1
196 296 1
196 304 1
196 312 1
196 322 1
196 354 1
196 362 1
196 370 1
196 453 1
196 485 1
196 493 1
196 501 1
197 134 1
197 166 1
197 174 1
197 182 1
197 263 1
197 295 1
197 303 1
197 311 1
197 321 1
197 353 1
197 361 1
197 369 1
197 451 1
197 483 1
197 491 1
197 499 1
198 136 1
198 168 1
198 176 1
198 184 1
198 257 1
198 289 1
198 297 1
198 305 1
198 323 1
198 355 1
198 363 1
198 371 1
198 452 1
198 484 1
198 492 1
198 500 1
199 129 1
199 161 1
199 169 1
199 177 1
199 258 1
199 290 1
199 298 1
199 306 1
199 325 1
199 357 1
199 365 1
199 373 1
199 454 1
199 486 1
199 494 1
199 502 1
200 130 1
200 162 1
200 170 1
200 178 1
200 259 1
200 291 1
200 299 1
200 307 1
200 324 1
200 356 1
200 364 1
200 372 1
200 455 1
200 487 1
200 495 1
200 503 1
201 139 1
201 163 1
201 171 1
201 187 1
201 269 1
201 293 1
201 301 1
201 317 1
201 334 1
201 358 1
201 366 1
201 382 1
201 464 1
201 488 1
201 496 1
201 512 1
202 141 1
202 165 1
202 173 1
202 189 1
202 268 1
202 292 1
202 300 1
202 316 1
202 335 1
202 359 1
202 367 1
202 383 1
202 457 1
202 481 1
202 489 1
202 505 1
203 140 1
203 164 1
203 172 1
203 188 1
203 270 1
203 294 1
203 302 1
203 318 1
203 336 1
203 360 1
203 368 1
203 384 1
203 458 1
203 482 1
203 490 1
203 506 1
204 143 1
204 167 1
204 175 1
204 191 1
204 272 1
204 296 1
204 304 1
204 320 1
204 330 1
204 354 1
204 362 1
204 378 1
204 461 1
204 485 1
204 493 1
204 509 1
205 142 1
205 166 1
205 174 1
205 190 1
205 271 1
205 295 1
205 303 1
205 319 1
205 329 1
205 353 1
205 361 1
205 377 1
205 459 1
205 483 1
205 491 1
205 507 1
206 144 1
206 168 1
206 176 1
206 192 1
206 265 1
206 289 1
206 297 1
206 313 1
206 331 1
206 355 1
206 363 1
206 379 1
206 460 1
206 484 1
206 492 1
206 508 1
207 137 1
207 161 1
207 169 1
207 185 1
207 266 1
207 290 1
207 298 1
207 314 1
207 333 1
207 357 1
207 365 1
207 381 1
207 462 1
207 486 1
207 494 1
207 510 1
208 138 1
208 162 1
208 170 1
208 186 1
208 267 1
208 291 1
208 299 1
208 315 1
208 332 1
208 356 1
208 364 1
208 380 1
208 463 1
208 487 1
208 495 1
208 511 1
209 147 1
209 163 1
209 179 1
209 187 1
209 277 1
209 293 1
209 309 1
209 317 1
209 342 1
209 358 1
209 374 1
209 382 1
209 472 1
209 488 1
209 504 1
209 512 1
210 149 1
210 165 1
210 181 1
210 189 1
210 276 1
210 292 1
210 308 1
210 316 1
210 343 1
210 359 1
210 375 1
210 383 1
210 465 1
210 481 1
210 497 1
210 505 1
211 148 1
211 164 1
211 180 1
211 188 1
211 278 1
211 294 1
211 310 1
211 318 1
211 344 1
211 360 1
211 376 1
211 384 1
211 466 1
211 482 1
211 498 1
211 506 1
212 151 1
212 167 1
212 183 1
212 191 1
212 280 1
212 296 1
212 312 1
212 320 1
212 338 1
212 354 1
212 370 1
212 378 1
212 469 1
212 485 1
212 501 1
212 509 1
213 150 1
213 166 1
213 182 1
213 190 1
213 279 1
213 295 1
213 311 1
213 319 1
213 337 1
213 353 1
213 369 1
213 377 1
213 467 1
213 483 1
213 499 1
213 507 1
214 152 1
214 168 1
214 184 1
214 192 1
214 273 1
214 289 1
214 305 1
214 313 1
214 339 1
214 355 1
214 371 1
214 379 1
214 468 1
214 484 1
214 500 1
214 508 1
215 145 1
215 161 1
215 177 1
215 185 1
215 274 1
215 290 1
215 306 1
215 314 1
215 341 1
215 357 1
215 373 1
215 381 1
215 470 1
215 486 1
215 502 1
215 510 1
216 146 1
216 162 1
216 178 1
216 186 1
216 275 1
216 291 1
216 307 1
216 315 1
216 340 1
216 356 1
216 372 1
216 380 1
216 471 1
216 487 1
216 503 1
216 511 1
217 155 1
217 171 1
217 179 1
217 187 1
217 285 1
217 301 1
217 309 1
217 317 1
217 350 1
217 366 1
217 374 1
217 382 1
217 480 1
217 496 1
217 504 1
217 512 1
218 157 1
218 173 1
218 181 1
218 189 1
218 284 1
218 300 1
218 308 1
218 316 1
218 351 1
218 367 1
218 375 1
218 383 1
218 473 1
218 489 1
218 497 1
218 505 1
219 156 1
219 172 1
219 180 1
219 188 1
219 286 1
219 302 1
219 310 1
219 318 1
219 352 1
219 368 1
219 376 1
219 384 1
219 474 1
219 490 1
219 498 1
219 506 1
220 159 1
220 175 1
220 183 1
220 191 1
220 288 1
220 304 1
220 312 1
220 320 1
220 346 1
220 362 1
220 370 1
220 378 1
220 477 1
220 493 1
220 501 1
220 509 1
221 158 1
221 174 1
221 182 1
221 190 1
221 287 1
221 303 1
221 311 1
221 319 1
221 345 1
221 361 1
221 369 1
221 377 1
221 475 1
221 491 1
221 499 1
221 507 1
222 160 1
222 176 1
222 184 1
222 192 1
222 281 1
222 297 1
222 305 1
222 313 1
222 347 1
222 363 1
222 371 1
222 379 1
222 476 1
222 492 1
222 500 1
222 508 1
223 153 1
223 169 1
223 177 1
223 185 1
223 282 1
223 298 1
223 306 1
223 314 1
223 349 1
223 365 1
223 373 1
223 381 1
223 478 1
223 494 1
223 502 1
223 510 1
224 154 1
224 170 1
224 178 1
224 186 1
224 283 1
224 299 1
224 307 1
224 315 1
224 348 1
224 364 1
224 372 1
224 380 1
224 479 1
224 495 1
224 503 1
224 511 1
225 196 1
225 228 1
225 236 1
225 244 1
225 326 1
225 358 1
225 366 1
225 374 1
225 391 1
225 423 1
225 431 1
225 439 1
225 456 1
225 488 1
225 496 1
225 504 1
226 198 1
226 230 1
226 238 1
226 246 1
226 327 1
226 359 1
226 367 1
226 375 1
226 392 1
226 424 1
226 432 1
226 440 1
226 449 1
226 481 1
226 489 1
226 497 1
227 199 1
227 231 1
227 239 1
227 247 1
227 328 1
227 360 1
227 368 1
227 376 1
227 385 1
227 417 1
227 425 1
227 433 1
227 450 1
227 482 1
227 490 1
227 498 1
228 193 1
228 225 1
228 233 1
228 241 1
228 322 1
228 354 1
228 362 1
228 370 1
228 387 1
228 419 1
228 427 1
228 435 1
228 453 1
228 485 1
228 493 1
228 501 1
229 200 1
229 232 1
229 240 1
229 248 1
229 321 1
229 353 1
229 361 1
229 369 1
229 386 1
229 418 1
229 426 1
229 434 1
229 451 1
229 483 1
229 491 1
229 499 1
230 194 1
230 226 1
230 234 1
230 242 1
230 323 1
230 355 1
230 363 1
230 371 1
230 389 1
230 421 1
230 429 1
230 437 1
230 452 1
230 484 1
230 492 1
230 500 1
231 195 1
231 227 1
231 235 1
231 243 1
231 325 1
231 357 1
231 365 1
231 373 1
231 388 1
231 420 1
231 428 1
231 436 1
231 454 1
231 486 1
231 494 1
231 502 1
232 197 1
232 229 1
232 237 1
232 245 1
232 324 1
232 356 1
232 364 1
232 372 1
232 390 1
232 422 1
232 430 1
232 438 1
232 455 1
232 487 1
232 495 1
232 503 1
233 204 1
233 228 1
233 236 1
233 252 1
233 334 1
233 358 1
233 366 1
233 382 1
233 399 1
233 423 1
233 431 1
233 447 1
233 464 1
233 488 1
233 496 1
233 512 1
234 206 1
234 230 1
234 238 1
234 254 1
234 335 1
234 359 1
234 367 1
234 383 1
234 400 1
234 424 1
234 432 1
234 448 1
234 457 1
234 481 1
234 489 1
234 505 1
235 207 1
235 231 1
235 239 1
235 255 1
235 336 1
235 360 1
235 368 1
235 384 1
235 393 1
235 417 1
235 425 1
235 441 1
235 458 1
235 482 1
235 490 1
235 506 1
236 201 1
236 225 1
236 233 1
236 249 1
236 330 1
236 354 1
236 362 1
236 378 1
236 395 1
236 419 1
236 427 1
236 443 1
236 461 1
236 485 1
236 493 1
236 509 1
237 208 1
237 232 1
237 240 1
237 256 1
237 329 1
237 353 1
237 361 1
237 377 1
237 394 1
237 418 1
237 426 1
237 442 1
237 459 1
237 483 1
237 491 1
237 507 1
238 202 1
238 226 1
238 234 1
238 250 1
238 331 1
238 355 1
238 363 1
238 379 1
238 397 1
238 421 1
238 429 1
238 445 1
238 460 1
238 484 1
238 492 1
238 508 1
239 203 1
239 227 1
239 235 1
239 251 1
239 333 1
239 357 1
239 365 1
239 381 1
239 396 1
239 420 1
239 428 1
239 444 1
239 462 1
239 486 1
239 494 1
239 510 1
240 205 1
240 229 1
240 237 1
240 253 1
240 332 1
240 356 1
240 364 1
240 380 1
240 398 1
240 422 1
240 430 1
240 446 1
240 463 1
240 487 1
240 495 1
240 511 1
241 212 1
241 228 1
241 244 1
241 252 1
241 342 1
241 358 1
241 374 1
241 382 1
241 407 1
241 423 1
241 439 1
241 447 1
241 472 1
241 488 1
241 504 1
241 512 1
242 214 1
242 230 1
242 246 1
242 254 1
242 343 1
242 359 1
242 375 1
242 383 1
242 408 1
242 424 1
242 440 1
242 448 1
242 465 1
242 481 1
242 497 1
242 505 1
243 215 1
243 231 1
243 247 1
243 255 1
243 344 1
243 360 1
243 376 1
243 384 1
243 401 1
243 417 1
243 433 1
243 441 1
243 466 1
243 482 1
243 498 1
243 506 1
244 209 1
244 225 1
244 241 1
244 249 1
244 338 1
244 354 1
244 370 1
244 378 1
244 403 1
244 419 1
244 435 1
244 443 1
244 469 1
244 485 1
244 501 1
244 509 1
245 216 1
245 232 1
245 248 1
245 256 1
245 337 1
245 353 1
245 369 1
245 377 1
245 402 1
245 418 1
245 434 1
245 442 1
245 467 1
245 483 1
245 499 1
245 507 1
246 210 1
246 226 1
246 242 1
246 250 1
246 339 1
246 355 1
246 371 1
246 379 1
246 405 1
246 421 1
246 437 1
246 445 1
246 468 1
246 484 1
246 500 1
246 508 1
247 211 1
247 227 1
247 243 1
247 251 1
247 341 1
247 357 1
247 373 1
247 381 1
247 404 1
247 420 1
247 436 1
247 444 1
247 470 1
247 486 1
247 502 1
247 510 1
248 213 1
248 229 1
248 245 1
248 253 1
248 340 1
248 356 1
248 372 1
248 380 1
248 406 1
248 422 1
248 438 1
248 446 1
248 471 1
248 487 1
248 503 1
248 511 1
249 220 1
249 236 1
249 244 1
249 252 1
249 350 1
249 366 1
249 374 1
249 382 1
249 415 1
249 431 1
249 439 1
249 447 1
249 480 1
249 496 1
249 504 1
249 512 1
250 222 1
250 238 1
250 246 1
250 254 1
250 351 1
250 367 1
250 375 1
250 383 1
250 416 1
250 432 1
250 440 1
250 448 1
250 473 1
250 489 1
250 497 1
250 505 1
251 223 1
251 239 1
251 247 1
251 255 1
251 352 1
251 368 1
251 376 1
251 384 1
251 409 1
251 425 1
251 433 1
251 441 1
251 474 1
251 490 1
251 498 1
251 506 1
252 217 1
252 233 1
252 241 1
252 249 1
252 346 1
252 362 1
252 370 1
252 378 1
252 411 1
252 427 1
252 435 1
252 443 1
252 477 1
252 493 1
252 501 1
252 509 1
253 224 1
253 240 1
253 248 1
253 256 1
253 345 1
253 361 1
253 369 1
253 377 1
253 410 1
253 426 1
253 434 1
253 442 1
253 475 1
253 491 1
253 499 1
253 507 1
254 218 1
254 234 1
254 242 1
254 250 1
254 347 1
254 363 1
254 371 1
254 379 1
254 413 1
254 429 1
254 437 1
254 445 1
254 476 1
254 492 1
254 500 1
254 508 1
255 219 1
255 235 1
255 243 1
255 251 1
255 349 1
255 365 1
255 373 1
255 381 1
255 412 1
255 428 1
255 436 1
255 444 1
255 478 1
255 494 1
255 502 1
255 510 1
256 221 1
256 237 1
256 245 1
256 253 1
256 348 1
256 364 1
256 372 1
256 380 1
256 414 1
256 430 1
256 438 1
256 446 1
256 479 1
256 495 1
256 503 1
256 511 1
