%%MatrixMarket matrix coordinate integer general
288 576 2592
1 1 1
1 43 1
1 86 1
1 289 1
1 331 1
1 374 1
1 385 1
1 427 1
1 470 1
2 2 1
2 46 1
2 84 1
2 290 1
2 334 1
2 372 1
2 386 1
2 430 1
2 468 1
3 3 1
3 47 1
3 87 1
3 291 1
3 335 1
3 375 1
3 387 1
3 431 1
3 471 1
4 4 1
4 33 1
4 92 1
4 292 1
4 321 1
4 380 1
4 388 1
4 417 1
4 476 1
5 5 1
5 36 1
5 93 1
5 293 1
5 324 1
5 381 1
5 389 1
5 420 1
5 477 1
6 6 1
6 48 1
6 89 1
6 294 1
6 336 1
6 377 1
6 390 1
6 432 1
6 473 1
7 7 1
7 34 1
7 85 1
7 295 1
7 322 1
7 373 1
7 391 1
7 418 1
7 469 1
8 8 1
8 39 1
8 91 1
8 296 1
8 327 1
8 379 1
8 392 1
8 423 1
8 475 1
9 9 1
9 35 1
9 88 1
9 297 1
9 323 1
9 376 1
9 393 1
9 419 1
9 472 1
10 10 1
10 41 1
10 94 1
10 298 1
10 329 1
10 382 1
10 394 1
10 425 1
10 478 1
11 11 1
11 37 1
11 96 1
11 299 1
11 325 1
11 384 1
11 395 1
11 421 1
11 480 1
12 12 1
12 38 1
12 90 1
12 300 1
12 326 1
12 378 1
12 396 1
12 422 1
12 474 1
13 13 1
13 44 1
13 95 1
13 301 1
13 332 1
13 383 1
13 397 1
13 428 1
13 479 1
14 14 1
14 40 1
14 81 1
14 302 1
14 328 1
14 369 1
14 398 1
14 424 1
14 465 1
15 15 1
15 42 1
15 82 1
15 303 1
15 330 1
15 370 1
15 399 1
15 426 1
15 466 1
16 16 1
16 45 1
16 83 1
16 304 1
16 333 1
16 371 1
16 400 1
16 429 1
16 467 1
17 1 1
17 59 1
17 76 1
17 289 1
17 347 1
17 364 1
17 385 1
17 443 1
17 460 1
18 2 1
18 62 1
18 69 1
18 290 1
18 350 1
18 357 1
18 386 1
18 446 1
18 453 1
19 3 1
19 63 1
19 72 1
19 291 1
19 351 1
19 360 1
19 387 1
19 447 1
19 456 1
20 4 1
20 49 1
20 77 1
20 292 1
20 337 1
20 365 1
20 388 1
20 433 1
20 461 1
21 5 1
21 52 1
21 80 1
21 293 1
21 340 1
21 368 1
21 389 1
21 436 1
21 464 1
22 6 1
22 64 1
22 74 1
22 294 1
22 352 1
22 362 1
22 390 1
22 448 1
22 458 1
23 7 1
23 50 1
23 75 1
23 295 1
23 338 1
23 363 1
23 391 1
23 434 1
23 459 1
24 8 1
24 55 1
24 65 1
24 296 1
24 343 1
24 353 1
24 392 1
24 439 1
24 449 1
25 9 1
25 51 1
25 78 1
25 297 1
25 339 1
25 366 1
25 393 1
25 435 1
25 462 1
26 10 1
26 57 1
26 66 1
26 298 1
26 345 1
26 354 1
26 394 1
26 441 1
26 450 1
27 11 1
27 53 1
27 70 1
27 299 1
27 341 1
27 358 1
27 395 1
27 437 1
27 454 1
28 12 1
28 54 1
28 79 1
28 300 1
28 342 1
28 367 1
28 396 1
28 438 1
28 463 1
29 13 1
29 60 1
29 67 1
29 301 1
29 348 1
29 355 1
29 397 1
29 444 1
29 451 1
30 14 1
30 56 1
30 68 1
30 302 1
30 344 1
30 356 1
30 398 1
30 440 1
30 452 1
31 15 1
31 58 1
31 71 1
31 303 1
31 346 1
31 359 1
31 399 1
31 442 1
31 455 1
32 16 1
32 61 1
32 73 1
32 304 1
32 349 1
32 361 1
32 400 1
32 445 1
32 457 1
33 31 1
33 43 1
33 76 1
33 319 1
33 331 1
33 364 1
33 415 1
33 427 1
33 460 1
34 32 1
34 46 1
34 69 1
34 320 1
34 334 1
34 357 1
34 416 1
34 430 1
34 453 1
35 17 1
35 47 1
35 72 1
35 305 1
35 335 1
35 360 1
35 401 1
35 431 1
35 456 1
36 19 1
36 33 1
36 77 1
36 307 1
36 321 1
36 365 1
36 403 1
36 417 1
36 461 1
37 25 1
37 36 1
37 80 1
37 313 1
37 324 1
37 368 1
37 409 1
37 420 1
37 464 1
38 18 1
38 48 1
38 74 1
38 306 1
38 336 1
38 362 1
38 402 1
38 432 1
38 458 1
39 22 1
39 34 1
39 75 1
39 310 1
39 322 1
39 363 1
39 406 1
39 418 1
39 459 1
40 28 1
40 39 1
40 65 1
40 316 1
40 327 1
40 353 1
40 412 1
40 423 1
40 449 1
41 20 1
41 35 1
41 78 1
41 308 1
41 323 1
41 366 1
41 404 1
41 419 1
41 462 1
42 21 1
42 41 1
42 66 1
42 309 1
42 329 1
42 354 1
42 405 1
42 425 1
42 450 1
43 26 1
43 37 1
43 70 1
43 314 1
43 325 1
43 358 1
43 410 1
43 421 1
43 454 1
44 23 1
44 38 1
44 79 1
44 311 1
44 326 1
44 367 1
44 407 1
44 422 1
44 463 1
45 24 1
45 44 1
45 67 1
45 312 1
45 332 1
45 355 1
45 408 1
45 428 1
45 451 1
46 29 1
46 40 1
46 68 1
46 317 1
46 328 1
46 356 1
46 413 1
46 424 1
46 452 1
47 27 1
47 42 1
47 71 1
47 315 1
47 330 1
47 359 1
47 411 1
47 426 1
47 455 1
48 30 1
48 45 1
48 73 1
48 318 1
48 333 1
48 361 1
48 414 1
48 429 1
48 457 1
49 97 1
49 139 1
49 182 1
49 289 1
49 331 1
49 374 1
49 481 1
49 523 1
49 566 1
50 98 1
50 142 1
50 180 1
50 290 1
50 334 1
50 372 1
50 482 1
50 526 1
50 564 1
51 99 1
51 143 1
51 183 1
51 291 1
51 335 1
51 375 1
51 483 1
51 527 1
51 567 1
52 100 1
52 129 1
52 188 1
52 292 1
52 321 1
52 380 1
52 484 1
52 513 1
52 572 1
53 101 1
53 132 1
53 189 1
53 293 1
53 324 1
53 381 1
53 485 1
53 516 1
53 573 1
54 102 1
54 144 1
54 185 1
54 294 1
54 336 1
54 377 1
54 486 1
54 528 1
54 569 1
55 103 1
55 130 1
55 181 1
55 295 1
55 322 1
55 373 1
55 487 1
55 514 1
55 565 1
56 104 1
56 135 1
56 187 1
56 296 1
56 327 1
56 379 1
56 488 1
56 519 1
56 571 1
57 105 1
57 131 1
57 184 1
57 297 1
57 323 1
57 376 1
57 489 1
57 515 1
57 568 1
58 106 1
58 137 1
58 190 1
58 298 1
58 329 1
58 382 1
58 490 1
58 521 1
58 574 1
59 107 1
59 133 1
59 192 1
59 299 1
59 325 1
59 384 1
59 491 1
59 517 1
59 576 1
60 108 1
60 134 1
60 186 1
60 300 1
60 326 1
60 378 1
60 492 1
60 518 1
60 570 1
61 109 1
61 140 1
61 191 1
61 301 1
61 332 1
61 383 1
61 493 1
61 524 1
61 575 1
62 110 1
62 136 1
62 177 1
62 302 1
62 328 1
62 369 1
62 494 1
62 520 1
62 561 1
63 111 1
63 138 1
63 178 1
63 303 1
63 330 1
63 370 1
63 495 1
63 522 1
63 562 1
64 112 1
64 141 1
64 179 1
64 304 1
64 333 1
64 371 1
64 496 1
64 525 1
64 563 1
65 97 1
65 155 1
65 172 1
65 289 1
65 347 1
65 364 1
65 481 1
65 539 1
65 556 1
66 98 1
66 158 1
66 165 1
66 290 1
66 350 1
66 357 1
66 482 1
66 542 1
66 549 1
67 99 1
67 159 1
67 168 1
67 291 1
67 351 1
67 360 1
67 483 1
67 543 1
67 552 1
68 100 1
68 145 1
68 173 1
68 292 1
68 337 1
68 365 1
68 484 1
68 529 1
68 557 1
69 101 1
69 148 1
69 176 1
69 293 1
69 340 1
69 368 1
69 485 1
69 532 1
69 560 1
70 102 1
70 160 1
70 170 1
70 294 1
70 352 1
70 362 1
70 486 1
70 544 1
70 554 1
71 103 1
71 146 1
71 171 1
71 295 1
71 338 1
71 363 1
71 487 1
71 530 1
71 555 1
72 104 1
72 151 1
72 161 1
72 296 1
72 343 1
72 353 1
72 488 1
72 535 1
72 545 1
73 105 1
73 147 1
73 174 1
73 297 1
73 339 1
73 366 1
73 489 1
73 531 1
73 558 1
74 106 1
74 153 1
74 162 1
74 298 1
74 345 1
74 354 1
74 490 1
74 537 1
74 546 1
75 107 1
75 149 1
75 166 1
75 299 1
75 341 1
75 358 1
75 491 1
75 533 1
75 550 1
76 108 1
76 150 1
76 175 1
76 300 1
76 342 1
76 367 1
76 492 1
76 534 1
76 559 1
77 109 1
77 156 1
77 163 1
77 301 1
77 348 1
77 355 1
77 493 1
77 540 1
77 547 1
78 110 1
78 152 1
78 164 1
78 302 1
78 344 1
78 356 1
78 494 1
78 536 1
78 548 1
79 111 1
79 154 1
79 167 1
79 303 1
79 346 1
79 359 1
79 495 1
79 538 1
79 551 1
80 112 1
80 157 1
80 169 1
80 304 1
80 349 1
80 361 1
80 496 1
80 541 1
80 553 1
81 127 1
81 139 1
81 172 1
81 319 1
81 331 1
81 364 1
81 511 1
81 523 1
81 556 1
82 128 1
82 142 1
82 165 1
82 320 1
82 334 1
82 357 1
82 512 1
82 526 1
82 549 1
83 113 1
83 143 1
83 168 1
83 305 1
83 335 1
83 360 1
83 497 1
83 527 1
83 552 1
84 115 1
84 129 1
84 173 1
84 307 1
84 321 1
84 365 1
84 499 1
84 513 1
84 557 1
85 121 1
85 132 1
85 176 1
85 313 1
85 324 1
85 368 1
85 505 1
85 516 1
85 560 1
86 114 1
86 144 1
86 170 1
86 306 1
86 336 1
86 362 1
86 498 1
86 528 1
86 554 1
87 118 1
87 130 1
87 171 1
87 310 1
87 322 1
87 363 1
87 502 1
87 514 1
87 555 1
88 124 1
88 135 1
88 161 1
88 316 1
88 327 1
88 353 1
88 508 1
88 519 1
88 545 1
89 116 1
89 131 1
89 174 1
89 308 1
89 323 1
89 366 1
89 500 1
89 515 1
89 558 1
90 117 1
90 137 1
90 162 1
90 309 1
90 329 1
90 354 1
90 501 1
90 521 1
90 546 1
91 122 1
91 133 1
91 166 1
91 314 1
91 325 1
91 358 1
91 506 1
91 517 1
91 550 1
92 119 1
92 134 1
92 175 1
92 311 1
92 326 1
92 367 1
92 503 1
92 518 1
92 559 1
93 120 1
93 140 1
93 163 1
93 312 1
93 332 1
93 355 1
93 504 1
93 524 1
93 547 1
94 125 1
94 136 1
94 164 1
94 317 1
94 328 1
94 356 1
94 509 1
94 520 1
94 548 1
95 123 1
95 138 1
95 167 1
95 315 1
95 330 1
95 359 1
95 507 1
95 522 1
95 551 1
96 126 1
96 141 1
96 169 1
96 318 1
96 333 1
96 361 1
96 510 1
96 525 1
96 553 1
97 193 1
97 235 1
97 278 1
97 385 1
97 427 1
97 470 1
97 481 1
97 523 1
97 566 1
98 194 1
98 238 1
98 276 1
98 386 1
98 430 1
98 468 1
98 482 1
98 526 1
98 564 1
99 195 1
99 239 1
99 279 1
99 387 1
99 431 1
99 471 1
99 483 1
99 527 1
99 567 1
100 196 1
100 225 1
100 284 1
100 388 1
100 417 1
100 476 1
100 484 1
100 513 1
100 572 1
101 197 1
101 228 1
101 285 1
101 389 1
101 420 1
101 477 1
101 485 1
101 516 1
101 573 1
102 198 1
102 240 1
102 281 1
102 390 1
102 432 1
102 473 1
102 486 1
102 528 1
102 569 1
103 199 1
103 226 1
103 277 1
103 391 1
103 418 1
103 469 1
103 487 1
103 514 1
103 565 1
104 200 1
104 231 1
104 283 1
104 392 1
104 423 1
104 475 1
104 488 1
104 519 1
104 571 1
105 201 1
105 227 1
105 280 1
105 393 1
105 419 1
105 472 1
105 489 1
105 515 1
105 568 1
106 202 1
106 233 1
106 286 1
106 394 1
106 425 1
106 478 1
106 490 1
106 521 1
106 574 1
107 203 1
107 229 1
107 288 1
107 395 1
107 421 1
107 480 1
107 491 1
107 517 1
107 576 1
108 204 1
108 230 1
108 282 1
108 396 1
108 422 1
108 474 1
108 492 1
108 518 1
108 570 1
109 205 1
109 236 1
109 287 1
109 397 1
109 428 1
109 479 1
109 493 1
109 524 1
109 575 1
110 206 1
110 232 1
110 273 1
110 398 1
110 424 1
110 465 1
110 494 1
110 520 1
110 561 1
111 207 1
111 234 1
111 274 1
111 399 1
111 426 1
111 466 1
111 495 1
111 522 1
111 562 1
112 208 1
112 237 1
112 275 1
112 400 1
112 429 1
112 467 1
112 496 1
112 525 1
112 563 1
113 193 1
113 251 1
113 268 1
113 385 1
113 443 1
113 460 1
113 481 1
113 539 1
113 556 1
114 194 1
114 254 1
114 261 1
114 386 1
114 446 1
114 453 1
114 482 1
114 542 1
114 549 1
115 195 1
115 255 1
115 264 1
115 387 1
115 447 1
115 456 1
115 483 1
115 543 1
115 552 1
116 196 1
116 241 1
116 269 1
116 388 1
116 433 1
116 461 1
116 484 1
116 529 1
116 557 1
117 197 1
117 244 1
117 272 1
117 389 1
117 436 1
117 464 1
117 485 1
117 532 1
117 560 1
118 198 1
118 256 1
118 266 1
118 390 1
118 448 1
118 458 1
118 486 1
118 544 1
118 554 1
119 199 1
119 242 1
119 267 1
119 391 1
119 434 1
119 459 1
119 487 1
119 530 1
119 555 1
120 200 1
120 247 1
120 257 1
120 392 1
120 439 1
120 449 1
120 488 1
120 535 1
120 545 1
121 201 1
121 243 1
121 270 1
121 393 1
121 435 1
121 462 1
121 489 1
121 531 1
121 558 1
122 202 1
122 249 1
122 258 1
122 394 1
122 441 1
122 450 1
122 490 1
122 537 1
122 546 1
123 203 1
123 245 1
123 262 1
123 395 1
123 437 1
123 454 1
123 491 1
123 533 1
123 550 1
124 204 1
124 246 1
124 271 1
124 396 1
124 438 1
124 463 1
124 492 1
124 534 1
124 559 1
125 205 1
125 252 1
125 259 1
125 397 1
125 444 1
125 451 1
125 493 1
125 540 1
125 547 1
126 206 1
126 248 1
126 260 1
126 398 1
126 440 1
126 452 1
126 494 1
126 536 1
126 548 1
127 207 1
127 250 1
127 263 1
127 399 1
127 442 1
127 455 1
127 495 1
127 538 1
127 551 1
128 208 1
128 253 1
128 265 1
128 400 1
128 445 1
128 457 1
128 496 1
128 541 1
128 553 1
129 223 1
129 235 1
129 268 1
129 415 1
129 427 1
129 460 1
129 511 1
129 523 1
129 556 1
130 224 1
130 238 1
130 261 1
130 416 1
130 430 1
130 453 1
130 512 1
130 526 1
130 549 1
131 209 1
131 239 1
131 264 1
131 401 1
131 431 1
131 456 1
131 497 1
131 527 1
131 552 1
132 211 1
132 225 1
132 269 1
132 403 1
132 417 1
132 461 1
132 499 1
132 513 1
132 557 1
133 217 1
133 228 1
133 272 1
133 409 1
133 420 1
133 464 1
133 505 1
133 516 1
133 560 1
134 210 1
134 240 1
134 266 1
134 402 1
134 432 1
134 458 1
134 498 1
134 528 1
134 554 1
135 214 1
135 226 1
135 267 1
135 406 1
135 418 1
135 459 1
135 502 1
135 514 1
135 555 1
136 220 1
136 231 1
136 257 1
136 412 1
136 423 1
136 449 1
136 508 1
136 519 1
136 545 1
137 212 1
137 227 1
137 270 1
137 404 1
137 419 1
137 462 1
137 500 1
137 515 1
137 558 1
138 213 1
138 233 1
138 258 1
138 405 1
138 425 1
138 450 1
138 501 1
138 521 1
138 546 1
139 218 1
139 229 1
139 262 1
139 410 1
139 421 1
139 454 1
139 506 1
139 517 1
139 550 1
140 215 1
140 230 1
140 271 1
140 407 1
140 422 1
140 463 1
140 503 1
140 518 1
140 559 1
141 216 1
141 236 1
141 259 1
141 408 1
141 428 1
141 451 1
141 504 1
141 524 1
141 547 1
142 221 1
142 232 1
142 260 1
142 413 1
142 424 1
142 452 1
142 509 1
142 520 1
142 548 1
143 219 1
143 234 1
143 263 1
143 411 1
143 426 1
143 455 1
143 507 1
143 522 1
143 551 1
144 222 1
144 237 1
144 265 1
144 414 1
144 429 1
144 457 1
144 510 1
144 525 1
144 553 1
145 1 1
145 17 1
145 49 1
145 297 1
145 313 1
145 345 1
145 491 1
145 507 1
145 539 1
146 2 1
146 18 1
146 50 1
146 300 1
146 316 1
146 348 1
146 494 1
146 510 1
146 542 1
147 3 1
147 19 1
147 51 1
147 293 1
147 309 1
147 341 1
147 495 1
147 511 1
147 543 1
148 4 1
148 20 1
148 52 1
148 298 1
148 314 1
148 346 1
148 481 1
148 497 1
148 529 1
149 5 1
149 21 1
149 53 1
149 303 1
149 319 1
149 351 1
149 484 1
149 500 1
149 532 1
150 6 1
150 22 1
150 54 1
150 296 1
150 312 1
150 344 1
150 496 1
150 512 1
150 544 1
151 7 1
151 23 1
151 55 1
151 301 1
151 317 1
151 349 1
151 482 1
151 498 1
151 530 1
152 8 1
152 24 1
152 56 1
152 304 1
152 320 1
152 352 1
152 487 1
152 503 1
152 535 1
153 9 1
153 25 1
153 57 1
153 299 1
153 315 1
153 347 1
153 483 1
153 499 1
153 531 1
154 10 1
154 26 1
154 58 1
154 289 1
154 305 1
154 337 1
154 489 1
154 505 1
154 537 1
155 11 1
155 27 1
155 59 1
155 291 1
155 307 1
155 339 1
155 485 1
155 501 1
155 533 1
156 12 1
156 28 1
156 60 1
156 302 1
156 318 1
156 350 1
156 486 1
156 502 1
156 534 1
157 13 1
157 29 1
157 61 1
157 290 1
157 306 1
157 338 1
157 492 1
157 508 1
157 540 1
158 14 1
158 30 1
158 62 1
158 294 1
158 310 1
158 342 1
158 488 1
158 504 1
158 536 1
159 15 1
159 31 1
159 63 1
159 292 1
159 308 1
159 340 1
159 490 1
159 506 1
159 538 1
160 16 1
160 32 1
160 64 1
160 295 1
160 311 1
160 343 1
160 493 1
160 509 1
160 541 1
161 1 1
161 33 1
161 65 1
161 297 1
161 329 1
161 361 1
161 491 1
161 523 1
161 555 1
162 2 1
162 34 1
162 66 1
162 300 1
162 332 1
162 364 1
162 494 1
162 526 1
162 558 1
163 3 1
163 35 1
163 67 1
163 293 1
163 325 1
163 357 1
163 495 1
163 527 1
163 559 1
164 4 1
164 36 1
164 68 1
164 298 1
164 330 1
164 362 1
164 481 1
164 513 1
164 545 1
165 5 1
165 37 1
165 69 1
165 303 1
165 335 1
165 367 1
165 484 1
165 516 1
165 548 1
166 6 1
166 38 1
166 70 1
166 296 1
166 328 1
166 360 1
166 496 1
166 528 1
166 560 1
167 7 1
167 39 1
167 71 1
167 301 1
167 333 1
167 365 1
167 482 1
167 514 1
167 546 1
168 8 1
168 40 1
168 72 1
168 304 1
168 336 1
168 368 1
168 487 1
168 519 1
168 551 1
169 9 1
169 41 1
169 73 1
169 299 1
169 331 1
169 363 1
169 483 1
169 515 1
169 547 1
170 10 1
170 42 1
170 74 1
170 289 1
170 321 1
170 353 1
170 489 1
170 521 1
170 553 1
171 11 1
171 43 1
171 75 1
171 291 1
171 323 1
171 355 1
171 485 1
171 517 1
171 549 1
172 12 1
172 44 1
172 76 1
172 302 1
172 334 1
172 366 1
172 486 1
172 518 1
172 550 1
173 13 1
173 45 1
173 77 1
173 290 1
173 322 1
173 354 1
173 492 1
173 524 1
173 556 1
174 14 1
174 46 1
174 78 1
174 294 1
174 326 1
174 358 1
174 488 1
174 520 1
174 552 1
175 15 1
175 47 1
175 79 1
175 292 1
175 324 1
175 356 1
175 490 1
175 522 1
175 554 1
176 16 1
176 48 1
176 80 1
176 295 1
176 327 1
176 359 1
176 493 1
176 525 1
176 557 1
177 17 1
177 33 1
177 81 1
177 313 1
177 329 1
177 377 1
177 507 1
177 523 1
177 571 1
178 18 1
178 34 1
178 82 1
178 316 1
178 332 1
178 380 1
178 510 1
178 526 1
178 574 1
179 19 1
179 35 1
179 83 1
179 309 1
179 325 1
179 373 1
179 511 1
179 527 1
179 575 1
180 20 1
180 36 1
180 84 1
180 314 1
180 330 1
180 378 1
180 497 1
180 513 1
180 561 1
181 21 1
181 37 1
181 85 1
181 319 1
181 335 1
181 383 1
181 500 1
181 516 1
181 564 1
182 22 1
182 38 1
182 86 1
182 312 1
182 328 1
182 376 1
182 512 1
182 528 1
182 576 1
183 23 1
183 39 1
183 87 1
183 317 1
183 333 1
183 381 1
183 498 1
183 514 1
183 562 1
184 24 1
184 40 1
184 88 1
184 320 1
184 336 1
184 384 1
184 503 1
184 519 1
184 567 1
185 25 1
185 41 1
185 89 1
185 315 1
185 331 1
185 379 1
185 499 1
185 515 1
185 563 1
186 26 1
186 42 1
186 90 1
186 305 1
186 321 1
186 369 1
186 505 1
186 521 1
186 569 1
187 27 1
187 43 1
187 91 1
187 307 1
187 323 1
187 371 1
187 501 1
187 517 1
187 565 1
188 28 1
188 44 1
188 92 1
188 318 1
188 334 1
188 382 1
188 502 1
188 518 1
188 566 1
189 29 1
189 45 1
189 93 1
189 306 1
189 322 1
189 370 1
189 508 1
189 524 1
189 572 1
190 30 1
190 46 1
190 94 1
190 310 1
190 326 1
190 374 1
190 504 1
190 520 1
190 568 1
191 31 1
191 47 1
191 95 1
191 308 1
191 324 1
191 372 1
191 506 1
191 522 1
191 570 1
192 32 1
192 48 1
192 96 1
192 311 1
192 327 1
192 375 1
192 509 1
192 525 1
192 573 1
193 103 1
193 119 1
193 151 1
193 200 1
193 216 1
193 248 1
193 297 1
193 313 1
193 345 1
194 105 1
194 121 1
194 153 1
194 202 1
194 218 1
194 250 1
194 300 1
194 316 1
194 348 1
195 108 1
195 124 1
195 156 1
195 205 1
195 221 1
195 253 1
195 293 1
195 309 1
195 341 1
196 104 1
196 120 1
196 152 1
196 206 1
196 222 1
196 254 1
196 298 1
196 314 1
196 346 1
197 110 1
197 126 1
197 158 1
197 194 1
197 210 1
197 242 1
197 303 1
197 319 1
197 351 1
198 101 1
198 117 1
198 149 1
198 203 1
198 219 1
198 251 1
198 296 1
198 312 1
198 344 1
199 106 1
199 122 1
199 154 1
199 207 1
199 223 1
199 255 1
199 301 1
199 317 1
199 349 1
200 111 1
200 127 1
200 159 1
200 195 1
200 211 1
200 243 1
200 304 1
200 320 1
200 352 1
201 109 1
201 125 1
201 157 1
201 208 1
201 224 1
201 256 1
201 299 1
201 315 1
201 347 1
202 112 1
202 128 1
202 160 1
202 198 1
202 214 1
202 246 1
202 289 1
202 305 1
202 337 1
203 98 1
203 114 1
203 146 1
203 199 1
203 215 1
203 247 1
203 291 1
203 307 1
203 339 1
204 107 1
204 123 1
204 155 1
204 193 1
204 209 1
204 241 1
204 302 1
204 318 1
204 350 1
205 97 1
205 113 1
205 145 1
205 196 1
205 212 1
205 244 1
205 290 1
205 306 1
205 338 1
206 99 1
206 115 1
206 147 1
206 201 1
206 217 1
206 249 1
206 294 1
206 310 1
206 342 1
207 102 1
207 118 1
207 150 1
207 204 1
207 220 1
207 252 1
207 292 1
207 308 1
207 340 1
208 100 1
208 116 1
208 148 1
208 197 1
208 213 1
208 245 1
208 295 1
208 311 1
208 343 1
209 103 1
209 135 1
209 167 1
209 200 1
209 232 1
209 264 1
209 297 1
209 329 1
209 361 1
210 105 1
210 137 1
210 169 1
210 202 1
210 234 1
210 266 1
210 300 1
210 332 1
210 364 1
211 108 1
211 140 1
211 172 1
211 205 1
211 237 1
211 269 1
211 293 1
211 325 1
211 357 1
212 104 1
212 136 1
212 168 1
212 206 1
212 238 1
212 270 1
212 298 1
212 330 1
212 362 1
213 110 1
213 142 1
213 174 1
213 194 1
213 226 1
213 258 1
213 303 1
213 335 1
213 367 1
214 101 1
214 133 1
214 165 1
214 203 1
214 235 1
214 267 1
214 296 1
214 328 1
214 360 1
215 106 1
215 138 1
215 170 1
215 207 1
215 239 1
215 271 1
215 301 1
215 333 1
215 365 1
216 111 1
216 143 1
216 175 1
216 195 1
216 227 1
216 259 1
216 304 1
216 336 1
216 368 1
217 109 1
217 141 1
217 173 1
217 208 1
217 240 1
217 272 1
217 299 1
217 331 1
217 363 1
218 112 1
218 144 1
218 176 1
218 198 1
218 230 1
218 262 1
218 289 1
218 321 1
218 353 1
219 98 1
219 130 1
219 162 1
219 199 1
219 231 1
219 263 1
219 291 1
219 323 1
219 355 1
220 107 1
220 139 1
220 171 1
220 193 1
220 225 1
220 257 1
220 302 1
220 334 1
220 366 1
221 97 1
221 129 1
221 161 1
221 196 1
221 228 1
221 260 1
221 290 1
221 322 1
221 354 1
222 99 1
222 131 1
222 163 1
222 201 1
222 233 1
222 265 1
222 294 1
222 326 1
222 358 1
223 102 1
223 134 1
223 166 1
223 204 1
223 236 1
223 268 1
223 292 1
223 324 1
223 356 1
224 100 1
224 132 1
224 164 1
224 197 1
224 229 1
224 261 1
224 295 1
224 327 1
224 359 1
225 119 1
225 135 1
225 183 1
225 216 1
225 232 1
225 280 1
225 313 1
225 329 1
225 377 1
226 121 1
226 137 1
226 185 1
226 218 1
226 234 1
226 282 1
226 316 1
226 332 1
226 380 1
227 124 1
227 140 1
227 188 1
227 221 1
227 237 1
227 285 1
227 309 1
227 325 1
227 373 1
228 120 1
228 136 1
228 184 1
228 222 1
228 238 1
228 286 1
228 314 1
228 330 1
228 378 1
229 126 1
229 142 1
229 190 1
229 210 1
229 226 1
229 274 1
229 319 1
229 335 1
229 383 1
230 117 1
230 133 1
230 181 1
230 219 1
230 235 1
230 283 1
230 312 1
230 328 1
230 376 1
231 122 1
231 138 1
231 186 1
231 223 1
231 239 1
231 287 1
231 317 1
231 333 1
231 381 1
232 127 1
232 143 1
232 191 1
232 211 1
232 227 1
232 275 1
232 320 1
232 336 1
232 384 1
233 125 1
233 141 1
233 189 1
233 224 1
233 240 1
233 288 1
233 315 1
233 331 1
233 379 1
234 128 1
234 144 1
234 192 1
234 214 1
234 230 1
234 278 1
234 305 1
234 321 1
234 369 1
235 114 1
235 130 1
235 178 1
235 215 1
235 231 1
235 279 1
235 307 1
235 323 1
235 371 1
236 123 1
236 139 1
236 187 1
236 209 1
236 225 1
236 273 1
236 318 1
236 334 1
236 382 1
237 113 1
237 129 1
237 177 1
237 212 1
237 228 1
237 276 1
237 306 1
237 322 1
237 370 1
238 115 1
238 131 1
238 179 1
238 217 1
238 233 1
238 281 1
238 310 1
238 326 1
238 374 1
239 118 1
239 134 1
239 182 1
239 220 1
239 236 1
239 284 1
239 308 1
239 324 1
239 372 1
240 116 1
240 132 1
240 180 1
240 213 1
240 229 1
240 277 1
240 311 1
240 327 1
240 375 1
241 200 1
241 216 1
241 248 1
241 394 1
241 410 1
241 442 1
241 491 1
241 507 1
241 539 1
242 202 1
242 218 1
242 250 1
242 397 1
242 413 1
242 445 1
242 494 1
242 510 1
242 542 1
243 205 1
243 221 1
243 253 1
243 395 1
243 411 1
243 443 1
243 495 1
243 511 1
243 543 1
244 206 1
244 222 1
244 254 1
244 399 1
244 415 1
244 447 1
244 481 1
244 497 1
244 529 1
245 194 1
245 210 1
245 242 1
245 387 1
245 403 1
245 435 1
245 484 1
245 500 1
245 532 1
246 203 1
246 219 1
246 251 1
246 398 1
246 414 1
246 446 1
246 496 1
246 512 1
246 544 1
247 207 1
247 223 1
247 255 1
247 400 1
247 416 1
247 448 1
247 482 1
247 498 1
247 530 1
248 195 1
248 211 1
248 243 1
248 390 1
248 406 1
248 438 1
248 487 1
248 503 1
248 535 1
249 208 1
249 224 1
249 256 1
249 385 1
249 401 1
249 433 1
249 483 1
249 499 1
249 531 1
250 198 1
250 214 1
250 246 1
250 388 1
250 404 1
250 436 1
250 489 1
250 505 1
250 537 1
251 199 1
251 215 1
251 247 1
251 393 1
251 409 1
251 441 1
251 485 1
251 501 1
251 533 1
252 193 1
252 209 1
252 241 1
252 386 1
252 402 1
252 434 1
252 486 1
252 502 1
252 534 1
253 196 1
253 212 1
253 244 1
253 391 1
253 407 1
253 439 1
253 492 1
253 508 1
253 540 1
254 201 1
254 217 1
254 249 1
254 396 1
254 412 1
254 444 1
254 488 1
254 504 1
254 536 1
255 204 1
255 220 1
255 252 1
255 389 1
255 405 1
255 437 1
255 490 1
255 506 1
255 538 1
256 197 1
256 213 1
256 245 1
256 392 1
256 408 1
256 440 1
256 493 1
256 509 1
256 541 1
257 200 1
257 232 1
257 264 1
257 394 1
257 426 1
257 458 1
257 491 1
257 523 1
257 555 1
258 202 1
258 234 1
258 266 1
258 397 1
258 429 1
258 461 1
258 494 1
258 526 1
258 558 1
259 205 1
259 237 1
259 269 1
259 395 1
259 427 1
259 459 1
259 495 1
259 527 1
259 559 1
260 206 1
260 238 1
260 270 1
260 399 1
260 431 1
260 463 1
260 481 1
260 513 1
260 545 1
261 194 1
261 226 1
261 258 1
261 387 1
261 419 1
261 451 1
261 484 1
261 516 1
261 548 1
262 203 1
262 235 1
262 267 1
262 398 1
262 430 1
262 462 1
262 496 1
262 528 1
262 560 1
263 207 1
263 239 1
263 271 1
263 400 1
263 432 1
263 464 1
263 482 1
263 514 1
263 546 1
264 195 1
264 227 1
264 259 1
264 390 1
264 422 1
264 454 1
264 487 1
264 519 1
264 551 1
265 208 1
265 240 1
265 272 1
265 385 1
265 417 1
265 449 1
265 483 1
265 515 1
265 547 1
266 198 1
266 230 1
266 262 1
266 388 1
266 420 1
266 452 1
266 489 1
266 521 1
266 553 1
267 199 1
267 231 1
267 263 1
267 393 1
267 425 1
267 457 1
267 485 1
267 517 1
267 549 1
268 193 1
268 225 1
268 257 1
268 386 1
268 418 1
268 450 1
268 486 1
268 518 1
268 550 1
269 196 1
269 228 1
269 260 1
269 391 1
269 423 1
269 455 1
269 492 1
269 524 1
269 556 1
270 201 1
270 233 1
270 265 1
270 396 1
270 428 1
270 460 1
270 488 1
270 520 1
270 552 1
271 204 1
271 236 1
271 268 1
271 389 1
271 421 1
271 453 1
271 490 1
271 522 1
271 554 1
272 197 1
272 229 1
272 261 1
272 392 1
272 424 1
272 456 1
272 493 1
272 525 1
272 557 1
273 216 1
273 232 1
273 280 1
273 410 1
273 426 1
273 474 1
273 507 1
273 523 1
273 571 1
274 218 1
274 234 1
274 282 1
274 413 1
274 429 1
274 477 1
274 510 1
274 526 1
274 574 1
275 221 1
275 237 1
275 285 1
275 411 1
275 427 1
275 475 1
275 511 1
275 527 1
275 575 1
276 222 1
276 238 1
276 286 1
276 415 1
276 431 1
276 479 1
276 497 1
276 513 1
276 561 1
277 210 1
277 226 1
277 274 1
277 403 1
277 419 1
277 467 1
277 500 1
277 516 1
277 564 1
278 219 1
278 235 1
278 283 1
278 414 1
278 430 1
278 478 1
278 512 1
278 528 1
278 576 1
279 223 1
279 239 1
279 287 1
279 416 1
279 432 1
279 480 1
279 498 1
279 514 1
279 562 1
280 211 1
280 227 1
280 275 1
280 406 1
280 422 1
280 470 1
280 503 1
280 519 1
280 567 1
281 224 1
281 240 1
281 288 1
281 401 1
281 417 1
281 465 1
281 499 1
281 515 1
281 563 1
282 214 1
282 230 1
282 278 1
282 404 1
282 420 1
282 468 1
282 505 1
282 521 1
282 569 1
283 215 1
283 231 1
283 279 1
283 409 1
283 425 1
283 473 1
283 501 1
283 517 1
283 565 1
284 209 1
284 225 1
284 273 1
284 402 1
284 418 1
284 466 1
284 502 1
284 518 1
284 566 1
285 212 1
285 228 1
285 276 1
285 407 1
285 423 1
285 471 1
285 508 1
285 524 1
285 572 1
286 217 1
286 233 1
286 281 1
286 412 1
286 428 1
286 476 1
286 504 1
286 520 1
286 568 1
287 220 1
287 236 1
287 284 1
287 405 1
287 421 1
287 469 1
287 506 1
287 522 1
287 570 1
288 213 1
288 229 1
288 277 1
288 408 1
288 424 1
288 472 1
288 509 1
288 525 1
288 573 1
