%%MatrixMarket matrix coordinate integer general
162 324 1458
1 1 1
1 15 1
1 47 1
1 163 1
1 177 1
1 209 1
1 217 1
1 231 1
1 263 1
2 2 1
2 17 1
2 49 1
2 164 1
2 179 1
2 211 1
2 218 1
2 233 1
2 265 1
3 3 1
3 10 1
3 50 1
3 165 1
3 172 1
3 212 1
3 219 1
3 226 1
3 266 1
4 4 1
4 18 1
4 48 1
4 166 1
4 180 1
4 210 1
4 220 1
4 234 1
4 264 1
5 5 1
5 11 1
5 52 1
5 167 1
5 173 1
5 214 1
5 221 1
5 227 1
5 268 1
6 6 1
6 12 1
6 53 1
6 168 1
6 174 1
6 215 1
6 222 1
6 228 1
6 269 1
7 7 1
7 13 1
7 51 1
7 169 1
7 175 1
7 213 1
7 223 1
7 229 1
7 267 1
8 8 1
8 14 1
8 54 1
8 170 1
8 176 1
8 216 1
8 224 1
8 230 1
8 270 1
9 9 1
9 16 1
9 46 1
9 171 1
9 178 1
9 208 1
9 225 1
9 232 1
9 262 1
10 1 1
10 34 1
10 40 1
10 163 1
10 196 1
10 202 1
10 217 1
10 250 1
10 256 1
11 2 1
11 33 1
11 39 1
11 164 1
11 195 1
11 201 1
11 218 1
11 249 1
11 255 1
12 3 1
12 36 1
12 43 1
12 165 1
12 198 1
12 205 1
12 219 1
12 252 1
12 259 1
13 4 1
13 35 1
13 41 1
13 166 1
13 197 1
13 203 1
13 220 1
13 251 1
13 257 1
14 5 1
14 28 1
14 42 1
14 167 1
14 190 1
14 204 1
14 221 1
14 244 1
14 258 1
15 6 1
15 31 1
15 45 1
15 168 1
15 193 1
15 207 1
15 222 1
15 247 1
15 261 1
16 7 1
16 29 1
16 44 1
16 169 1
16 191 1
16 206 1
16 223 1
16 245 1
16 260 1
17 8 1
17 30 1
17 37 1
17 170 1
17 192 1
17 199 1
17 224 1
17 246 1
17 253 1
18 9 1
18 32 1
18 38 1
18 171 1
18 194 1
18 200 1
18 225 1
18 248 1
18 254 1
19 15 1
19 26 1
19 34 1
19 177 1
19 188 1
19 196 1
19 231 1
19 242 1
19 250 1
20 17 1
20 27 1
20 33 1
20 179 1
20 189 1
20 195 1
20 233 1
20 243 1
20 249 1
21 10 1
21 20 1
21 36 1
21 172 1
21 182 1
21 198 1
21 226 1
21 236 1
21 252 1
22 18 1
22 19 1
22 35 1
22 180 1
22 181 1
22 197 1
22 234 1
22 235 1
22 251 1
23 11 1
23 22 1
23 28 1
23 173 1
23 184 1
23 190 1
23 227 1
23 238 1
23 244 1
24 12 1
24 23 1
24 31 1
24 174 1
24 185 1
24 193 1
24 228 1
24 239 1
24 247 1
25 13 1
25 21 1
25 29 1
25 175 1
25 183 1
25 191 1
25 229 1
25 237 1
25 245 1
26 14 1
26 25 1
26 30 1
26 176 1
26 187 1
26 192 1
26 230 1
26 241 1
26 246 1
27 16 1
27 24 1
27 32 1
27 178 1
27 186 1
27 194 1
27 232 1
27 240 1
27 248 1
28 55 1
28 69 1
28 101 1
28 163 1
28 177 1
28 209 1
28 271 1
28 285 1
28 317 1
29 56 1
29 71 1
29 103 1
29 164 1
29 179 1
29 211 1
29 272 1
29 287 1
29 319 1
30 57 1
30 64 1
30 104 1
30 165 1
30 172 1
30 212 1
30 273 1
30 280 1
30 320 1
31 58 1
31 72 1
31 102 1
31 166 1
31 180 1
31 210 1
31 274 1
31 288 1
31 318 1
32 59 1
32 65 1
32 106 1
32 167 1
32 173 1
32 214 1
32 275 1
32 281 1
32 322 1
33 60 1
33 66 1
33 107 1
33 168 1
33 174 1
33 215 1
33 276 1
33 282 1
33 323 1
34 61 1
34 67 1
34 105 1
34 169 1
34 175 1
34 213 1
34 277 1
34 283 1
34 321 1
35 62 1
35 68 1
35 108 1
35 170 1
35 176 1
35 216 1
35 278 1
35 284 1
35 324 1
36 63 1
36 70 1
36 100 1
36 171 1
36 178 1
36 208 1
36 279 1
36 286 1
36 316 1
37 55 1
37 88 1
37 94 1
37 163 1
37 196 1
37 202 1
37 271 1
37 304 1
37 310 1
38 56 1
38 87 1
38 93 1
38 164 1
38 195 1
38 201 1
38 272 1
38 303 1
38 309 1
39 57 1
39 90 1
39 97 1
39 165 1
39 198 1
39 205 1
39 273 1
39 306 1
39 313 1
40 58 1
40 89 1
40 95 1
40 166 1
40 197 1
40 203 1
40 274 1
40 305 1
40 311 1
41 59 1
41 82 1
41 96 1
41 167 1
41 190 1
41 204 1
41 275 1
41 298 1
41 312 1
42 60 1
42 85 1
42 99 1
42 168 1
42 193 1
42 207 1
42 276 1
42 301 1
42 315 1
43 61 1
43 83 1
43 98 1
43 169 1
43 191 1
43 206 1
43 277 1
43 299 1
43 314 1
44 62 1
44 84 1
44 91 1
44 170 1
44 192 1
44 199 1
44 278 1
44 300 1
44 307 1
45 63 1
45 86 1
45 92 1
45 171 1
45 194 1
45 200 1
45 279 1
45 302 1
45 308 1
46 69 1
46 80 1
46 88 1
46 177 1
46 188 1
46 196 1
46 285 1
46 296 1
46 304 1
47 71 1
47 81 1
47 87 1
47 179 1
47 189 1
47 195 1
47 287 1
47 297 1
47 303 1
48 64 1
48 74 1
48 90 1
48 172 1
48 182 1
48 198 1
48 280 1
48 290 1
48 306 1
49 72 1
49 73 1
49 89 1
49 180 1
49 181 1
49 197 1
49 288 1
49 289 1
49 305 1
50 65 1
50 76 1
50 82 1
50 173 1
50 184 1
50 190 1
50 281 1
50 292 1
50 298 1
51 66 1
51 77 1
51 85 1
51 174 1
51 185 1
51 193 1
51 282 1
51 293 1
51 301 1
52 67 1
52 75 1
52 83 1
52 175 1
52 183 1
52 191 1
52 283 1
52 291 1
52 299 1
53 68 1
53 79 1
53 84 1
53 176 1
53 187 1
53 192 1
53 284 1
53 295 1
53 300 1
54 70 1
54 78 1
54 86 1
54 178 1
54 186 1
54 194 1
54 286 1
54 294 1
54 302 1
55 109 1
55 123 1
55 155 1
55 217 1
55 231 1
55 263 1
55 271 1
55 285 1
55 317 1
56 110 1
56 125 1
56 157 1
56 218 1
56 233 1
56 265 1
56 272 1
56 287 1
56 319 1
57 111 1
57 118 1
57 158 1
57 219 1
57 226 1
57 266 1
57 273 1
57 280 1
57 320 1
58 112 1
58 126 1
58 156 1
58 220 1
58 234 1
58 264 1
58 274 1
58 288 1
58 318 1
59 113 1
59 119 1
59 160 1
59 221 1
59 227 1
59 268 1
59 275 1
59 281 1
59 322 1
60 114 1
60 120 1
60 161 1
60 222 1
60 228 1
60 269 1
60 276 1
60 282 1
60 323 1
61 115 1
61 121 1
61 159 1
61 223 1
61 229 1
61 267 1
61 277 1
61 283 1
61 321 1
62 116 1
62 122 1
62 162 1
62 224 1
62 230 1
62 270 1
62 278 1
62 284 1
62 324 1
63 117 1
63 124 1
63 154 1
63 225 1
63 232 1
63 262 1
63 279 1
63 286 1
63 316 1
64 109 1
64 142 1
64 148 1
64 217 1
64 250 1
64 256 1
64 271 1
64 304 1
64 310 1
65 110 1
65 141 1
65 147 1
65 218 1
65 249 1
65 255 1
65 272 1
65 303 1
65 309 1
66 111 1
66 144 1
66 151 1
66 219 1
66 252 1
66 259 1
66 273 1
66 306 1
66 313 1
67 112 1
67 143 1
67 149 1
67 220 1
67 251 1
67 257 1
67 274 1
67 305 1
67 311 1
68 113 1
68 136 1
68 150 1
68 221 1
68 244 1
68 258 1
68 275 1
68 298 1
68 312 1
69 114 1
69 139 1
69 153 1
69 222 1
69 247 1
69 261 1
69 276 1
69 301 1
69 315 1
70 115 1
70 137 1
70 152 1
70 223 1
70 245 1
70 260 1
70 277 1
70 299 1
70 314 1
71 116 1
71 138 1
71 145 1
71 224 1
71 246 1
71 253 1
71 278 1
71 300 1
71 307 1
72 117 1
72 140 1
72 146 1
72 225 1
72 248 1
72 254 1
72 279 1
72 302 1
72 308 1
73 123 1
73 134 1
73 142 1
73 231 1
73 242 1
73 250 1
73 285 1
73 296 1
73 304 1
74 125 1
74 135 1
74 141 1
74 233 1
74 243 1
74 249 1
74 287 1
74 297 1
74 303 1
75 118 1
75 128 1
75 144 1
75 226 1
75 236 1
75 252 1
75 280 1
75 290 1
75 306 1
76 126 1
76 127 1
76 143 1
76 234 1
76 235 1
76 251 1
76 288 1
76 289 1
76 305 1
77 119 1
77 130 1
77 136 1
77 227 1
77 238 1
77 244 1
77 281 1
77 292 1
77 298 1
78 120 1
78 131 1
78 139 1
78 228 1
78 239 1
78 247 1
78 282 1
78 293 1
78 301 1
79 121 1
79 129 1
79 137 1
79 229 1
79 237 1
79 245 1
79 283 1
79 291 1
79 299 1
80 122 1
80 133 1
80 138 1
80 230 1
80 241 1
80 246 1
80 284 1
80 295 1
80 300 1
81 124 1
81 132 1
81 140 1
81 232 1
81 240 1
81 248 1
81 286 1
81 294 1
81 302 1
82 1 1
82 10 1
82 28 1
82 112 1
82 121 1
82 139 1
82 221 1
82 230 1
82 248 1
83 2 1
83 11 1
83 29 1
83 111 1
83 120 1
83 138 1
83 223 1
83 232 1
83 250 1
84 3 1
84 12 1
84 30 1
84 115 1
84 124 1
84 142 1
84 224 1
84 233 1
84 251 1
85 4 1
85 13 1
85 31 1
85 113 1
85 122 1
85 140 1
85 222 1
85 231 1
85 249 1
86 5 1
86 14 1
86 32 1
86 114 1
86 123 1
86 141 1
86 225 1
86 234 1
86 252 1
87 6 1
87 15 1
87 33 1
87 117 1
87 126 1
87 144 1
87 218 1
87 227 1
87 245 1
88 7 1
88 16 1
88 34 1
88 116 1
88 125 1
88 143 1
88 217 1
88 226 1
88 244 1
89 8 1
89 17 1
89 35 1
89 109 1
89 118 1
89 136 1
89 220 1
89 229 1
89 247 1
90 9 1
90 18 1
90 36 1
90 110 1
90 119 1
90 137 1
90 219 1
90 228 1
90 246 1
91 1 1
91 19 1
91 37 1
91 112 1
91 130 1
91 148 1
91 221 1
91 239 1
91 257 1
92 2 1
92 20 1
92 38 1
92 111 1
92 129 1
92 147 1
92 223 1
92 241 1
92 259 1
93 3 1
93 21 1
93 39 1
93 115 1
93 133 1
93 151 1
93 224 1
93 242 1
93 260 1
94 4 1
94 22 1
94 40 1
94 113 1
94 131 1
94 149 1
94 222 1
94 240 1
94 258 1
95 5 1
95 23 1
95 41 1
95 114 1
95 132 1
95 150 1
95 225 1
95 243 1
95 261 1
96 6 1
96 24 1
96 42 1
96 117 1
96 135 1
96 153 1
96 218 1
96 236 1
96 254 1
97 7 1
97 25 1
97 43 1
97 116 1
97 134 1
97 152 1
97 217 1
97 235 1
97 253 1
98 8 1
98 26 1
98 44 1
98 109 1
98 127 1
98 145 1
98 220 1
98 238 1
98 256 1
99 9 1
99 27 1
99 45 1
99 110 1
99 128 1
99 146 1
99 219 1
99 237 1
99 255 1
100 10 1
100 19 1
100 46 1
100 121 1
100 130 1
100 157 1
100 230 1
100 239 1
100 266 1
101 11 1
101 20 1
101 47 1
101 120 1
101 129 1
101 156 1
101 232 1
101 241 1
101 268 1
102 12 1
102 21 1
102 48 1
102 124 1
102 133 1
102 160 1
102 233 1
102 242 1
102 269 1
103 13 1
103 22 1
103 49 1
103 122 1
103 131 1
103 158 1
103 231 1
103 240 1
103 267 1
104 14 1
104 23 1
104 50 1
104 123 1
104 132 1
104 159 1
104 234 1
104 243 1
104 270 1
105 15 1
105 24 1
105 51 1
105 126 1
105 135 1
105 162 1
105 227 1
105 236 1
105 263 1
106 16 1
106 25 1
106 52 1
106 125 1
106 134 1
106 161 1
106 226 1
106 235 1
106 262 1
107 17 1
107 26 1
107 53 1
107 118 1
107 127 1
107 154 1
107 229 1
107 238 1
107 265 1
108 18 1
108 27 1
108 54 1
108 119 1
108 128 1
108 155 1
108 228 1
108 237 1
108 264 1
109 56 1
109 65 1
109 83 1
109 112 1
109 121 1
109 139 1
109 276 1
109 285 1
109 303 1
110 58 1
110 67 1
110 85 1
110 111 1
110 120 1
110 138 1
110 278 1
110 287 1
110 305 1
111 59 1
111 68 1
111 86 1
111 115 1
111 124 1
111 142 1
111 271 1
111 280 1
111 298 1
112 57 1
112 66 1
112 84 1
112 113 1
112 122 1
112 140 1
112 279 1
112 288 1
112 306 1
113 61 1
113 70 1
113 88 1
113 114 1
113 123 1
113 141 1
113 272 1
113 281 1
113 299 1
114 62 1
114 71 1
114 89 1
114 117 1
114 126 1
114 144 1
114 273 1
114 282 1
114 300 1
115 60 1
115 69 1
115 87 1
115 116 1
115 125 1
115 143 1
115 274 1
115 283 1
115 301 1
116 63 1
116 72 1
116 90 1
116 109 1
116 118 1
116 136 1
116 275 1
116 284 1
116 302 1
117 55 1
117 64 1
117 82 1
117 110 1
117 119 1
117 137 1
117 277 1
117 286 1
117 304 1
118 56 1
118 74 1
118 92 1
118 112 1
118 130 1
118 148 1
118 276 1
118 294 1
118 312 1
119 58 1
119 76 1
119 94 1
119 111 1
119 129 1
119 147 1
119 278 1
119 296 1
119 314 1
120 59 1
120 77 1
120 95 1
120 115 1
120 133 1
120 151 1
120 271 1
120 289 1
120 307 1
121 57 1
121 75 1
121 93 1
121 113 1
121 131 1
121 149 1
121 279 1
121 297 1
121 315 1
122 61 1
122 79 1
122 97 1
122 114 1
122 132 1
122 150 1
122 272 1
122 290 1
122 308 1
123 62 1
123 80 1
123 98 1
123 117 1
123 135 1
123 153 1
123 273 1
123 291 1
123 309 1
124 60 1
124 78 1
124 96 1
124 116 1
124 134 1
124 152 1
124 274 1
124 292 1
124 310 1
125 63 1
125 81 1
125 99 1
125 109 1
125 127 1
125 145 1
125 275 1
125 293 1
125 311 1
126 55 1
126 73 1
126 91 1
126 110 1
126 128 1
126 146 1
126 277 1
126 295 1
126 313 1
127 65 1
127 74 1
127 101 1
127 121 1
127 130 1
127 157 1
127 285 1
127 294 1
127 321 1
128 67 1
128 76 1
128 103 1
128 120 1
128 129 1
128 156 1
128 287 1
128 296 1
128 323 1
129 68 1
129 77 1
129 104 1
129 124 1
129 133 1
129 160 1
129 280 1
129 289 1
129 316 1
130 66 1
130 75 1
130 102 1
130 122 1
130 131 1
130 158 1
130 288 1
130 297 1
130 324 1
131 70 1
131 79 1
131 106 1
131 123 1
131 132 1
131 159 1
131 281 1
131 290 1
131 317 1
132 71 1
132 80 1
132 107 1
132 126 1
132 135 1
132 162 1
132 282 1
132 291 1
132 318 1
133 69 1
133 78 1
133 105 1
133 125 1
133 134 1
133 161 1
133 283 1
133 292 1
133 319 1
134 72 1
134 81 1
134 108 1
134 118 1
134 127 1
134 154 1
134 284 1
134 293 1
134 320 1
135 64 1
135 73 1
135 100 1
135 119 1
135 128 1
135 155 1
135 286 1
135 295 1
135 322 1
136 166 1
136 175 1
136 193 1
136 221 1
136 230 1
136 248 1
136 276 1
136 285 1
136 303 1
137 165 1
137 174 1
137 192 1
137 223 1
137 232 1
137 250 1
137 278 1
137 287 1
137 305 1
138 169 1
138 178 1
138 196 1
138 224 1
138 233 1
138 251 1
138 271 1
138 280 1
138 298 1
139 167 1
139 176 1
139 194 1
139 222 1
139 231 1
139 249 1
139 279 1
139 288 1
139 306 1
140 168 1
140 177 1
140 195 1
140 225 1
140 234 1
140 252 1
140 272 1
140 281 1
140 299 1
141 171 1
141 180 1
141 198 1
141 218 1
141 227 1
141 245 1
141 273 1
141 282 1
141 300 1
142 170 1
142 179 1
142 197 1
142 217 1
142 226 1
142 244 1
142 274 1
142 283 1
142 301 1
143 163 1
143 172 1
143 190 1
143 220 1
143 229 1
143 247 1
143 275 1
143 284 1
143 302 1
144 164 1
144 173 1
144 191 1
144 219 1
144 228 1
144 246 1
144 277 1
144 286 1
144 304 1
145 166 1
145 184 1
145 202 1
145 221 1
145 239 1
145 257 1
145 276 1
145 294 1
145 312 1
146 165 1
146 183 1
146 201 1
146 223 1
146 241 1
146 259 1
146 278 1
146 296 1
146 314 1
147 169 1
147 187 1
147 205 1
147 224 1
147 242 1
147 260 1
147 271 1
147 289 1
147 307 1
148 167 1
148 185 1
148 203 1
148 222 1
148 240 1
148 258 1
148 279 1
148 297 1
148 315 1
149 168 1
149 186 1
149 204 1
149 225 1
149 243 1
149 261 1
149 272 1
149 290 1
149 308 1
150 171 1
150 189 1
150 207 1
150 218 1
150 236 1
150 254 1
150 273 1
150 291 1
150 309 1
151 170 1
151 188 1
151 206 1
151 217 1
151 235 1
151 253 1
151 274 1
151 292 1
151 310 1
152 163 1
152 181 1
152 199 1
152 220 1
152 238 1
152 256 1
152 275 1
152 293 1
152 311 1
153 164 1
153 182 1
153 200 1
153 219 1
153 237 1
153 255 1
153 277 1
153 295 1
153 313 1
154 175 1
154 184 1
154 211 1
154 230 1
154 239 1
154 266 1
154 285 1
154 294 1
154 321 1
155 174 1
155 183 1
155 210 1
155 232 1
155 241 1
155 268 1
155 287 1
155 296 1
155 323 1
156 178 1
156 187 1
156 214 1
156 233 1
156 242 1
156 269 1
156 280 1
156 289 1
156 316 1
157 176 1
157 185 1
157 212 1
157 231 1
157 240 1
157 267 1
157 288 1
157 297 1
157 324 1
158 177 1
158 186 1
158 213 1
158 234 1
158 243 1
158 270 1
158 281 1
158 290 1
158 317 1
159 180 1
159 189 1
159 216 1
159 227 1
159 236 1
159 263 1
159 282 1
159 291 1
159 318 1
160 179 1
160 188 1
160 215 1
160 226 1
160 235 1
160 262 1
160 283 1
160 292 1
160 319 1
161 172 1
161 181 1
161 208 1
161 229 1
161 238 1
161 265 1
161 284 1
161 293 1
161 320 1
162 173 1
162 182 1
162 209 1
162 228 1
162 237 1
162 264 1
162 286 1
162 295 1
162 322 1
