%%MatrixMarket matrix coordinate integer general
306 612 2754
1 1 1
1 28 1
1 60 1
1 307 1
1 334 1
1 366 1
1 409 1
1 436 1
1 468 1
2 2 1
2 29 1
2 61 1
2 308 1
2 335 1
2 367 1
2 410 1
2 437 1
2 469 1
3 3 1
3 30 1
3 62 1
3 309 1
3 336 1
3 368 1
3 411 1
3 438 1
3 470 1
4 4 1
4 31 1
4 63 1
4 310 1
4 337 1
4 369 1
4 412 1
4 439 1
4 471 1
5 5 1
5 32 1
5 64 1
5 311 1
5 338 1
5 370 1
5 413 1
5 440 1
5 472 1
6 6 1
6 33 1
6 65 1
6 312 1
6 339 1
6 371 1
6 414 1
6 441 1
6 473 1
7 7 1
7 34 1
7 66 1
7 313 1
7 340 1
7 372 1
7 415 1
7 442 1
7 474 1
8 8 1
8 18 1
8 67 1
8 314 1
8 324 1
8 373 1
8 416 1
8 426 1
8 475 1
9 9 1
9 19 1
9 68 1
9 315 1
9 325 1
9 374 1
9 417 1
9 427 1
9 476 1
10 10 1
10 20 1
10 52 1
10 316 1
10 326 1
10 358 1
10 418 1
10 428 1
10 460 1
11 11 1
11 21 1
11 53 1
11 317 1
11 327 1
11 359 1
11 419 1
11 429 1
11 461 1
12 12 1
12 22 1
12 54 1
12 318 1
12 328 1
12 360 1
12 420 1
12 430 1
12 462 1
13 13 1
13 23 1
13 55 1
13 319 1
13 329 1
13 361 1
13 421 1
13 431 1
13 463 1
14 14 1
14 24 1
14 56 1
14 320 1
14 330 1
14 362 1
14 422 1
14 432 1
14 464 1
15 15 1
15 25 1
15 57 1
15 321 1
15 331 1
15 363 1
15 423 1
15 433 1
15 465 1
16 16 1
16 26 1
16 58 1
16 322 1
16 332 1
16 364 1
16 424 1
16 434 1
16 466 1
17 17 1
17 27 1
17 59 1
17 323 1
17 333 1
17 365 1
17 425 1
17 435 1
17 467 1
18 1 1
18 44 1
18 71 1
18 307 1
18 350 1
18 377 1
18 409 1
18 452 1
18 479 1
19 2 1
19 45 1
19 72 1
19 308 1
19 351 1
19 378 1
19 410 1
19 453 1
19 480 1
20 3 1
20 46 1
20 73 1
20 309 1
20 352 1
20 379 1
20 411 1
20 454 1
20 481 1
21 4 1
21 47 1
21 74 1
21 310 1
21 353 1
21 380 1
21 412 1
21 455 1
21 482 1
22 5 1
22 48 1
22 75 1
22 311 1
22 354 1
22 381 1
22 413 1
22 456 1
22 483 1
23 6 1
23 49 1
23 76 1
23 312 1
23 355 1
23 382 1
23 414 1
23 457 1
23 484 1
24 7 1
24 50 1
24 77 1
24 313 1
24 356 1
24 383 1
24 415 1
24 458 1
24 485 1
25 8 1
25 51 1
25 78 1
25 314 1
25 357 1
25 384 1
25 416 1
25 459 1
25 486 1
26 9 1
26 35 1
26 79 1
26 315 1
26 341 1
26 385 1
26 417 1
26 443 1
26 487 1
27 10 1
27 36 1
27 80 1
27 316 1
27 342 1
27 386 1
27 418 1
27 444 1
27 488 1
28 11 1
28 37 1
28 81 1
28 317 1
28 343 1
28 387 1
28 419 1
28 445 1
28 489 1
29 12 1
29 38 1
29 82 1
29 318 1
29 344 1
29 388 1
29 420 1
29 446 1
29 490 1
30 13 1
30 39 1
30 83 1
30 319 1
30 345 1
30 389 1
30 421 1
30 447 1
30 491 1
31 14 1
31 40 1
31 84 1
31 320 1
31 346 1
31 390 1
31 422 1
31 448 1
31 492 1
32 15 1
32 41 1
32 85 1
32 321 1
32 347 1
32 391 1
32 423 1
32 449 1
32 493 1
33 16 1
33 42 1
33 69 1
33 322 1
33 348 1
33 375 1
33 424 1
33 450 1
33 477 1
34 17 1
34 43 1
34 70 1
34 323 1
34 349 1
34 376 1
34 425 1
34 451 1
34 478 1
35 28 1
35 44 1
35 87 1
35 334 1
35 350 1
35 393 1
35 436 1
35 452 1
35 495 1
36 29 1
36 45 1
36 88 1
36 335 1
36 351 1
36 394 1
36 437 1
36 453 1
36 496 1
37 30 1
37 46 1
37 89 1
37 336 1
37 352 1
37 395 1
37 438 1
37 454 1
37 497 1
38 31 1
38 47 1
38 90 1
38 337 1
38 353 1
38 396 1
38 439 1
38 455 1
38 498 1
39 32 1
39 48 1
39 91 1
39 338 1
39 354 1
39 397 1
39 440 1
39 456 1
39 499 1
40 33 1
40 49 1
40 92 1
40 339 1
40 355 1
40 398 1
40 441 1
40 457 1
40 500 1
41 34 1
41 50 1
41 93 1
41 340 1
41 356 1
41 399 1
41 442 1
41 458 1
41 501 1
42 18 1
42 51 1
42 94 1
42 324 1
42 357 1
42 400 1
42 426 1
42 459 1
42 502 1
43 19 1
43 35 1
43 95 1
43 325 1
43 341 1
43 401 1
43 427 1
43 443 1
43 503 1
44 20 1
44 36 1
44 96 1
44 326 1
44 342 1
44 402 1
44 428 1
44 444 1
44 504 1
45 21 1
45 37 1
45 97 1
45 327 1
45 343 1
45 403 1
45 429 1
45 445 1
45 505 1
46 22 1
46 38 1
46 98 1
46 328 1
46 344 1
46 404 1
46 430 1
46 446 1
46 506 1
47 23 1
47 39 1
47 99 1
47 329 1
47 345 1
47 405 1
47 431 1
47 447 1
47 507 1
48 24 1
48 40 1
48 100 1
48 330 1
48 346 1
48 406 1
48 432 1
48 448 1
48 508 1
49 25 1
49 41 1
49 101 1
49 331 1
49 347 1
49 407 1
49 433 1
49 449 1
49 509 1
50 26 1
50 42 1
50 102 1
50 332 1
50 348 1
50 408 1
50 434 1
50 450 1
50 510 1
51 27 1
51 43 1
51 86 1
51 333 1
51 349 1
51 392 1
51 435 1
51 451 1
51 494 1
52 103 1
52 130 1
52 162 1
52 307 1
52 334 1
52 366 1
52 511 1
52 538 1
52 570 1
53 104 1
53 131 1
53 163 1
53 308 1
53 335 1
53 367 1
53 512 1
53 539 1
53 571 1
54 105 1
54 132 1
54 164 1
54 309 1
54 336 1
54 368 1
54 513 1
54 540 1
54 572 1
55 106 1
55 133 1
55 165 1
55 310 1
55 337 1
55 369 1
55 514 1
55 541 1
55 573 1
56 107 1
56 134 1
56 166 1
56 311 1
56 338 1
56 370 1
56 515 1
56 542 1
56 574 1
57 108 1
57 135 1
57 167 1
57 312 1
57 339 1
57 371 1
57 516 1
57 543 1
57 575 1
58 109 1
58 136 1
58 168 1
58 313 1
58 340 1
58 372 1
58 517 1
58 544 1
58 576 1
59 110 1
59 120 1
59 169 1
59 314 1
59 324 1
59 373 1
59 518 1
59 528 1
59 577 1
60 111 1
60 121 1
60 170 1
60 315 1
60 325 1
60 374 1
60 519 1
60 529 1
60 578 1
61 112 1
61 122 1
61 154 1
61 316 1
61 326 1
61 358 1
61 520 1
61 530 1
61 562 1
62 113 1
62 123 1
62 155 1
62 317 1
62 327 1
62 359 1
62 521 1
62 531 1
62 563 1
63 114 1
63 124 1
63 156 1
63 318 1
63 328 1
63 360 1
63 522 1
63 532 1
63 564 1
64 115 1
64 125 1
64 157 1
64 319 1
64 329 1
64 361 1
64 523 1
64 533 1
64 565 1
65 116 1
65 126 1
65 158 1
65 320 1
65 330 1
65 362 1
65 524 1
65 534 1
65 566 1
66 117 1
66 127 1
66 159 1
66 321 1
66 331 1
66 363 1
66 525 1
66 535 1
66 567 1
67 118 1
67 128 1
67 160 1
67 322 1
67 332 1
67 364 1
67 526 1
67 536 1
67 568 1
68 119 1
68 129 1
68 161 1
68 323 1
68 333 1
68 365 1
68 527 1
68 537 1
68 569 1
69 103 1
69 146 1
69 173 1
69 307 1
69 350 1
69 377 1
69 511 1
69 554 1
69 581 1
70 104 1
70 147 1
70 174 1
70 308 1
70 351 1
70 378 1
70 512 1
70 555 1
70 582 1
71 105 1
71 148 1
71 175 1
71 309 1
71 352 1
71 379 1
71 513 1
71 556 1
71 583 1
72 106 1
72 149 1
72 176 1
72 310 1
72 353 1
72 380 1
72 514 1
72 557 1
72 584 1
73 107 1
73 150 1
73 177 1
73 311 1
73 354 1
73 381 1
73 515 1
73 558 1
73 585 1
74 108 1
74 151 1
74 178 1
74 312 1
74 355 1
74 382 1
74 516 1
74 559 1
74 586 1
75 109 1
75 152 1
75 179 1
75 313 1
75 356 1
75 383 1
75 517 1
75 560 1
75 587 1
76 110 1
76 153 1
76 180 1
76 314 1
76 357 1
76 384 1
76 518 1
76 561 1
76 588 1
77 111 1
77 137 1
77 181 1
77 315 1
77 341 1
77 385 1
77 519 1
77 545 1
77 589 1
78 112 1
78 138 1
78 182 1
78 316 1
78 342 1
78 386 1
78 520 1
78 546 1
78 590 1
79 113 1
79 139 1
79 183 1
79 317 1
79 343 1
79 387 1
79 521 1
79 547 1
79 591 1
80 114 1
80 140 1
80 184 1
80 318 1
80 344 1
80 388 1
80 522 1
80 548 1
80 592 1
81 115 1
81 141 1
81 185 1
81 319 1
81 345 1
81 389 1
81 523 1
81 549 1
81 593 1
82 116 1
82 142 1
82 186 1
82 320 1
82 346 1
82 390 1
82 524 1
82 550 1
82 594 1
83 117 1
83 143 1
83 187 1
83 321 1
83 347 1
83 391 1
83 525 1
83 551 1
83 595 1
84 118 1
84 144 1
84 171 1
84 322 1
84 348 1
84 375 1
84 526 1
84 552 1
84 579 1
85 119 1
85 145 1
85 172 1
85 323 1
85 349 1
85 376 1
85 527 1
85 553 1
85 580 1
86 130 1
86 146 1
86 189 1
86 334 1
86 350 1
86 393 1
86 538 1
86 554 1
86 597 1
87 131 1
87 147 1
87 190 1
87 335 1
87 351 1
87 394 1
87 539 1
87 555 1
87 598 1
88 132 1
88 148 1
88 191 1
88 336 1
88 352 1
88 395 1
88 540 1
88 556 1
88 599 1
89 133 1
89 149 1
89 192 1
89 337 1
89 353 1
89 396 1
89 541 1
89 557 1
89 600 1
90 134 1
90 150 1
90 193 1
90 338 1
90 354 1
90 397 1
90 542 1
90 558 1
90 601 1
91 135 1
91 151 1
91 194 1
91 339 1
91 355 1
91 398 1
91 543 1
91 559 1
91 602 1
92 136 1
92 152 1
92 195 1
92 340 1
92 356 1
92 399 1
92 544 1
92 560 1
92 603 1
93 120 1
93 153 1
93 196 1
93 324 1
93 357 1
93 400 1
93 528 1
93 561 1
93 604 1
94 121 1
94 137 1
94 197 1
94 325 1
94 341 1
94 401 1
94 529 1
94 545 1
94 605 1
95 122 1
95 138 1
95 198 1
95 326 1
95 342 1
95 402 1
95 530 1
95 546 1
95 606 1
96 123 1
96 139 1
96 199 1
96 327 1
96 343 1
96 403 1
96 531 1
96 547 1
96 607 1
97 124 1
97 140 1
97 200 1
97 328 1
97 344 1
97 404 1
97 532 1
97 548 1
97 608 1
98 125 1
98 141 1
98 201 1
98 329 1
98 345 1
98 405 1
98 533 1
98 549 1
98 609 1
99 126 1
99 142 1
99 202 1
99 330 1
99 346 1
99 406 1
99 534 1
99 550 1
99 610 1
100 127 1
100 143 1
100 203 1
100 331 1
100 347 1
100 407 1
100 535 1
100 551 1
100 611 1
101 128 1
101 144 1
101 204 1
101 332 1
101 348 1
101 408 1
101 536 1
101 552 1
101 612 1
102 129 1
102 145 1
102 188 1
102 333 1
102 349 1
102 392 1
102 537 1
102 553 1
102 596 1
103 205 1
103 232 1
103 264 1
103 409 1
103 436 1
103 468 1
103 511 1
103 538 1
103 570 1
104 206 1
104 233 1
104 265 1
104 410 1
104 437 1
104 469 1
104 512 1
104 539 1
104 571 1
105 207 1
105 234 1
105 266 1
105 411 1
105 438 1
105 470 1
105 513 1
105 540 1
105 572 1
106 208 1
106 235 1
106 267 1
106 412 1
106 439 1
106 471 1
106 514 1
106 541 1
106 573 1
107 209 1
107 236 1
107 268 1
107 413 1
107 440 1
107 472 1
107 515 1
107 542 1
107 574 1
108 210 1
108 237 1
108 269 1
108 414 1
108 441 1
108 473 1
108 516 1
108 543 1
108 575 1
109 211 1
109 238 1
109 270 1
109 415 1
109 442 1
109 474 1
109 517 1
109 544 1
109 576 1
110 212 1
110 222 1
110 271 1
110 416 1
110 426 1
110 475 1
110 518 1
110 528 1
110 577 1
111 213 1
111 223 1
111 272 1
111 417 1
111 427 1
111 476 1
111 519 1
111 529 1
111 578 1
112 214 1
112 224 1
112 256 1
112 418 1
112 428 1
112 460 1
112 520 1
112 530 1
112 562 1
113 215 1
113 225 1
113 257 1
113 419 1
113 429 1
113 461 1
113 521 1
113 531 1
113 563 1
114 216 1
114 226 1
114 258 1
114 420 1
114 430 1
114 462 1
114 522 1
114 532 1
114 564 1
115 217 1
115 227 1
115 259 1
115 421 1
115 431 1
115 463 1
115 523 1
115 533 1
115 565 1
116 218 1
116 228 1
116 260 1
116 422 1
116 432 1
116 464 1
116 524 1
116 534 1
116 566 1
117 219 1
117 229 1
117 261 1
117 423 1
117 433 1
117 465 1
117 525 1
117 535 1
117 567 1
118 220 1
118 230 1
118 262 1
118 424 1
118 434 1
118 466 1
118 526 1
118 536 1
118 568 1
119 221 1
119 231 1
119 263 1
119 425 1
119 435 1
119 467 1
119 527 1
119 537 1
119 569 1
120 205 1
120 248 1
120 275 1
120 409 1
120 452 1
120 479 1
120 511 1
120 554 1
120 581 1
121 206 1
121 249 1
121 276 1
121 410 1
121 453 1
121 480 1
121 512 1
121 555 1
121 582 1
122 207 1
122 250 1
122 277 1
122 411 1
122 454 1
122 481 1
122 513 1
122 556 1
122 583 1
123 208 1
123 251 1
123 278 1
123 412 1
123 455 1
123 482 1
123 514 1
123 557 1
123 584 1
124 209 1
124 252 1
124 279 1
124 413 1
124 456 1
124 483 1
124 515 1
124 558 1
124 585 1
125 210 1
125 253 1
125 280 1
125 414 1
125 457 1
125 484 1
125 516 1
125 559 1
125 586 1
126 211 1
126 254 1
126 281 1
126 415 1
126 458 1
126 485 1
126 517 1
126 560 1
126 587 1
127 212 1
127 255 1
127 282 1
127 416 1
127 459 1
127 486 1
127 518 1
127 561 1
127 588 1
128 213 1
128 239 1
128 283 1
128 417 1
128 443 1
128 487 1
128 519 1
128 545 1
128 589 1
129 214 1
129 240 1
129 284 1
129 418 1
129 444 1
129 488 1
129 520 1
129 546 1
129 590 1
130 215 1
130 241 1
130 285 1
130 419 1
130 445 1
130 489 1
130 521 1
130 547 1
130 591 1
131 216 1
131 242 1
131 286 1
131 420 1
131 446 1
131 490 1
131 522 1
131 548 1
131 592 1
132 217 1
132 243 1
132 287 1
132 421 1
132 447 1
132 491 1
132 523 1
132 549 1
132 593 1
133 218 1
133 244 1
133 288 1
133 422 1
133 448 1
133 492 1
133 524 1
133 550 1
133 594 1
134 219 1
134 245 1
134 289 1
134 423 1
134 449 1
134 493 1
134 525 1
134 551 1
134 595 1
135 220 1
135 246 1
135 273 1
135 424 1
135 450 1
135 477 1
135 526 1
135 552 1
135 579 1
136 221 1
136 247 1
136 274 1
136 425 1
136 451 1
136 478 1
136 527 1
136 553 1
136 580 1
137 232 1
137 248 1
137 291 1
137 436 1
137 452 1
137 495 1
137 538 1
137 554 1
137 597 1
138 233 1
138 249 1
138 292 1
138 437 1
138 453 1
138 496 1
138 539 1
138 555 1
138 598 1
139 234 1
139 250 1
139 293 1
139 438 1
139 454 1
139 497 1
139 540 1
139 556 1
139 599 1
140 235 1
140 251 1
140 294 1
140 439 1
140 455 1
140 498 1
140 541 1
140 557 1
140 600 1
141 236 1
141 252 1
141 295 1
141 440 1
141 456 1
141 499 1
141 542 1
141 558 1
141 601 1
142 237 1
142 253 1
142 296 1
142 441 1
142 457 1
142 500 1
142 543 1
142 559 1
142 602 1
143 238 1
143 254 1
143 297 1
143 442 1
143 458 1
143 501 1
143 544 1
143 560 1
143 603 1
144 222 1
144 255 1
144 298 1
144 426 1
144 459 1
144 502 1
144 528 1
144 561 1
144 604 1
145 223 1
145 239 1
145 299 1
145 427 1
145 443 1
145 503 1
145 529 1
145 545 1
145 605 1
146 224 1
146 240 1
146 300 1
146 428 1
146 444 1
146 504 1
146 530 1
146 546 1
146 606 1
147 225 1
147 241 1
147 301 1
147 429 1
147 445 1
147 505 1
147 531 1
147 547 1
147 607 1
148 226 1
148 242 1
148 302 1
148 430 1
148 446 1
148 506 1
148 532 1
148 548 1
148 608 1
149 227 1
149 243 1
149 303 1
149 431 1
149 447 1
149 507 1
149 533 1
149 549 1
149 609 1
150 228 1
150 244 1
150 304 1
150 432 1
150 448 1
150 508 1
150 534 1
150 550 1
150 610 1
151 229 1
151 245 1
151 305 1
151 433 1
151 449 1
151 509 1
151 535 1
151 551 1
151 611 1
152 230 1
152 246 1
152 306 1
152 434 1
152 450 1
152 510 1
152 536 1
152 552 1
152 612 1
153 231 1
153 247 1
153 290 1
153 435 1
153 451 1
153 494 1
153 537 1
153 553 1
153 596 1
154 1 1
154 18 1
154 52 1
154 308 1
154 325 1
154 359 1
154 410 1
154 427 1
154 461 1
155 2 1
155 19 1
155 53 1
155 309 1
155 326 1
155 360 1
155 411 1
155 428 1
155 462 1
156 3 1
156 20 1
156 54 1
156 310 1
156 327 1
156 361 1
156 412 1
156 429 1
156 463 1
157 4 1
157 21 1
157 55 1
157 311 1
157 328 1
157 362 1
157 413 1
157 430 1
157 464 1
158 5 1
158 22 1
158 56 1
158 312 1
158 329 1
158 363 1
158 414 1
158 431 1
158 465 1
159 6 1
159 23 1
159 57 1
159 313 1
159 330 1
159 364 1
159 415 1
159 432 1
159 466 1
160 7 1
160 24 1
160 58 1
160 314 1
160 331 1
160 365 1
160 416 1
160 433 1
160 467 1
161 8 1
161 25 1
161 59 1
161 315 1
161 332 1
161 366 1
161 417 1
161 434 1
161 468 1
162 9 1
162 26 1
162 60 1
162 316 1
162 333 1
162 367 1
162 418 1
162 435 1
162 469 1
163 10 1
163 27 1
163 61 1
163 317 1
163 334 1
163 368 1
163 419 1
163 436 1
163 470 1
164 11 1
164 28 1
164 62 1
164 318 1
164 335 1
164 369 1
164 420 1
164 437 1
164 471 1
165 12 1
165 29 1
165 63 1
165 319 1
165 336 1
165 370 1
165 421 1
165 438 1
165 472 1
166 13 1
166 30 1
166 64 1
166 320 1
166 337 1
166 371 1
166 422 1
166 439 1
166 473 1
167 14 1
167 31 1
167 65 1
167 321 1
167 338 1
167 372 1
167 423 1
167 440 1
167 474 1
168 15 1
168 32 1
168 66 1
168 322 1
168 339 1
168 373 1
168 424 1
168 441 1
168 475 1
169 16 1
169 33 1
169 67 1
169 323 1
169 340 1
169 374 1
169 425 1
169 442 1
169 476 1
170 17 1
170 34 1
170 68 1
170 307 1
170 324 1
170 358 1
170 409 1
170 426 1
170 460 1
171 1 1
171 35 1
171 69 1
171 308 1
171 342 1
171 376 1
171 410 1
171 444 1
171 478 1
172 2 1
172 36 1
172 70 1
172 309 1
172 343 1
172 377 1
172 411 1
172 445 1
172 479 1
173 3 1
173 37 1
173 71 1
173 310 1
173 344 1
173 378 1
173 412 1
173 446 1
173 480 1
174 4 1
174 38 1
174 72 1
174 311 1
174 345 1
174 379 1
174 413 1
174 447 1
174 481 1
175 5 1
175 39 1
175 73 1
175 312 1
175 346 1
175 380 1
175 414 1
175 448 1
175 482 1
176 6 1
176 40 1
176 74 1
176 313 1
176 347 1
176 381 1
176 415 1
176 449 1
176 483 1
177 7 1
177 41 1
177 75 1
177 314 1
177 348 1
177 382 1
177 416 1
177 450 1
177 484 1
178 8 1
178 42 1
178 76 1
178 315 1
178 349 1
178 383 1
178 417 1
178 451 1
178 485 1
179 9 1
179 43 1
179 77 1
179 316 1
179 350 1
179 384 1
179 418 1
179 452 1
179 486 1
180 10 1
180 44 1
180 78 1
180 317 1
180 351 1
180 385 1
180 419 1
180 453 1
180 487 1
181 11 1
181 45 1
181 79 1
181 318 1
181 352 1
181 386 1
181 420 1
181 454 1
181 488 1
182 12 1
182 46 1
182 80 1
182 319 1
182 353 1
182 387 1
182 421 1
182 455 1
182 489 1
183 13 1
183 47 1
183 81 1
183 320 1
183 354 1
183 388 1
183 422 1
183 456 1
183 490 1
184 14 1
184 48 1
184 82 1
184 321 1
184 355 1
184 389 1
184 423 1
184 457 1
184 491 1
185 15 1
185 49 1
185 83 1
185 322 1
185 356 1
185 390 1
185 424 1
185 458 1
185 492 1
186 16 1
186 50 1
186 84 1
186 323 1
186 357 1
186 391 1
186 425 1
186 459 1
186 493 1
187 17 1
187 51 1
187 85 1
187 307 1
187 341 1
187 375 1
187 409 1
187 443 1
187 477 1
188 18 1
188 35 1
188 86 1
188 325 1
188 342 1
188 393 1
188 427 1
188 444 1
188 495 1
189 19 1
189 36 1
189 87 1
189 326 1
189 343 1
189 394 1
189 428 1
189 445 1
189 496 1
190 20 1
190 37 1
190 88 1
190 327 1
190 344 1
190 395 1
190 429 1
190 446 1
190 497 1
191 21 1
191 38 1
191 89 1
191 328 1
191 345 1
191 396 1
191 430 1
191 447 1
191 498 1
192 22 1
192 39 1
192 90 1
192 329 1
192 346 1
192 397 1
192 431 1
192 448 1
192 499 1
193 23 1
193 40 1
193 91 1
193 330 1
193 347 1
193 398 1
193 432 1
193 449 1
193 500 1
194 24 1
194 41 1
194 92 1
194 331 1
194 348 1
194 399 1
194 433 1
194 450 1
194 501 1
195 25 1
195 42 1
195 93 1
195 332 1
195 349 1
195 400 1
195 434 1
195 451 1
195 502 1
196 26 1
196 43 1
196 94 1
196 333 1
196 350 1
196 401 1
196 435 1
196 452 1
196 503 1
197 27 1
197 44 1
197 95 1
197 334 1
197 351 1
197 402 1
197 436 1
197 453 1
197 504 1
198 28 1
198 45 1
198 96 1
198 335 1
198 352 1
198 403 1
198 437 1
198 454 1
198 505 1
199 29 1
199 46 1
199 97 1
199 336 1
199 353 1
199 404 1
199 438 1
199 455 1
199 506 1
200 30 1
200 47 1
200 98 1
200 337 1
200 354 1
200 405 1
200 439 1
200 456 1
200 507 1
201 31 1
201 48 1
201 99 1
201 338 1
201 355 1
201 406 1
201 440 1
201 457 1
201 508 1
202 32 1
202 49 1
202 100 1
202 339 1
202 356 1
202 407 1
202 441 1
202 458 1
202 509 1
203 33 1
203 50 1
203 101 1
203 340 1
203 357 1
203 408 1
203 442 1
203 459 1
203 510 1
204 34 1
204 51 1
204 102 1
204 324 1
204 341 1
204 392 1
204 426 1
204 443 1
204 494 1
205 104 1
205 121 1
205 155 1
205 308 1
205 325 1
205 359 1
205 512 1
205 529 1
205 563 1
206 105 1
206 122 1
206 156 1
206 309 1
206 326 1
206 360 1
206 513 1
206 530 1
206 564 1
207 106 1
207 123 1
207 157 1
207 310 1
207 327 1
207 361 1
207 514 1
207 531 1
207 565 1
208 107 1
208 124 1
208 158 1
208 311 1
208 328 1
208 362 1
208 515 1
208 532 1
208 566 1
209 108 1
209 125 1
209 159 1
209 312 1
209 329 1
209 363 1
209 516 1
209 533 1
209 567 1
210 109 1
210 126 1
210 160 1
210 313 1
210 330 1
210 364 1
210 517 1
210 534 1
210 568 1
211 110 1
211 127 1
211 161 1
211 314 1
211 331 1
211 365 1
211 518 1
211 535 1
211 569 1
212 111 1
212 128 1
212 162 1
212 315 1
212 332 1
212 366 1
212 519 1
212 536 1
212 570 1
213 112 1
213 129 1
213 163 1
213 316 1
213 333 1
213 367 1
213 520 1
213 537 1
213 571 1
214 113 1
214 130 1
214 164 1
214 317 1
214 334 1
214 368 1
214 521 1
214 538 1
214 572 1
215 114 1
215 131 1
215 165 1
215 318 1
215 335 1
215 369 1
215 522 1
215 539 1
215 573 1
216 115 1
216 132 1
216 166 1
216 319 1
216 336 1
216 370 1
216 523 1
216 540 1
216 574 1
217 116 1
217 133 1
217 167 1
217 320 1
217 337 1
217 371 1
217 524 1
217 541 1
217 575 1
218 117 1
218 134 1
218 168 1
218 321 1
218 338 1
218 372 1
218 525 1
218 542 1
218 576 1
219 118 1
219 135 1
219 169 1
219 322 1
219 339 1
219 373 1
219 526 1
219 543 1
219 577 1
220 119 1
220 136 1
220 170 1
220 323 1
220 340 1
220 374 1
220 527 1
220 544 1
220 578 1
221 103 1
221 120 1
221 154 1
221 307 1
221 324 1
221 358 1
221 511 1
221 528 1
221 562 1
222 104 1
222 138 1
222 172 1
222 308 1
222 342 1
222 376 1
222 512 1
222 546 1
222 580 1
223 105 1
223 139 1
223 173 1
223 309 1
223 343 1
223 377 1
223 513 1
223 547 1
223 581 1
224 106 1
224 140 1
224 174 1
224 310 1
224 344 1
224 378 1
224 514 1
224 548 1
224 582 1
225 107 1
225 141 1
225 175 1
225 311 1
225 345 1
225 379 1
225 515 1
225 549 1
225 583 1
226 108 1
226 142 1
226 176 1
226 312 1
226 346 1
226 380 1
226 516 1
226 550 1
226 584 1
227 109 1
227 143 1
227 177 1
227 313 1
227 347 1
227 381 1
227 517 1
227 551 1
227 585 1
228 110 1
228 144 1
228 178 1
228 314 1
228 348 1
228 382 1
228 518 1
228 552 1
228 586 1
229 111 1
229 145 1
229 179 1
229 315 1
229 349 1
229 383 1
229 519 1
229 553 1
229 587 1
230 112 1
230 146 1
230 180 1
230 316 1
230 350 1
230 384 1
230 520 1
230 554 1
230 588 1
231 113 1
231 147 1
231 181 1
231 317 1
231 351 1
231 385 1
231 521 1
231 555 1
231 589 1
232 114 1
232 148 1
232 182 1
232 318 1
232 352 1
232 386 1
232 522 1
232 556 1
232 590 1
233 115 1
233 149 1
233 183 1
233 319 1
233 353 1
233 387 1
233 523 1
233 557 1
233 591 1
234 116 1
234 150 1
234 184 1
234 320 1
234 354 1
234 388 1
234 524 1
234 558 1
234 592 1
235 117 1
235 151 1
235 185 1
235 321 1
235 355 1
235 389 1
235 525 1
235 559 1
235 593 1
236 118 1
236 152 1
236 186 1
236 322 1
236 356 1
236 390 1
236 526 1
236 560 1
236 594 1
237 119 1
237 153 1
237 187 1
237 323 1
237 357 1
237 391 1
237 527 1
237 561 1
237 595 1
238 103 1
238 137 1
238 171 1
238 307 1
238 341 1
238 375 1
238 511 1
238 545 1
238 579 1
239 121 1
239 138 1
239 189 1
239 325 1
239 342 1
239 393 1
239 529 1
239 546 1
239 597 1
240 122 1
240 139 1
240 190 1
240 326 1
240 343 1
240 394 1
240 530 1
240 547 1
240 598 1
241 123 1
241 140 1
241 191 1
241 327 1
241 344 1
241 395 1
241 531 1
241 548 1
241 599 1
242 124 1
242 141 1
242 192 1
242 328 1
242 345 1
242 396 1
242 532 1
242 549 1
242 600 1
243 125 1
243 142 1
243 193 1
243 329 1
243 346 1
243 397 1
243 533 1
243 550 1
243 601 1
244 126 1
244 143 1
244 194 1
244 330 1
244 347 1
244 398 1
244 534 1
244 551 1
244 602 1
245 127 1
245 144 1
245 195 1
245 331 1
245 348 1
245 399 1
245 535 1
245 552 1
245 603 1
246 128 1
246 145 1
246 196 1
246 332 1
246 349 1
246 400 1
246 536 1
246 553 1
246 604 1
247 129 1
247 146 1
247 197 1
247 333 1
247 350 1
247 401 1
247 537 1
247 554 1
247 605 1
248 130 1
248 147 1
248 198 1
248 334 1
248 351 1
248 402 1
248 538 1
248 555 1
248 606 1
249 131 1
249 148 1
249 199 1
249 335 1
249 352 1
249 403 1
249 539 1
249 556 1
249 607 1
250 132 1
250 149 1
250 200 1
250 336 1
250 353 1
250 404 1
250 540 1
250 557 1
250 608 1
251 133 1
251 150 1
251 201 1
251 337 1
251 354 1
251 405 1
251 541 1
251 558 1
251 609 1
252 134 1
252 151 1
252 202 1
252 338 1
252 355 1
252 406 1
252 542 1
252 559 1
252 610 1
253 135 1
253 152 1
253 203 1
253 339 1
253 356 1
253 407 1
253 543 1
253 560 1
253 611 1
254 136 1
254 153 1
254 204 1
254 340 1
254 357 1
254 408 1
254 544 1
254 561 1
254 612 1
255 120 1
255 137 1
255 188 1
255 324 1
255 341 1
255 392 1
255 528 1
255 545 1
255 596 1
256 206 1
256 223 1
256 257 1
256 410 1
256 427 1
256 461 1
256 512 1
256 529 1
256 563 1
257 207 1
257 224 1
257 258 1
257 411 1
257 428 1
257 462 1
257 513 1
257 530 1
257 564 1
258 208 1
258 225 1
258 259 1
258 412 1
258 429 1
258 463 1
258 514 1
258 531 1
258 565 1
259 209 1
259 226 1
259 260 1
259 413 1
259 430 1
259 464 1
259 515 1
259 532 1
259 566 1
260 210 1
260 227 1
260 261 1
260 414 1
260 431 1
260 465 1
260 516 1
260 533 1
260 567 1
261 211 1
261 228 1
261 262 1
261 415 1
261 432 1
261 466 1
261 517 1
261 534 1
261 568 1
262 212 1
262 229 1
262 263 1
262 416 1
262 433 1
262 467 1
262 518 1
262 535 1
262 569 1
263 213 1
263 230 1
263 264 1
263 417 1
263 434 1
263 468 1
263 519 1
263 536 1
263 570 1
264 214 1
264 231 1
264 265 1
264 418 1
264 435 1
264 469 1
264 520 1
264 537 1
264 571 1
265 215 1
265 232 1
265 266 1
265 419 1
265 436 1
265 470 1
265 521 1
265 538 1
265 572 1
266 216 1
266 233 1
266 267 1
266 420 1
266 437 1
266 471 1
266 522 1
266 539 1
266 573 1
267 217 1
267 234 1
267 268 1
267 421 1
267 438 1
267 472 1
267 523 1
267 540 1
267 574 1
268 218 1
268 235 1
268 269 1
268 422 1
268 439 1
268 473 1
268 524 1
268 541 1
268 575 1
269 219 1
269 236 1
269 270 1
269 423 1
269 440 1
269 474 1
269 525 1
269 542 1
269 576 1
270 220 1
270 237 1
270 271 1
270 424 1
270 441 1
270 475 1
270 526 1
270 543 1
270 577 1
271 221 1
271 238 1
271 272 1
271 425 1
271 442 1
271 476 1
271 527 1
271 544 1
271 578 1
272 205 1
272 222 1
272 256 1
272 409 1
272 426 1
272 460 1
272 511 1
272 528 1
272 562 1
273 206 1
273 240 1
273 274 1
273 410 1
273 444 1
273 478 1
273 512 1
273 546 1
273 580 1
274 207 1
274 241 1
274 275 1
274 411 1
274 445 1
274 479 1
274 513 1
274 547 1
274 581 1
275 208 1
275 242 1
275 276 1
275 412 1
275 446 1
275 480 1
275 514 1
275 548 1
275 582 1
276 209 1
276 243 1
276 277 1
276 413 1
276 447 1
276 481 1
276 515 1
276 549 1
276 583 1
277 210 1
277 244 1
277 278 1
277 414 1
277 448 1
277 482 1
277 516 1
277 550 1
277 584 1
278 211 1
278 245 1
278 279 1
278 415 1
278 449 1
278 483 1
278 517 1
278 551 1
278 585 1
279 212 1
279 246 1
279 280 1
279 416 1
279 450 1
279 484 1
279 518 1
279 552 1
279 586 1
280 213 1
280 247 1
280 281 1
280 417 1
280 451 1
280 485 1
280 519 1
280 553 1
280 587 1
281 214 1
281 248 1
281 282 1
281 418 1
281 452 1
281 486 1
281 520 1
281 554 1
281 588 1
282 215 1
282 249 1
282 283 1
282 419 1
282 453 1
282 487 1
282 521 1
282 555 1
282 589 1
283 216 1
283 250 1
283 284 1
283 420 1
283 454 1
283 488 1
283 522 1
283 556 1
283 590 1
284 217 1
284 251 1
284 285 1
284 421 1
284 455 1
284 489 1
284 523 1
284 557 1
284 591 1
285 218 1
285 252 1
285 286 1
285 422 1
285 456 1
285 490 1
285 524 1
285 558 1
285 592 1
286 219 1
286 253 1
286 287 1
286 423 1
286 457 1
286 491 1
286 525 1
286 559 1
286 593 1
287 220 1
287 254 1
287 288 1
287 424 1
287 458 1
287 492 1
287 526 1
287 560 1
287 594 1
288 221 1
288 255 1
288 289 1
288 425 1
288 459 1
288 493 1
288 527 1
288 561 1
288 595 1
289 205 1
289 239 1
289 273 1
289 409 1
289 443 1
289 477 1
289 511 1
289 545 1
289 579 1
290 223 1
290 240 1
290 291 1
290 427 1
290 444 1
290 495 1
290 529 1
290 546 1
290 597 1
291 224 1
291 241 1
291 292 1
291 428 1
291 445 1
291 496 1
291 530 1
291 547 1
291 598 1
292 225 1
292 242 1
292 293 1
292 429 1
292 446 1
292 497 1
292 531 1
292 548 1
292 599 1
293 226 1
293 243 1
293 294 1
293 430 1
293 447 1
293 498 1
293 532 1
293 549 1
293 600 1
294 227 1
294 244 1
294 295 1
294 431 1
294 448 1
294 499 1
294 533 1
294 550 1
294 601 1
295 228 1
295 245 1
295 296 1
295 432 1
295 449 1
295 500 1
295 534 1
295 551 1
295 602 1
296 229 1
296 246 1
296 297 1
296 433 1
296 450 1
296 501 1
296 535 1
296 552 1
296 603 1
297 230 1
297 247 1
297 298 1
297 434 1
297 451 1
297 502 1
297 536 1
297 553 1
297 604 1
298 231 1
298 248 1
298 299 1
298 435 1
298 452 1
298 503 1
298 537 1
298 554 1
298 605 1
299 232 1
299 249 1
299 300 1
299 436 1
299 453 1
299 504 1
299 538 1
299 555 1
299 606 1
300 233 1
300 250 1
300 301 1
300 437 1
300 454 1
300 505 1
300 539 1
300 556 1
300 607 1
301 234 1
301 251 1
301 302 1
301 438 1
301 455 1
301 506 1
301 540 1
301 557 1
301 608 1
302 235 1
302 252 1
302 303 1
302 439 1
302 456 1
302 507 1
302 541 1
302 558 1
302 609 1
303 236 1
303 253 1
303 304 1
303 440 1
303 457 1
303 508 1
303 542 1
303 559 1
303 610 1
304 237 1
304 254 1
304 305 1
304 441 1
304 458 1
304 509 1
304 543 1
304 560 1
304 611 1
305 238 1
305 255 1
305 306 1
305 442 1
305 459 1
305 510 1
305 544 1
305 561 1
305 612 1
306 222 1
306 239 1
306 290 1
306 426 1
306 443 1
306 494 1
306 528 1
306 545 1
306 596 1
