%%MatrixMarket matrix coordinate integer general
306 612 2754
1 1 1
1 52 1
1 69 1
1 103 1
1 154 1
1 171 1
1 307 1
1 358 1
1 375 1
2 2 1
2 53 1
2 70 1
2 104 1
2 155 1
2 172 1
2 308 1
2 359 1
2 376 1
3 3 1
3 54 1
3 71 1
3 105 1
3 156 1
3 173 1
3 309 1
3 360 1
3 377 1
4 4 1
4 55 1
4 72 1
4 106 1
4 157 1
4 174 1
4 310 1
4 361 1
4 378 1
5 5 1
5 56 1
5 73 1
5 107 1
5 158 1
5 175 1
5 311 1
5 362 1
5 379 1
6 6 1
6 57 1
6 74 1
6 108 1
6 159 1
6 176 1
6 312 1
6 363 1
6 380 1
7 7 1
7 58 1
7 75 1
7 109 1
7 160 1
7 177 1
7 313 1
7 364 1
7 381 1
8 8 1
8 59 1
8 76 1
8 110 1
8 161 1
8 178 1
8 314 1
8 365 1
8 382 1
9 9 1
9 60 1
9 77 1
9 111 1
9 162 1
9 179 1
9 315 1
9 366 1
9 383 1
10 10 1
10 61 1
10 78 1
10 112 1
10 163 1
10 180 1
10 316 1
10 367 1
10 384 1
11 11 1
11 62 1
11 79 1
11 113 1
11 164 1
11 181 1
11 317 1
11 368 1
11 385 1
12 12 1
12 63 1
12 80 1
12 114 1
12 165 1
12 182 1
12 318 1
12 369 1
12 386 1
13 13 1
13 64 1
13 81 1
13 115 1
13 166 1
13 183 1
13 319 1
13 370 1
13 387 1
14 14 1
14 65 1
14 82 1
14 116 1
14 167 1
14 184 1
14 320 1
14 371 1
14 388 1
15 15 1
15 66 1
15 83 1
15 117 1
15 168 1
15 185 1
15 321 1
15 372 1
15 389 1
16 16 1
16 67 1
16 84 1
16 118 1
16 169 1
16 186 1
16 322 1
16 373 1
16 390 1
17 17 1
17 68 1
17 85 1
17 119 1
17 170 1
17 187 1
17 323 1
17 374 1
17 391 1
18 18 1
18 52 1
18 86 1
18 120 1
18 154 1
18 188 1
18 324 1
18 358 1
18 392 1
19 19 1
19 53 1
19 87 1
19 121 1
19 155 1
19 189 1
19 325 1
19 359 1
19 393 1
20 20 1
20 54 1
20 88 1
20 122 1
20 156 1
20 190 1
20 326 1
20 360 1
20 394 1
21 21 1
21 55 1
21 89 1
21 123 1
21 157 1
21 191 1
21 327 1
21 361 1
21 395 1
22 22 1
22 56 1
22 90 1
22 124 1
22 158 1
22 192 1
22 328 1
22 362 1
22 396 1
23 23 1
23 57 1
23 91 1
23 125 1
23 159 1
23 193 1
23 329 1
23 363 1
23 397 1
24 24 1
24 58 1
24 92 1
24 126 1
24 160 1
24 194 1
24 330 1
24 364 1
24 398 1
25 25 1
25 59 1
25 93 1
25 127 1
25 161 1
25 195 1
25 331 1
25 365 1
25 399 1
26 26 1
26 60 1
26 94 1
26 128 1
26 162 1
26 196 1
26 332 1
26 366 1
26 400 1
27 27 1
27 61 1
27 95 1
27 129 1
27 163 1
27 197 1
27 333 1
27 367 1
27 401 1
28 28 1
28 62 1
28 96 1
28 130 1
28 164 1
28 198 1
28 334 1
28 368 1
28 402 1
29 29 1
29 63 1
29 97 1
29 131 1
29 165 1
29 199 1
29 335 1
29 369 1
29 403 1
30 30 1
30 64 1
30 98 1
30 132 1
30 166 1
30 200 1
30 336 1
30 370 1
30 404 1
31 31 1
31 65 1
31 99 1
31 133 1
31 167 1
31 201 1
31 337 1
31 371 1
31 405 1
32 32 1
32 66 1
32 100 1
32 134 1
32 168 1
32 202 1
32 338 1
32 372 1
32 406 1
33 33 1
33 67 1
33 101 1
33 135 1
33 169 1
33 203 1
33 339 1
33 373 1
33 407 1
34 34 1
34 68 1
34 102 1
34 136 1
34 170 1
34 204 1
34 340 1
34 374 1
34 408 1
35 35 1
35 69 1
35 86 1
35 137 1
35 171 1
35 188 1
35 341 1
35 375 1
35 392 1
36 36 1
36 70 1
36 87 1
36 138 1
36 172 1
36 189 1
36 342 1
36 376 1
36 393 1
37 37 1
37 71 1
37 88 1
37 139 1
37 173 1
37 190 1
37 343 1
37 377 1
37 394 1
38 38 1
38 72 1
38 89 1
38 140 1
38 174 1
38 191 1
38 344 1
38 378 1
38 395 1
39 39 1
39 73 1
39 90 1
39 141 1
39 175 1
39 192 1
39 345 1
39 379 1
39 396 1
40 40 1
40 74 1
40 91 1
40 142 1
40 176 1
40 193 1
40 346 1
40 380 1
40 397 1
41 41 1
41 75 1
41 92 1
41 143 1
41 177 1
41 194 1
41 347 1
41 381 1
41 398 1
42 42 1
42 76 1
42 93 1
42 144 1
42 178 1
42 195 1
42 348 1
42 382 1
42 399 1
43 43 1
43 77 1
43 94 1
43 145 1
43 179 1
43 196 1
43 349 1
43 383 1
43 400 1
44 44 1
44 78 1
44 95 1
44 146 1
44 180 1
44 197 1
44 350 1
44 384 1
44 401 1
45 45 1
45 79 1
45 96 1
45 147 1
45 181 1
45 198 1
45 351 1
45 385 1
45 402 1
46 46 1
46 80 1
46 97 1
46 148 1
46 182 1
46 199 1
46 352 1
46 386 1
46 403 1
47 47 1
47 81 1
47 98 1
47 149 1
47 183 1
47 200 1
47 353 1
47 387 1
47 404 1
48 48 1
48 82 1
48 99 1
48 150 1
48 184 1
48 201 1
48 354 1
48 388 1
48 405 1
49 49 1
49 83 1
49 100 1
49 151 1
49 185 1
49 202 1
49 355 1
49 389 1
49 406 1
50 50 1
50 84 1
50 101 1
50 152 1
50 186 1
50 203 1
50 356 1
50 390 1
50 407 1
51 51 1
51 85 1
51 102 1
51 153 1
51 187 1
51 204 1
51 357 1
51 391 1
51 408 1
52 1 1
52 52 1
52 69 1
52 205 1
52 256 1
52 273 1
52 409 1
52 460 1
52 477 1
53 2 1
53 53 1
53 70 1
53 206 1
53 257 1
53 274 1
53 410 1
53 461 1
53 478 1
54 3 1
54 54 1
54 71 1
54 207 1
54 258 1
54 275 1
54 411 1
54 462 1
54 479 1
55 4 1
55 55 1
55 72 1
55 208 1
55 259 1
55 276 1
55 412 1
55 463 1
55 480 1
56 5 1
56 56 1
56 73 1
56 209 1
56 260 1
56 277 1
56 413 1
56 464 1
56 481 1
57 6 1
57 57 1
57 74 1
57 210 1
57 261 1
57 278 1
57 414 1
57 465 1
57 482 1
58 7 1
58 58 1
58 75 1
58 211 1
58 262 1
58 279 1
58 415 1
58 466 1
58 483 1
59 8 1
59 59 1
59 76 1
59 212 1
59 263 1
59 280 1
59 416 1
59 467 1
59 484 1
60 9 1
60 60 1
60 77 1
60 213 1
60 264 1
60 281 1
60 417 1
60 468 1
60 485 1
61 10 1
61 61 1
61 78 1
61 214 1
61 265 1
61 282 1
61 418 1
61 469 1
61 486 1
62 11 1
62 62 1
62 79 1
62 215 1
62 266 1
62 283 1
62 419 1
62 470 1
62 487 1
63 12 1
63 63 1
63 80 1
63 216 1
63 267 1
63 284 1
63 420 1
63 471 1
63 488 1
64 13 1
64 64 1
64 81 1
64 217 1
64 268 1
64 285 1
64 421 1
64 472 1
64 489 1
65 14 1
65 65 1
65 82 1
65 218 1
65 269 1
65 286 1
65 422 1
65 473 1
65 490 1
66 15 1
66 66 1
66 83 1
66 219 1
66 270 1
66 287 1
66 423 1
66 474 1
66 491 1
67 16 1
67 67 1
67 84 1
67 220 1
67 271 1
67 288 1
67 424 1
67 475 1
67 492 1
68 17 1
68 68 1
68 85 1
68 221 1
68 272 1
68 289 1
68 425 1
68 476 1
68 493 1
69 18 1
69 52 1
69 86 1
69 222 1
69 256 1
69 290 1
69 426 1
69 460 1
69 494 1
70 19 1
70 53 1
70 87 1
70 223 1
70 257 1
70 291 1
70 427 1
70 461 1
70 495 1
71 20 1
71 54 1
71 88 1
71 224 1
71 258 1
71 292 1
71 428 1
71 462 1
71 496 1
72 21 1
72 55 1
72 89 1
72 225 1
72 259 1
72 293 1
72 429 1
72 463 1
72 497 1
73 22 1
73 56 1
73 90 1
73 226 1
73 260 1
73 294 1
73 430 1
73 464 1
73 498 1
74 23 1
74 57 1
74 91 1
74 227 1
74 261 1
74 295 1
74 431 1
74 465 1
74 499 1
75 24 1
75 58 1
75 92 1
75 228 1
75 262 1
75 296 1
75 432 1
75 466 1
75 500 1
76 25 1
76 59 1
76 93 1
76 229 1
76 263 1
76 297 1
76 433 1
76 467 1
76 501 1
77 26 1
77 60 1
77 94 1
77 230 1
77 264 1
77 298 1
77 434 1
77 468 1
77 502 1
78 27 1
78 61 1
78 95 1
78 231 1
78 265 1
78 299 1
78 435 1
78 469 1
78 503 1
79 28 1
79 62 1
79 96 1
79 232 1
79 266 1
79 300 1
79 436 1
79 470 1
79 504 1
80 29 1
80 63 1
80 97 1
80 233 1
80 267 1
80 301 1
80 437 1
80 471 1
80 505 1
81 30 1
81 64 1
81 98 1
81 234 1
81 268 1
81 302 1
81 438 1
81 472 1
81 506 1
82 31 1
82 65 1
82 99 1
82 235 1
82 269 1
82 303 1
82 439 1
82 473 1
82 507 1
83 32 1
83 66 1
83 100 1
83 236 1
83 270 1
83 304 1
83 440 1
83 474 1
83 508 1
84 33 1
84 67 1
84 101 1
84 237 1
84 271 1
84 305 1
84 441 1
84 475 1
84 509 1
85 34 1
85 68 1
85 102 1
85 238 1
85 272 1
85 306 1
85 442 1
85 476 1
85 510 1
86 35 1
86 69 1
86 86 1
86 239 1
86 273 1
86 290 1
86 443 1
86 477 1
86 494 1
87 36 1
87 70 1
87 87 1
87 240 1
87 274 1
87 291 1
87 444 1
87 478 1
87 495 1
88 37 1
88 71 1
88 88 1
88 241 1
88 275 1
88 292 1
88 445 1
88 479 1
88 496 1
89 38 1
89 72 1
89 89 1
89 242 1
89 276 1
89 293 1
89 446 1
89 480 1
89 497 1
90 39 1
90 73 1
90 90 1
90 243 1
90 277 1
90 294 1
90 447 1
90 481 1
90 498 1
91 40 1
91 74 1
91 91 1
91 244 1
91 278 1
91 295 1
91 448 1
91 482 1
91 499 1
92 41 1
92 75 1
92 92 1
92 245 1
92 279 1
92 296 1
92 449 1
92 483 1
92 500 1
93 42 1
93 76 1
93 93 1
93 246 1
93 280 1
93 297 1
93 450 1
93 484 1
93 501 1
94 43 1
94 77 1
94 94 1
94 247 1
94 281 1
94 298 1
94 451 1
94 485 1
94 502 1
95 44 1
95 78 1
95 95 1
95 248 1
95 282 1
95 299 1
95 452 1
95 486 1
95 503 1
96 45 1
96 79 1
96 96 1
96 249 1
96 283 1
96 300 1
96 453 1
96 487 1
96 504 1
97 46 1
97 80 1
97 97 1
97 250 1
97 284 1
97 301 1
97 454 1
97 488 1
97 505 1
98 47 1
98 81 1
98 98 1
98 251 1
98 285 1
98 302 1
98 455 1
98 489 1
98 506 1
99 48 1
99 82 1
99 99 1
99 252 1
99 286 1
99 303 1
99 456 1
99 490 1
99 507 1
100 49 1
100 83 1
100 100 1
100 253 1
100 287 1
100 304 1
100 457 1
100 491 1
100 508 1
101 50 1
101 84 1
101 101 1
101 254 1
101 288 1
101 305 1
101 458 1
101 492 1
101 509 1
102 51 1
102 85 1
102 102 1
102 255 1
102 289 1
102 306 1
102 459 1
102 493 1
102 510 1
103 103 1
103 154 1
103 171 1
103 205 1
103 256 1
103 273 1
103 511 1
103 562 1
103 579 1
104 104 1
104 155 1
104 172 1
104 206 1
104 257 1
104 274 1
104 512 1
104 563 1
104 580 1
105 105 1
105 156 1
105 173 1
105 207 1
105 258 1
105 275 1
105 513 1
105 564 1
105 581 1
106 106 1
106 157 1
106 174 1
106 208 1
106 259 1
106 276 1
106 514 1
106 565 1
106 582 1
107 107 1
107 158 1
107 175 1
107 209 1
107 260 1
107 277 1
107 515 1
107 566 1
107 583 1
108 108 1
108 159 1
108 176 1
108 210 1
108 261 1
108 278 1
108 516 1
108 567 1
108 584 1
109 109 1
109 160 1
109 177 1
109 211 1
109 262 1
109 279 1
109 517 1
109 568 1
109 585 1
110 110 1
110 161 1
110 178 1
110 212 1
110 263 1
110 280 1
110 518 1
110 569 1
110 586 1
111 111 1
111 162 1
111 179 1
111 213 1
111 264 1
111 281 1
111 519 1
111 570 1
111 587 1
112 112 1
112 163 1
112 180 1
112 214 1
112 265 1
112 282 1
112 520 1
112 571 1
112 588 1
113 113 1
113 164 1
113 181 1
113 215 1
113 266 1
113 283 1
113 521 1
113 572 1
113 589 1
114 114 1
114 165 1
114 182 1
114 216 1
114 267 1
114 284 1
114 522 1
114 573 1
114 590 1
115 115 1
115 166 1
115 183 1
115 217 1
115 268 1
115 285 1
115 523 1
115 574 1
115 591 1
116 116 1
116 167 1
116 184 1
116 218 1
116 269 1
116 286 1
116 524 1
116 575 1
116 592 1
117 117 1
117 168 1
117 185 1
117 219 1
117 270 1
117 287 1
117 525 1
117 576 1
117 593 1
118 118 1
118 169 1
118 186 1
118 220 1
118 271 1
118 288 1
118 526 1
118 577 1
118 594 1
119 119 1
119 170 1
119 187 1
119 221 1
119 272 1
119 289 1
119 527 1
119 578 1
119 595 1
120 120 1
120 154 1
120 188 1
120 222 1
120 256 1
120 290 1
120 528 1
120 562 1
120 596 1
121 121 1
121 155 1
121 189 1
121 223 1
121 257 1
121 291 1
121 529 1
121 563 1
121 597 1
122 122 1
122 156 1
122 190 1
122 224 1
122 258 1
122 292 1
122 530 1
122 564 1
122 598 1
123 123 1
123 157 1
123 191 1
123 225 1
123 259 1
123 293 1
123 531 1
123 565 1
123 599 1
124 124 1
124 158 1
124 192 1
124 226 1
124 260 1
124 294 1
124 532 1
124 566 1
124 600 1
125 125 1
125 159 1
125 193 1
125 227 1
125 261 1
125 295 1
125 533 1
125 567 1
125 601 1
126 126 1
126 160 1
126 194 1
126 228 1
126 262 1
126 296 1
126 534 1
126 568 1
126 602 1
127 127 1
127 161 1
127 195 1
127 229 1
127 263 1
127 297 1
127 535 1
127 569 1
127 603 1
128 128 1
128 162 1
128 196 1
128 230 1
128 264 1
128 298 1
128 536 1
128 570 1
128 604 1
129 129 1
129 163 1
129 197 1
129 231 1
129 265 1
129 299 1
129 537 1
129 571 1
129 605 1
130 130 1
130 164 1
130 198 1
130 232 1
130 266 1
130 300 1
130 538 1
130 572 1
130 606 1
131 131 1
131 165 1
131 199 1
131 233 1
131 267 1
131 301 1
131 539 1
131 573 1
131 607 1
132 132 1
132 166 1
132 200 1
132 234 1
132 268 1
132 302 1
132 540 1
132 574 1
132 608 1
133 133 1
133 167 1
133 201 1
133 235 1
133 269 1
133 303 1
133 541 1
133 575 1
133 609 1
134 134 1
134 168 1
134 202 1
134 236 1
134 270 1
134 304 1
134 542 1
134 576 1
134 610 1
135 135 1
135 169 1
135 203 1
135 237 1
135 271 1
135 305 1
135 543 1
135 577 1
135 611 1
136 136 1
136 170 1
136 204 1
136 238 1
136 272 1
136 306 1
136 544 1
136 578 1
136 612 1
137 137 1
137 171 1
137 188 1
137 239 1
137 273 1
137 290 1
137 545 1
137 579 1
137 596 1
138 138 1
138 172 1
138 189 1
138 240 1
138 274 1
138 291 1
138 546 1
138 580 1
138 597 1
139 139 1
139 173 1
139 190 1
139 241 1
139 275 1
139 292 1
139 547 1
139 581 1
139 598 1
140 140 1
140 174 1
140 191 1
140 242 1
140 276 1
140 293 1
140 548 1
140 582 1
140 599 1
141 141 1
141 175 1
141 192 1
141 243 1
141 277 1
141 294 1
141 549 1
141 583 1
141 600 1
142 142 1
142 176 1
142 193 1
142 244 1
142 278 1
142 295 1
142 550 1
142 584 1
142 601 1
143 143 1
143 177 1
143 194 1
143 245 1
143 279 1
143 296 1
143 551 1
143 585 1
143 602 1
144 144 1
144 178 1
144 195 1
144 246 1
144 280 1
144 297 1
144 552 1
144 586 1
144 603 1
145 145 1
145 179 1
145 196 1
145 247 1
145 281 1
145 298 1
145 553 1
145 587 1
145 604 1
146 146 1
146 180 1
146 197 1
146 248 1
146 282 1
146 299 1
146 554 1
146 588 1
146 605 1
147 147 1
147 181 1
147 198 1
147 249 1
147 283 1
147 300 1
147 555 1
147 589 1
147 606 1
148 148 1
148 182 1
148 199 1
148 250 1
148 284 1
148 301 1
148 556 1
148 590 1
148 607 1
149 149 1
149 183 1
149 200 1
149 251 1
149 285 1
149 302 1
149 557 1
149 591 1
149 608 1
150 150 1
150 184 1
150 201 1
150 252 1
150 286 1
150 303 1
150 558 1
150 592 1
150 609 1
151 151 1
151 185 1
151 202 1
151 253 1
151 287 1
151 304 1
151 559 1
151 593 1
151 610 1
152 152 1
152 186 1
152 203 1
152 254 1
152 288 1
152 305 1
152 560 1
152 594 1
152 611 1
153 153 1
153 187 1
153 204 1
153 255 1
153 289 1
153 306 1
153 561 1
153 595 1
153 612 1
154 1 1
154 63 1
154 73 1
154 103 1
154 165 1
154 175 1
154 308 1
154 370 1
154 380 1
155 2 1
155 64 1
155 74 1
155 104 1
155 166 1
155 176 1
155 309 1
155 371 1
155 381 1
156 3 1
156 65 1
156 75 1
156 105 1
156 167 1
156 177 1
156 310 1
156 372 1
156 382 1
157 4 1
157 66 1
157 76 1
157 106 1
157 168 1
157 178 1
157 311 1
157 373 1
157 383 1
158 5 1
158 67 1
158 77 1
158 107 1
158 169 1
158 179 1
158 312 1
158 374 1
158 384 1
159 6 1
159 68 1
159 78 1
159 108 1
159 170 1
159 180 1
159 313 1
159 358 1
159 385 1
160 7 1
160 52 1
160 79 1
160 109 1
160 154 1
160 181 1
160 314 1
160 359 1
160 386 1
161 8 1
161 53 1
161 80 1
161 110 1
161 155 1
161 182 1
161 315 1
161 360 1
161 387 1
162 9 1
162 54 1
162 81 1
162 111 1
162 156 1
162 183 1
162 316 1
162 361 1
162 388 1
163 10 1
163 55 1
163 82 1
163 112 1
163 157 1
163 184 1
163 317 1
163 362 1
163 389 1
164 11 1
164 56 1
164 83 1
164 113 1
164 158 1
164 185 1
164 318 1
164 363 1
164 390 1
165 12 1
165 57 1
165 84 1
165 114 1
165 159 1
165 186 1
165 319 1
165 364 1
165 391 1
166 13 1
166 58 1
166 85 1
166 115 1
166 160 1
166 187 1
166 320 1
166 365 1
166 375 1
167 14 1
167 59 1
167 69 1
167 116 1
167 161 1
167 171 1
167 321 1
167 366 1
167 376 1
168 15 1
168 60 1
168 70 1
168 117 1
168 162 1
168 172 1
168 322 1
168 367 1
168 377 1
169 16 1
169 61 1
169 71 1
169 118 1
169 163 1
169 173 1
169 323 1
169 368 1
169 378 1
170 17 1
170 62 1
170 72 1
170 119 1
170 164 1
170 174 1
170 307 1
170 369 1
170 379 1
171 34 1
171 63 1
171 88 1
171 136 1
171 165 1
171 190 1
171 324 1
171 370 1
171 395 1
172 18 1
172 64 1
172 89 1
172 120 1
172 166 1
172 191 1
172 325 1
172 371 1
172 396 1
173 19 1
173 65 1
173 90 1
173 121 1
173 167 1
173 192 1
173 326 1
173 372 1
173 397 1
174 20 1
174 66 1
174 91 1
174 122 1
174 168 1
174 193 1
174 327 1
174 373 1
174 398 1
175 21 1
175 67 1
175 92 1
175 123 1
175 169 1
175 194 1
175 328 1
175 374 1
175 399 1
176 22 1
176 68 1
176 93 1
176 124 1
176 170 1
176 195 1
176 329 1
176 358 1
176 400 1
177 23 1
177 52 1
177 94 1
177 125 1
177 154 1
177 196 1
177 330 1
177 359 1
177 401 1
178 24 1
178 53 1
178 95 1
178 126 1
178 155 1
178 197 1
178 331 1
178 360 1
178 402 1
179 25 1
179 54 1
179 96 1
179 127 1
179 156 1
179 198 1
179 332 1
179 361 1
179 403 1
180 26 1
180 55 1
180 97 1
180 128 1
180 157 1
180 199 1
180 333 1
180 362 1
180 404 1
181 27 1
181 56 1
181 98 1
181 129 1
181 158 1
181 200 1
181 334 1
181 363 1
181 405 1
182 28 1
182 57 1
182 99 1
182 130 1
182 159 1
182 201 1
182 335 1
182 364 1
182 406 1
183 29 1
183 58 1
183 100 1
183 131 1
183 160 1
183 202 1
183 336 1
183 365 1
183 407 1
184 30 1
184 59 1
184 101 1
184 132 1
184 161 1
184 203 1
184 337 1
184 366 1
184 408 1
185 31 1
185 60 1
185 102 1
185 133 1
185 162 1
185 204 1
185 338 1
185 367 1
185 392 1
186 32 1
186 61 1
186 86 1
186 134 1
186 163 1
186 188 1
186 339 1
186 368 1
186 393 1
187 33 1
187 62 1
187 87 1
187 135 1
187 164 1
187 189 1
187 340 1
187 369 1
187 394 1
188 47 1
188 73 1
188 88 1
188 149 1
188 175 1
188 190 1
188 354 1
188 380 1
188 395 1
189 48 1
189 74 1
189 89 1
189 150 1
189 176 1
189 191 1
189 355 1
189 381 1
189 396 1
190 49 1
190 75 1
190 90 1
190 151 1
190 177 1
190 192 1
190 356 1
190 382 1
190 397 1
191 50 1
191 76 1
191 91 1
191 152 1
191 178 1
191 193 1
191 357 1
191 383 1
191 398 1
192 51 1
192 77 1
192 92 1
192 153 1
192 179 1
192 194 1
192 341 1
192 384 1
192 399 1
193 35 1
193 78 1
193 93 1
193 137 1
193 180 1
193 195 1
193 342 1
193 385 1
193 400 1
194 36 1
194 79 1
194 94 1
194 138 1
194 181 1
194 196 1
194 343 1
194 386 1
194 401 1
195 37 1
195 80 1
195 95 1
195 139 1
195 182 1
195 197 1
195 344 1
195 387 1
195 402 1
196 38 1
196 81 1
196 96 1
196 140 1
196 183 1
196 198 1
196 345 1
196 388 1
196 403 1
197 39 1
197 82 1
197 97 1
197 141 1
197 184 1
197 199 1
197 346 1
197 389 1
197 404 1
198 40 1
198 83 1
198 98 1
198 142 1
198 185 1
198 200 1
198 347 1
198 390 1
198 405 1
199 41 1
199 84 1
199 99 1
199 143 1
199 186 1
199 201 1
199 348 1
199 391 1
199 406 1
200 42 1
200 85 1
200 100 1
200 144 1
200 187 1
200 202 1
200 349 1
200 375 1
200 407 1
201 43 1
201 69 1
201 101 1
201 145 1
201 171 1
201 203 1
201 350 1
201 376 1
201 408 1
202 44 1
202 70 1
202 102 1
202 146 1
202 172 1
202 204 1
202 351 1
202 377 1
202 392 1
203 45 1
203 71 1
203 86 1
203 147 1
203 173 1
203 188 1
203 352 1
203 378 1
203 393 1
204 46 1
204 72 1
204 87 1
204 148 1
204 174 1
204 189 1
204 353 1
204 379 1
204 394 1
205 1 1
205 63 1
205 73 1
205 206 1
205 268 1
205 278 1
205 410 1
205 472 1
205 482 1
206 2 1
206 64 1
206 74 1
206 207 1
206 269 1
206 279 1
206 411 1
206 473 1
206 483 1
207 3 1
207 65 1
207 75 1
207 208 1
207 270 1
207 280 1
207 412 1
207 474 1
207 484 1
208 4 1
208 66 1
208 76 1
208 209 1
208 271 1
208 281 1
208 413 1
208 475 1
208 485 1
209 5 1
209 67 1
209 77 1
209 210 1
209 272 1
209 282 1
209 414 1
209 476 1
209 486 1
210 6 1
210 68 1
210 78 1
210 211 1
210 256 1
210 283 1
210 415 1
210 460 1
210 487 1
211 7 1
211 52 1
211 79 1
211 212 1
211 257 1
211 284 1
211 416 1
211 461 1
211 488 1
212 8 1
212 53 1
212 80 1
212 213 1
212 258 1
212 285 1
212 417 1
212 462 1
212 489 1
213 9 1
213 54 1
213 81 1
213 214 1
213 259 1
213 286 1
213 418 1
213 463 1
213 490 1
214 10 1
214 55 1
214 82 1
214 215 1
214 260 1
214 287 1
214 419 1
214 464 1
214 491 1
215 11 1
215 56 1
215 83 1
215 216 1
215 261 1
215 288 1
215 420 1
215 465 1
215 492 1
216 12 1
216 57 1
216 84 1
216 217 1
216 262 1
216 289 1
216 421 1
216 466 1
216 493 1
217 13 1
217 58 1
217 85 1
217 218 1
217 263 1
217 273 1
217 422 1
217 467 1
217 477 1
218 14 1
218 59 1
218 69 1
218 219 1
218 264 1
218 274 1
218 423 1
218 468 1
218 478 1
219 15 1
219 60 1
219 70 1
219 220 1
219 265 1
219 275 1
219 424 1
219 469 1
219 479 1
220 16 1
220 61 1
220 71 1
220 221 1
220 266 1
220 276 1
220 425 1
220 470 1
220 480 1
221 17 1
221 62 1
221 72 1
221 205 1
221 267 1
221 277 1
221 409 1
221 471 1
221 481 1
222 34 1
222 63 1
222 88 1
222 222 1
222 268 1
222 293 1
222 426 1
222 472 1
222 497 1
223 18 1
223 64 1
223 89 1
223 223 1
223 269 1
223 294 1
223 427 1
223 473 1
223 498 1
224 19 1
224 65 1
224 90 1
224 224 1
224 270 1
224 295 1
224 428 1
224 474 1
224 499 1
225 20 1
225 66 1
225 91 1
225 225 1
225 271 1
225 296 1
225 429 1
225 475 1
225 500 1
226 21 1
226 67 1
226 92 1
226 226 1
226 272 1
226 297 1
226 430 1
226 476 1
226 501 1
227 22 1
227 68 1
227 93 1
227 227 1
227 256 1
227 298 1
227 431 1
227 460 1
227 502 1
228 23 1
228 52 1
228 94 1
228 228 1
228 257 1
228 299 1
228 432 1
228 461 1
228 503 1
229 24 1
229 53 1
229 95 1
229 229 1
229 258 1
229 300 1
229 433 1
229 462 1
229 504 1
230 25 1
230 54 1
230 96 1
230 230 1
230 259 1
230 301 1
230 434 1
230 463 1
230 505 1
231 26 1
231 55 1
231 97 1
231 231 1
231 260 1
231 302 1
231 435 1
231 464 1
231 506 1
232 27 1
232 56 1
232 98 1
232 232 1
232 261 1
232 303 1
232 436 1
232 465 1
232 507 1
233 28 1
233 57 1
233 99 1
233 233 1
233 262 1
233 304 1
233 437 1
233 466 1
233 508 1
234 29 1
234 58 1
234 100 1
234 234 1
234 263 1
234 305 1
234 438 1
234 467 1
234 509 1
235 30 1
235 59 1
235 101 1
235 235 1
235 264 1
235 306 1
235 439 1
235 468 1
235 510 1
236 31 1
236 60 1
236 102 1
236 236 1
236 265 1
236 290 1
236 440 1
236 469 1
236 494 1
237 32 1
237 61 1
237 86 1
237 237 1
237 266 1
237 291 1
237 441 1
237 470 1
237 495 1
238 33 1
238 62 1
238 87 1
238 238 1
238 267 1
238 292 1
238 442 1
238 471 1
238 496 1
239 47 1
239 73 1
239 88 1
239 252 1
239 278 1
239 293 1
239 456 1
239 482 1
239 497 1
240 48 1
240 74 1
240 89 1
240 253 1
240 279 1
240 294 1
240 457 1
240 483 1
240 498 1
241 49 1
241 75 1
241 90 1
241 254 1
241 280 1
241 295 1
241 458 1
241 484 1
241 499 1
242 50 1
242 76 1
242 91 1
242 255 1
242 281 1
242 296 1
242 459 1
242 485 1
242 500 1
243 51 1
243 77 1
243 92 1
243 239 1
243 282 1
243 297 1
243 443 1
243 486 1
243 501 1
244 35 1
244 78 1
244 93 1
244 240 1
244 283 1
244 298 1
244 444 1
244 487 1
244 502 1
245 36 1
245 79 1
245 94 1
245 241 1
245 284 1
245 299 1
245 445 1
245 488 1
245 503 1
246 37 1
246 80 1
246 95 1
246 242 1
246 285 1
246 300 1
246 446 1
246 489 1
246 504 1
247 38 1
247 81 1
247 96 1
247 243 1
247 286 1
247 301 1
247 447 1
247 490 1
247 505 1
248 39 1
248 82 1
248 97 1
248 244 1
248 287 1
248 302 1
248 448 1
248 491 1
248 506 1
249 40 1
249 83 1
249 98 1
249 245 1
249 288 1
249 303 1
249 449 1
249 492 1
249 507 1
250 41 1
250 84 1
250 99 1
250 246 1
250 289 1
250 304 1
250 450 1
250 493 1
250 508 1
251 42 1
251 85 1
251 100 1
251 247 1
251 273 1
251 305 1
251 451 1
251 477 1
251 509 1
252 43 1
252 69 1
252 101 1
252 248 1
252 274 1
252 306 1
252 452 1
252 478 1
252 510 1
253 44 1
253 70 1
253 102 1
253 249 1
253 275 1
253 290 1
253 453 1
253 479 1
253 494 1
254 45 1
254 71 1
254 86 1
254 250 1
254 276 1
254 291 1
254 454 1
254 480 1
254 495 1
255 46 1
255 72 1
255 87 1
255 251 1
255 277 1
255 292 1
255 455 1
255 481 1
255 496 1
256 103 1
256 165 1
256 175 1
256 206 1
256 268 1
256 278 1
256 521 1
256 566 1
256 593 1
257 104 1
257 166 1
257 176 1
257 207 1
257 269 1
257 279 1
257 522 1
257 567 1
257 594 1
258 105 1
258 167 1
258 177 1
258 208 1
258 270 1
258 280 1
258 523 1
258 568 1
258 595 1
259 106 1
259 168 1
259 178 1
259 209 1
259 271 1
259 281 1
259 524 1
259 569 1
259 579 1
260 107 1
260 169 1
260 179 1
260 210 1
260 272 1
260 282 1
260 525 1
260 570 1
260 580 1
261 108 1
261 170 1
261 180 1
261 211 1
261 256 1
261 283 1
261 526 1
261 571 1
261 581 1
262 109 1
262 154 1
262 181 1
262 212 1
262 257 1
262 284 1
262 527 1
262 572 1
262 582 1
263 110 1
263 155 1
263 182 1
263 213 1
263 258 1
263 285 1
263 511 1
263 573 1
263 583 1
264 111 1
264 156 1
264 183 1
264 214 1
264 259 1
264 286 1
264 512 1
264 574 1
264 584 1
265 112 1
265 157 1
265 184 1
265 215 1
265 260 1
265 287 1
265 513 1
265 575 1
265 585 1
266 113 1
266 158 1
266 185 1
266 216 1
266 261 1
266 288 1
266 514 1
266 576 1
266 586 1
267 114 1
267 159 1
267 186 1
267 217 1
267 262 1
267 289 1
267 515 1
267 577 1
267 587 1
268 115 1
268 160 1
268 187 1
268 218 1
268 263 1
268 273 1
268 516 1
268 578 1
268 588 1
269 116 1
269 161 1
269 171 1
269 219 1
269 264 1
269 274 1
269 517 1
269 562 1
269 589 1
270 117 1
270 162 1
270 172 1
270 220 1
270 265 1
270 275 1
270 518 1
270 563 1
270 590 1
271 118 1
271 163 1
271 173 1
271 221 1
271 266 1
271 276 1
271 519 1
271 564 1
271 591 1
272 119 1
272 164 1
272 174 1
272 205 1
272 267 1
272 277 1
272 520 1
272 565 1
272 592 1
273 136 1
273 165 1
273 190 1
273 222 1
273 268 1
273 293 1
273 537 1
273 566 1
273 608 1
274 120 1
274 166 1
274 191 1
274 223 1
274 269 1
274 294 1
274 538 1
274 567 1
274 609 1
275 121 1
275 167 1
275 192 1
275 224 1
275 270 1
275 295 1
275 539 1
275 568 1
275 610 1
276 122 1
276 168 1
276 193 1
276 225 1
276 271 1
276 296 1
276 540 1
276 569 1
276 611 1
277 123 1
277 169 1
277 194 1
277 226 1
277 272 1
277 297 1
277 541 1
277 570 1
277 612 1
278 124 1
278 170 1
278 195 1
278 227 1
278 256 1
278 298 1
278 542 1
278 571 1
278 596 1
279 125 1
279 154 1
279 196 1
279 228 1
279 257 1
279 299 1
279 543 1
279 572 1
279 597 1
280 126 1
280 155 1
280 197 1
280 229 1
280 258 1
280 300 1
280 544 1
280 573 1
280 598 1
281 127 1
281 156 1
281 198 1
281 230 1
281 259 1
281 301 1
281 528 1
281 574 1
281 599 1
282 128 1
282 157 1
282 199 1
282 231 1
282 260 1
282 302 1
282 529 1
282 575 1
282 600 1
283 129 1
283 158 1
283 200 1
283 232 1
283 261 1
283 303 1
283 530 1
283 576 1
283 601 1
284 130 1
284 159 1
284 201 1
284 233 1
284 262 1
284 304 1
284 531 1
284 577 1
284 602 1
285 131 1
285 160 1
285 202 1
285 234 1
285 263 1
285 305 1
285 532 1
285 578 1
285 603 1
286 132 1
286 161 1
286 203 1
286 235 1
286 264 1
286 306 1
286 533 1
286 562 1
286 604 1
287 133 1
287 162 1
287 204 1
287 236 1
287 265 1
287 290 1
287 534 1
287 563 1
287 605 1
288 134 1
288 163 1
288 188 1
288 237 1
288 266 1
288 291 1
288 535 1
288 564 1
288 606 1
289 135 1
289 164 1
289 189 1
289 238 1
289 267 1
289 292 1
289 536 1
289 565 1
289 607 1
290 149 1
290 175 1
290 190 1
290 252 1
290 278 1
290 293 1
290 550 1
290 593 1
290 608 1
291 150 1
291 176 1
291 191 1
291 253 1
291 279 1
291 294 1
291 551 1
291 594 1
291 609 1
292 151 1
292 177 1
292 192 1
292 254 1
292 280 1
292 295 1
292 552 1
292 595 1
292 610 1
293 152 1
293 178 1
293 193 1
293 255 1
293 281 1
293 296 1
293 553 1
293 579 1
293 611 1
294 153 1
294 179 1
294 194 1
294 239 1
294 282 1
294 297 1
294 554 1
294 580 1
294 612 1
295 137 1
295 180 1
295 195 1
295 240 1
295 283 1
295 298 1
295 555 1
295 581 1
295 596 1
296 138 1
296 181 1
296 196 1
296 241 1
296 284 1
296 299 1
296 556 1
296 582 1
296 597 1
297 139 1
297 182 1
297 197 1
297 242 1
297 285 1
297 300 1
297 557 1
297 583 1
297 598 1
298 140 1
298 183 1
298 198 1
298 243 1
298 286 1
298 301 1
298 558 1
298 584 1
298 599 1
299 141 1
299 184 1
299 199 1
299 244 1
299 287 1
299 302 1
299 559 1
299 585 1
299 600 1
300 142 1
300 185 1
300 200 1
300 245 1
300 288 1
300 303 1
300 560 1
300 586 1
300 601 1
301 143 1
301 186 1
301 201 1
301 246 1
301 289 1
301 304 1
301 561 1
301 587 1
301 602 1
302 144 1
302 187 1
302 202 1
302 247 1
302 273 1
302 305 1
302 545 1
302 588 1
302 603 1
303 145 1
303 171 1
303 203 1
303 248 1
303 274 1
303 306 1
303 546 1
303 589 1
303 604 1
304 146 1
304 172 1
304 204 1
304 249 1
304 275 1
304 290 1
304 547 1
304 590 1
304 605 1
305 147 1
305 173 1
305 188 1
305 250 1
305 276 1
305 291 1
305 548 1
305 591 1
305 606 1
306 148 1
306 174 1
306 189 1
306 251 1
306 277 1
306 292 1
306 549 1
306 592 1
306 607 1
