%%MatrixMarket matrix coordinate integer general
324 648 2916
1 1 1
1 41 1
1 106 1
1 325 1
1 365 1
1 430 1
1 433 1
1 473 1
1 538 1
2 2 1
2 39 1
2 104 1
2 326 1
2 363 1
2 428 1
2 434 1
2 471 1
2 536 1
3 3 1
3 38 1
3 102 1
3 327 1
3 362 1
3 426 1
3 435 1
3 470 1
3 534 1
4 4 1
4 52 1
4 101 1
4 328 1
4 376 1
4 425 1
4 436 1
4 484 1
4 533 1
5 5 1
5 37 1
5 99 1
5 329 1
5 361 1
5 423 1
5 437 1
5 469 1
5 531 1
6 6 1
6 50 1
6 98 1
6 330 1
6 374 1
6 422 1
6 438 1
6 482 1
6 530 1
7 7 1
7 54 1
7 105 1
7 331 1
7 378 1
7 429 1
7 439 1
7 486 1
7 537 1
8 8 1
8 48 1
8 96 1
8 332 1
8 372 1
8 420 1
8 440 1
8 480 1
8 528 1
9 9 1
9 47 1
9 95 1
9 333 1
9 371 1
9 419 1
9 441 1
9 479 1
9 527 1
10 10 1
10 53 1
10 103 1
10 334 1
10 377 1
10 427 1
10 442 1
10 485 1
10 535 1
11 11 1
11 45 1
11 94 1
11 335 1
11 369 1
11 418 1
11 443 1
11 477 1
11 526 1
12 12 1
12 44 1
12 93 1
12 336 1
12 368 1
12 417 1
12 444 1
12 476 1
12 525 1
13 13 1
13 51 1
13 100 1
13 337 1
13 375 1
13 424 1
13 445 1
13 483 1
13 532 1
14 14 1
14 42 1
14 92 1
14 338 1
14 366 1
14 416 1
14 446 1
14 474 1
14 524 1
15 15 1
15 49 1
15 97 1
15 339 1
15 373 1
15 421 1
15 447 1
15 481 1
15 529 1
16 16 1
16 40 1
16 91 1
16 340 1
16 364 1
16 415 1
16 448 1
16 472 1
16 523 1
17 17 1
17 46 1
17 108 1
17 341 1
17 370 1
17 432 1
17 449 1
17 478 1
17 540 1
18 18 1
18 43 1
18 107 1
18 342 1
18 367 1
18 431 1
18 450 1
18 475 1
18 539 1
19 1 1
19 59 1
19 84 1
19 325 1
19 383 1
19 408 1
19 433 1
19 491 1
19 516 1
20 2 1
20 57 1
20 81 1
20 326 1
20 381 1
20 405 1
20 434 1
20 489 1
20 513 1
21 3 1
21 56 1
21 87 1
21 327 1
21 380 1
21 411 1
21 435 1
21 488 1
21 519 1
22 4 1
22 70 1
22 78 1
22 328 1
22 394 1
22 402 1
22 436 1
22 502 1
22 510 1
23 5 1
23 55 1
23 85 1
23 329 1
23 379 1
23 409 1
23 437 1
23 487 1
23 517 1
24 6 1
24 68 1
24 76 1
24 330 1
24 392 1
24 400 1
24 438 1
24 500 1
24 508 1
25 7 1
25 72 1
25 83 1
25 331 1
25 396 1
25 407 1
25 439 1
25 504 1
25 515 1
26 8 1
26 66 1
26 82 1
26 332 1
26 390 1
26 406 1
26 440 1
26 498 1
26 514 1
27 9 1
27 65 1
27 74 1
27 333 1
27 389 1
27 398 1
27 441 1
27 497 1
27 506 1
28 10 1
28 71 1
28 80 1
28 334 1
28 395 1
28 404 1
28 442 1
28 503 1
28 512 1
29 11 1
29 63 1
29 79 1
29 335 1
29 387 1
29 403 1
29 443 1
29 495 1
29 511 1
30 12 1
30 62 1
30 73 1
30 336 1
30 386 1
30 397 1
30 444 1
30 494 1
30 505 1
31 13 1
31 69 1
31 77 1
31 337 1
31 393 1
31 401 1
31 445 1
31 501 1
31 509 1
32 14 1
32 60 1
32 90 1
32 338 1
32 384 1
32 414 1
32 446 1
32 492 1
32 522 1
33 15 1
33 67 1
33 75 1
33 339 1
33 391 1
33 399 1
33 447 1
33 499 1
33 507 1
34 16 1
34 58 1
34 89 1
34 340 1
34 382 1
34 413 1
34 448 1
34 490 1
34 521 1
35 17 1
35 64 1
35 88 1
35 341 1
35 388 1
35 412 1
35 449 1
35 496 1
35 520 1
36 18 1
36 61 1
36 86 1
36 342 1
36 385 1
36 410 1
36 450 1
36 493 1
36 518 1
37 20 1
37 41 1
37 84 1
37 344 1
37 365 1
37 408 1
37 452 1
37 473 1
37 516 1
38 19 1
38 39 1
38 81 1
38 343 1
38 363 1
38 405 1
38 451 1
38 471 1
38 513 1
39 36 1
39 38 1
39 87 1
39 360 1
39 362 1
39 411 1
39 468 1
39 470 1
39 519 1
40 30 1
40 52 1
40 78 1
40 354 1
40 376 1
40 402 1
40 462 1
40 484 1
40 510 1
41 35 1
41 37 1
41 85 1
41 359 1
41 361 1
41 409 1
41 467 1
41 469 1
41 517 1
42 27 1
42 50 1
42 76 1
42 351 1
42 374 1
42 400 1
42 459 1
42 482 1
42 508 1
43 34 1
43 54 1
43 83 1
43 358 1
43 378 1
43 407 1
43 466 1
43 486 1
43 515 1
44 33 1
44 48 1
44 82 1
44 357 1
44 372 1
44 406 1
44 465 1
44 480 1
44 514 1
45 24 1
45 47 1
45 74 1
45 348 1
45 371 1
45 398 1
45 456 1
45 479 1
45 506 1
46 32 1
46 53 1
46 80 1
46 356 1
46 377 1
46 404 1
46 464 1
46 485 1
46 512 1
47 31 1
47 45 1
47 79 1
47 355 1
47 369 1
47 403 1
47 463 1
47 477 1
47 511 1
48 22 1
48 44 1
48 73 1
48 346 1
48 368 1
48 397 1
48 454 1
48 476 1
48 505 1
49 29 1
49 51 1
49 77 1
49 353 1
49 375 1
49 401 1
49 461 1
49 483 1
49 509 1
50 28 1
50 42 1
50 90 1
50 352 1
50 366 1
50 414 1
50 460 1
50 474 1
50 522 1
51 26 1
51 49 1
51 75 1
51 350 1
51 373 1
51 399 1
51 458 1
51 481 1
51 507 1
52 25 1
52 40 1
52 89 1
52 349 1
52 364 1
52 413 1
52 457 1
52 472 1
52 521 1
53 23 1
53 46 1
53 88 1
53 347 1
53 370 1
53 412 1
53 455 1
53 478 1
53 520 1
54 21 1
54 43 1
54 86 1
54 345 1
54 367 1
54 410 1
54 453 1
54 475 1
54 518 1
55 109 1
55 149 1
55 214 1
55 325 1
55 365 1
55 430 1
55 541 1
55 581 1
55 646 1
56 110 1
56 147 1
56 212 1
56 326 1
56 363 1
56 428 1
56 542 1
56 579 1
56 644 1
57 111 1
57 146 1
57 210 1
57 327 1
57 362 1
57 426 1
57 543 1
57 578 1
57 642 1
58 112 1
58 160 1
58 209 1
58 328 1
58 376 1
58 425 1
58 544 1
58 592 1
58 641 1
59 113 1
59 145 1
59 207 1
59 329 1
59 361 1
59 423 1
59 545 1
59 577 1
59 639 1
60 114 1
60 158 1
60 206 1
60 330 1
60 374 1
60 422 1
60 546 1
60 590 1
60 638 1
61 115 1
61 162 1
61 213 1
61 331 1
61 378 1
61 429 1
61 547 1
61 594 1
61 645 1
62 116 1
62 156 1
62 204 1
62 332 1
62 372 1
62 420 1
62 548 1
62 588 1
62 636 1
63 117 1
63 155 1
63 203 1
63 333 1
63 371 1
63 419 1
63 549 1
63 587 1
63 635 1
64 118 1
64 161 1
64 211 1
64 334 1
64 377 1
64 427 1
64 550 1
64 593 1
64 643 1
65 119 1
65 153 1
65 202 1
65 335 1
65 369 1
65 418 1
65 551 1
65 585 1
65 634 1
66 120 1
66 152 1
66 201 1
66 336 1
66 368 1
66 417 1
66 552 1
66 584 1
66 633 1
67 121 1
67 159 1
67 208 1
67 337 1
67 375 1
67 424 1
67 553 1
67 591 1
67 640 1
68 122 1
68 150 1
68 200 1
68 338 1
68 366 1
68 416 1
68 554 1
68 582 1
68 632 1
69 123 1
69 157 1
69 205 1
69 339 1
69 373 1
69 421 1
69 555 1
69 589 1
69 637 1
70 124 1
70 148 1
70 199 1
70 340 1
70 364 1
70 415 1
70 556 1
70 580 1
70 631 1
71 125 1
71 154 1
71 216 1
71 341 1
71 370 1
71 432 1
71 557 1
71 586 1
71 648 1
72 126 1
72 151 1
72 215 1
72 342 1
72 367 1
72 431 1
72 558 1
72 583 1
72 647 1
73 109 1
73 167 1
73 192 1
73 325 1
73 383 1
73 408 1
73 541 1
73 599 1
73 624 1
74 110 1
74 165 1
74 189 1
74 326 1
74 381 1
74 405 1
74 542 1
74 597 1
74 621 1
75 111 1
75 164 1
75 195 1
75 327 1
75 380 1
75 411 1
75 543 1
75 596 1
75 627 1
76 112 1
76 178 1
76 186 1
76 328 1
76 394 1
76 402 1
76 544 1
76 610 1
76 618 1
77 113 1
77 163 1
77 193 1
77 329 1
77 379 1
77 409 1
77 545 1
77 595 1
77 625 1
78 114 1
78 176 1
78 184 1
78 330 1
78 392 1
78 400 1
78 546 1
78 608 1
78 616 1
79 115 1
79 180 1
79 191 1
79 331 1
79 396 1
79 407 1
79 547 1
79 612 1
79 623 1
80 116 1
80 174 1
80 190 1
80 332 1
80 390 1
80 406 1
80 548 1
80 606 1
80 622 1
81 117 1
81 173 1
81 182 1
81 333 1
81 389 1
81 398 1
81 549 1
81 605 1
81 614 1
82 118 1
82 179 1
82 188 1
82 334 1
82 395 1
82 404 1
82 550 1
82 611 1
82 620 1
83 119 1
83 171 1
83 187 1
83 335 1
83 387 1
83 403 1
83 551 1
83 603 1
83 619 1
84 120 1
84 170 1
84 181 1
84 336 1
84 386 1
84 397 1
84 552 1
84 602 1
84 613 1
85 121 1
85 177 1
85 185 1
85 337 1
85 393 1
85 401 1
85 553 1
85 609 1
85 617 1
86 122 1
86 168 1
86 198 1
86 338 1
86 384 1
86 414 1
86 554 1
86 600 1
86 630 1
87 123 1
87 175 1
87 183 1
87 339 1
87 391 1
87 399 1
87 555 1
87 607 1
87 615 1
88 124 1
88 166 1
88 197 1
88 340 1
88 382 1
88 413 1
88 556 1
88 598 1
88 629 1
89 125 1
89 172 1
89 196 1
89 341 1
89 388 1
89 412 1
89 557 1
89 604 1
89 628 1
90 126 1
90 169 1
90 194 1
90 342 1
90 385 1
90 410 1
90 558 1
90 601 1
90 626 1
91 128 1
91 149 1
91 192 1
91 344 1
91 365 1
91 408 1
91 560 1
91 581 1
91 624 1
92 127 1
92 147 1
92 189 1
92 343 1
92 363 1
92 405 1
92 559 1
92 579 1
92 621 1
93 144 1
93 146 1
93 195 1
93 360 1
93 362 1
93 411 1
93 576 1
93 578 1
93 627 1
94 138 1
94 160 1
94 186 1
94 354 1
94 376 1
94 402 1
94 570 1
94 592 1
94 618 1
95 143 1
95 145 1
95 193 1
95 359 1
95 361 1
95 409 1
95 575 1
95 577 1
95 625 1
96 135 1
96 158 1
96 184 1
96 351 1
96 374 1
96 400 1
96 567 1
96 590 1
96 616 1
97 142 1
97 162 1
97 191 1
97 358 1
97 378 1
97 407 1
97 574 1
97 594 1
97 623 1
98 141 1
98 156 1
98 190 1
98 357 1
98 372 1
98 406 1
98 573 1
98 588 1
98 622 1
99 132 1
99 155 1
99 182 1
99 348 1
99 371 1
99 398 1
99 564 1
99 587 1
99 614 1
100 140 1
100 161 1
100 188 1
100 356 1
100 377 1
100 404 1
100 572 1
100 593 1
100 620 1
101 139 1
101 153 1
101 187 1
101 355 1
101 369 1
101 403 1
101 571 1
101 585 1
101 619 1
102 130 1
102 152 1
102 181 1
102 346 1
102 368 1
102 397 1
102 562 1
102 584 1
102 613 1
103 137 1
103 159 1
103 185 1
103 353 1
103 375 1
103 401 1
103 569 1
103 591 1
103 617 1
104 136 1
104 150 1
104 198 1
104 352 1
104 366 1
104 414 1
104 568 1
104 582 1
104 630 1
105 134 1
105 157 1
105 183 1
105 350 1
105 373 1
105 399 1
105 566 1
105 589 1
105 615 1
106 133 1
106 148 1
106 197 1
106 349 1
106 364 1
106 413 1
106 565 1
106 580 1
106 629 1
107 131 1
107 154 1
107 196 1
107 347 1
107 370 1
107 412 1
107 563 1
107 586 1
107 628 1
108 129 1
108 151 1
108 194 1
108 345 1
108 367 1
108 410 1
108 561 1
108 583 1
108 626 1
109 217 1
109 257 1
109 322 1
109 433 1
109 473 1
109 538 1
109 541 1
109 581 1
109 646 1
110 218 1
110 255 1
110 320 1
110 434 1
110 471 1
110 536 1
110 542 1
110 579 1
110 644 1
111 219 1
111 254 1
111 318 1
111 435 1
111 470 1
111 534 1
111 543 1
111 578 1
111 642 1
112 220 1
112 268 1
112 317 1
112 436 1
112 484 1
112 533 1
112 544 1
112 592 1
112 641 1
113 221 1
113 253 1
113 315 1
113 437 1
113 469 1
113 531 1
113 545 1
113 577 1
113 639 1
114 222 1
114 266 1
114 314 1
114 438 1
114 482 1
114 530 1
114 546 1
114 590 1
114 638 1
115 223 1
115 270 1
115 321 1
115 439 1
115 486 1
115 537 1
115 547 1
115 594 1
115 645 1
116 224 1
116 264 1
116 312 1
116 440 1
116 480 1
116 528 1
116 548 1
116 588 1
116 636 1
117 225 1
117 263 1
117 311 1
117 441 1
117 479 1
117 527 1
117 549 1
117 587 1
117 635 1
118 226 1
118 269 1
118 319 1
118 442 1
118 485 1
118 535 1
118 550 1
118 593 1
118 643 1
119 227 1
119 261 1
119 310 1
119 443 1
119 477 1
119 526 1
119 551 1
119 585 1
119 634 1
120 228 1
120 260 1
120 309 1
120 444 1
120 476 1
120 525 1
120 552 1
120 584 1
120 633 1
121 229 1
121 267 1
121 316 1
121 445 1
121 483 1
121 532 1
121 553 1
121 591 1
121 640 1
122 230 1
122 258 1
122 308 1
122 446 1
122 474 1
122 524 1
122 554 1
122 582 1
122 632 1
123 231 1
123 265 1
123 313 1
123 447 1
123 481 1
123 529 1
123 555 1
123 589 1
123 637 1
124 232 1
124 256 1
124 307 1
124 448 1
124 472 1
124 523 1
124 556 1
124 580 1
124 631 1
125 233 1
125 262 1
125 324 1
125 449 1
125 478 1
125 540 1
125 557 1
125 586 1
125 648 1
126 234 1
126 259 1
126 323 1
126 450 1
126 475 1
126 539 1
126 558 1
126 583 1
126 647 1
127 217 1
127 275 1
127 300 1
127 433 1
127 491 1
127 516 1
127 541 1
127 599 1
127 624 1
128 218 1
128 273 1
128 297 1
128 434 1
128 489 1
128 513 1
128 542 1
128 597 1
128 621 1
129 219 1
129 272 1
129 303 1
129 435 1
129 488 1
129 519 1
129 543 1
129 596 1
129 627 1
130 220 1
130 286 1
130 294 1
130 436 1
130 502 1
130 510 1
130 544 1
130 610 1
130 618 1
131 221 1
131 271 1
131 301 1
131 437 1
131 487 1
131 517 1
131 545 1
131 595 1
131 625 1
132 222 1
132 284 1
132 292 1
132 438 1
132 500 1
132 508 1
132 546 1
132 608 1
132 616 1
133 223 1
133 288 1
133 299 1
133 439 1
133 504 1
133 515 1
133 547 1
133 612 1
133 623 1
134 224 1
134 282 1
134 298 1
134 440 1
134 498 1
134 514 1
134 548 1
134 606 1
134 622 1
135 225 1
135 281 1
135 290 1
135 441 1
135 497 1
135 506 1
135 549 1
135 605 1
135 614 1
136 226 1
136 287 1
136 296 1
136 442 1
136 503 1
136 512 1
136 550 1
136 611 1
136 620 1
137 227 1
137 279 1
137 295 1
137 443 1
137 495 1
137 511 1
137 551 1
137 603 1
137 619 1
138 228 1
138 278 1
138 289 1
138 444 1
138 494 1
138 505 1
138 552 1
138 602 1
138 613 1
139 229 1
139 285 1
139 293 1
139 445 1
139 501 1
139 509 1
139 553 1
139 609 1
139 617 1
140 230 1
140 276 1
140 306 1
140 446 1
140 492 1
140 522 1
140 554 1
140 600 1
140 630 1
141 231 1
141 283 1
141 291 1
141 447 1
141 499 1
141 507 1
141 555 1
141 607 1
141 615 1
142 232 1
142 274 1
142 305 1
142 448 1
142 490 1
142 521 1
142 556 1
142 598 1
142 629 1
143 233 1
143 280 1
143 304 1
143 449 1
143 496 1
143 520 1
143 557 1
143 604 1
143 628 1
144 234 1
144 277 1
144 302 1
144 450 1
144 493 1
144 518 1
144 558 1
144 601 1
144 626 1
145 236 1
145 257 1
145 300 1
145 452 1
145 473 1
145 516 1
145 560 1
145 581 1
145 624 1
146 235 1
146 255 1
146 297 1
146 451 1
146 471 1
146 513 1
146 559 1
146 579 1
146 621 1
147 252 1
147 254 1
147 303 1
147 468 1
147 470 1
147 519 1
147 576 1
147 578 1
147 627 1
148 246 1
148 268 1
148 294 1
148 462 1
148 484 1
148 510 1
148 570 1
148 592 1
148 618 1
149 251 1
149 253 1
149 301 1
149 467 1
149 469 1
149 517 1
149 575 1
149 577 1
149 625 1
150 243 1
150 266 1
150 292 1
150 459 1
150 482 1
150 508 1
150 567 1
150 590 1
150 616 1
151 250 1
151 270 1
151 299 1
151 466 1
151 486 1
151 515 1
151 574 1
151 594 1
151 623 1
152 249 1
152 264 1
152 298 1
152 465 1
152 480 1
152 514 1
152 573 1
152 588 1
152 622 1
153 240 1
153 263 1
153 290 1
153 456 1
153 479 1
153 506 1
153 564 1
153 587 1
153 614 1
154 248 1
154 269 1
154 296 1
154 464 1
154 485 1
154 512 1
154 572 1
154 593 1
154 620 1
155 247 1
155 261 1
155 295 1
155 463 1
155 477 1
155 511 1
155 571 1
155 585 1
155 619 1
156 238 1
156 260 1
156 289 1
156 454 1
156 476 1
156 505 1
156 562 1
156 584 1
156 613 1
157 245 1
157 267 1
157 293 1
157 461 1
157 483 1
157 509 1
157 569 1
157 591 1
157 617 1
158 244 1
158 258 1
158 306 1
158 460 1
158 474 1
158 522 1
158 568 1
158 582 1
158 630 1
159 242 1
159 265 1
159 291 1
159 458 1
159 481 1
159 507 1
159 566 1
159 589 1
159 615 1
160 241 1
160 256 1
160 305 1
160 457 1
160 472 1
160 521 1
160 565 1
160 580 1
160 629 1
161 239 1
161 262 1
161 304 1
161 455 1
161 478 1
161 520 1
161 563 1
161 586 1
161 628 1
162 237 1
162 259 1
162 302 1
162 453 1
162 475 1
162 518 1
162 561 1
162 583 1
162 626 1
163 1 1
163 19 1
163 55 1
163 448 1
163 466 1
163 502 1
163 557 1
163 575 1
163 611 1
164 2 1
164 20 1
164 56 1
164 439 1
164 457 1
164 493 1
164 545 1
164 563 1
164 599 1
165 3 1
165 21 1
165 57 1
165 450 1
165 468 1
165 504 1
165 541 1
165 559 1
165 595 1
166 4 1
166 22 1
166 58 1
166 437 1
166 455 1
166 491 1
166 547 1
166 565 1
166 601 1
167 5 1
167 23 1
167 59 1
167 436 1
167 454 1
167 490 1
167 550 1
167 568 1
167 604 1
168 6 1
168 24 1
168 60 1
168 445 1
168 463 1
168 499 1
168 551 1
168 569 1
168 605 1
169 7 1
169 25 1
169 61 1
169 434 1
169 452 1
169 488 1
169 543 1
169 561 1
169 597 1
170 8 1
170 26 1
170 62 1
170 442 1
170 460 1
170 496 1
170 544 1
170 562 1
170 598 1
171 9 1
171 27 1
171 63 1
171 443 1
171 461 1
171 497 1
171 553 1
171 571 1
171 607 1
172 10 1
172 28 1
172 64 1
172 440 1
172 458 1
172 494 1
172 546 1
172 564 1
172 600 1
173 11 1
173 29 1
173 65 1
173 441 1
173 459 1
173 495 1
173 555 1
173 573 1
173 609 1
174 12 1
174 30 1
174 66 1
174 449 1
174 467 1
174 503 1
174 556 1
174 574 1
174 610 1
175 13 1
175 31 1
175 67 1
175 438 1
175 456 1
175 492 1
175 548 1
175 566 1
175 602 1
176 14 1
176 32 1
176 68 1
176 447 1
176 465 1
176 501 1
176 549 1
176 567 1
176 603 1
177 15 1
177 33 1
177 69 1
177 446 1
177 464 1
177 500 1
177 552 1
177 570 1
177 606 1
178 16 1
178 34 1
178 70 1
178 433 1
178 451 1
178 487 1
178 558 1
178 576 1
178 612 1
179 17 1
179 35 1
179 71 1
179 444 1
179 462 1
179 498 1
179 554 1
179 572 1
179 608 1
180 18 1
180 36 1
180 72 1
180 435 1
180 453 1
180 489 1
180 542 1
180 560 1
180 596 1
181 1 1
181 37 1
181 73 1
181 448 1
181 484 1
181 520 1
181 557 1
181 593 1
181 629 1
182 2 1
182 38 1
182 74 1
182 439 1
182 475 1
182 511 1
182 545 1
182 581 1
182 617 1
183 3 1
183 39 1
183 75 1
183 450 1
183 486 1
183 522 1
183 541 1
183 577 1
183 613 1
184 4 1
184 40 1
184 76 1
184 437 1
184 473 1
184 509 1
184 547 1
184 583 1
184 619 1
185 5 1
185 41 1
185 77 1
185 436 1
185 472 1
185 508 1
185 550 1
185 586 1
185 622 1
186 6 1
186 42 1
186 78 1
186 445 1
186 481 1
186 517 1
186 551 1
186 587 1
186 623 1
187 7 1
187 43 1
187 79 1
187 434 1
187 470 1
187 506 1
187 543 1
187 579 1
187 615 1
188 8 1
188 44 1
188 80 1
188 442 1
188 478 1
188 514 1
188 544 1
188 580 1
188 616 1
189 9 1
189 45 1
189 81 1
189 443 1
189 479 1
189 515 1
189 553 1
189 589 1
189 625 1
190 10 1
190 46 1
190 82 1
190 440 1
190 476 1
190 512 1
190 546 1
190 582 1
190 618 1
191 11 1
191 47 1
191 83 1
191 441 1
191 477 1
191 513 1
191 555 1
191 591 1
191 627 1
192 12 1
192 48 1
192 84 1
192 449 1
192 485 1
192 521 1
192 556 1
192 592 1
192 628 1
193 13 1
193 49 1
193 85 1
193 438 1
193 474 1
193 510 1
193 548 1
193 584 1
193 620 1
194 14 1
194 50 1
194 86 1
194 447 1
194 483 1
194 519 1
194 549 1
194 585 1
194 621 1
195 15 1
195 51 1
195 87 1
195 446 1
195 482 1
195 518 1
195 552 1
195 588 1
195 624 1
196 16 1
196 52 1
196 88 1
196 433 1
196 469 1
196 505 1
196 558 1
196 594 1
196 630 1
197 17 1
197 53 1
197 89 1
197 444 1
197 480 1
197 516 1
197 554 1
197 590 1
197 626 1
198 18 1
198 54 1
198 90 1
198 435 1
198 471 1
198 507 1
198 542 1
198 578 1
198 614 1
199 19 1
199 37 1
199 91 1
199 466 1
199 484 1
199 538 1
199 575 1
199 593 1
199 647 1
200 20 1
200 38 1
200 92 1
200 457 1
200 475 1
200 529 1
200 563 1
200 581 1
200 635 1
201 21 1
201 39 1
201 93 1
201 468 1
201 486 1
201 540 1
201 559 1
201 577 1
201 631 1
202 22 1
202 40 1
202 94 1
202 455 1
202 473 1
202 527 1
202 565 1
202 583 1
202 637 1
203 23 1
203 41 1
203 95 1
203 454 1
203 472 1
203 526 1
203 568 1
203 586 1
203 640 1
204 24 1
204 42 1
204 96 1
204 463 1
204 481 1
204 535 1
204 569 1
204 587 1
204 641 1
205 25 1
205 43 1
205 97 1
205 452 1
205 470 1
205 524 1
205 561 1
205 579 1
205 633 1
206 26 1
206 44 1
206 98 1
206 460 1
206 478 1
206 532 1
206 562 1
206 580 1
206 634 1
207 27 1
207 45 1
207 99 1
207 461 1
207 479 1
207 533 1
207 571 1
207 589 1
207 643 1
208 28 1
208 46 1
208 100 1
208 458 1
208 476 1
208 530 1
208 564 1
208 582 1
208 636 1
209 29 1
209 47 1
209 101 1
209 459 1
209 477 1
209 531 1
209 573 1
209 591 1
209 645 1
210 30 1
210 48 1
210 102 1
210 467 1
210 485 1
210 539 1
210 574 1
210 592 1
210 646 1
211 31 1
211 49 1
211 103 1
211 456 1
211 474 1
211 528 1
211 566 1
211 584 1
211 638 1
212 32 1
212 50 1
212 104 1
212 465 1
212 483 1
212 537 1
212 567 1
212 585 1
212 639 1
213 33 1
213 51 1
213 105 1
213 464 1
213 482 1
213 536 1
213 570 1
213 588 1
213 642 1
214 34 1
214 52 1
214 106 1
214 451 1
214 469 1
214 523 1
214 576 1
214 594 1
214 648 1
215 35 1
215 53 1
215 107 1
215 462 1
215 480 1
215 534 1
215 572 1
215 590 1
215 644 1
216 36 1
216 54 1
216 108 1
216 453 1
216 471 1
216 525 1
216 560 1
216 578 1
216 632 1
217 109 1
217 127 1
217 163 1
217 218 1
217 236 1
217 272 1
217 557 1
217 575 1
217 611 1
218 110 1
218 128 1
218 164 1
218 217 1
218 235 1
218 271 1
218 545 1
218 563 1
218 599 1
219 111 1
219 129 1
219 165 1
219 221 1
219 239 1
219 275 1
219 541 1
219 559 1
219 595 1
220 112 1
220 130 1
220 166 1
220 222 1
220 240 1
220 276 1
220 547 1
220 565 1
220 601 1
221 113 1
221 131 1
221 167 1
221 219 1
221 237 1
221 273 1
221 550 1
221 568 1
221 604 1
222 114 1
222 132 1
222 168 1
222 220 1
222 238 1
222 274 1
222 551 1
222 569 1
222 605 1
223 115 1
223 133 1
223 169 1
223 226 1
223 244 1
223 280 1
223 543 1
223 561 1
223 597 1
224 116 1
224 134 1
224 170 1
224 227 1
224 245 1
224 281 1
224 544 1
224 562 1
224 598 1
225 117 1
225 135 1
225 171 1
225 228 1
225 246 1
225 282 1
225 553 1
225 571 1
225 607 1
226 118 1
226 136 1
226 172 1
226 223 1
226 241 1
226 277 1
226 546 1
226 564 1
226 600 1
227 119 1
227 137 1
227 173 1
227 224 1
227 242 1
227 278 1
227 555 1
227 573 1
227 609 1
228 120 1
228 138 1
228 174 1
228 225 1
228 243 1
228 279 1
228 556 1
228 574 1
228 610 1
229 121 1
229 139 1
229 175 1
229 231 1
229 249 1
229 285 1
229 548 1
229 566 1
229 602 1
230 122 1
230 140 1
230 176 1
230 232 1
230 250 1
230 286 1
230 549 1
230 567 1
230 603 1
231 123 1
231 141 1
231 177 1
231 229 1
231 247 1
231 283 1
231 552 1
231 570 1
231 606 1
232 124 1
232 142 1
232 178 1
232 230 1
232 248 1
232 284 1
232 558 1
232 576 1
232 612 1
233 125 1
233 143 1
233 179 1
233 234 1
233 252 1
233 288 1
233 554 1
233 572 1
233 608 1
234 126 1
234 144 1
234 180 1
234 233 1
234 251 1
234 287 1
234 542 1
234 560 1
234 596 1
235 109 1
235 145 1
235 181 1
235 218 1
235 254 1
235 290 1
235 557 1
235 593 1
235 629 1
236 110 1
236 146 1
236 182 1
236 217 1
236 253 1
236 289 1
236 545 1
236 581 1
236 617 1
237 111 1
237 147 1
237 183 1
237 221 1
237 257 1
237 293 1
237 541 1
237 577 1
237 613 1
238 112 1
238 148 1
238 184 1
238 222 1
238 258 1
238 294 1
238 547 1
238 583 1
238 619 1
239 113 1
239 149 1
239 185 1
239 219 1
239 255 1
239 291 1
239 550 1
239 586 1
239 622 1
240 114 1
240 150 1
240 186 1
240 220 1
240 256 1
240 292 1
240 551 1
240 587 1
240 623 1
241 115 1
241 151 1
241 187 1
241 226 1
241 262 1
241 298 1
241 543 1
241 579 1
241 615 1
242 116 1
242 152 1
242 188 1
242 227 1
242 263 1
242 299 1
242 544 1
242 580 1
242 616 1
243 117 1
243 153 1
243 189 1
243 228 1
243 264 1
243 300 1
243 553 1
243 589 1
243 625 1
244 118 1
244 154 1
244 190 1
244 223 1
244 259 1
244 295 1
244 546 1
244 582 1
244 618 1
245 119 1
245 155 1
245 191 1
245 224 1
245 260 1
245 296 1
245 555 1
245 591 1
245 627 1
246 120 1
246 156 1
246 192 1
246 225 1
246 261 1
246 297 1
246 556 1
246 592 1
246 628 1
247 121 1
247 157 1
247 193 1
247 231 1
247 267 1
247 303 1
247 548 1
247 584 1
247 620 1
248 122 1
248 158 1
248 194 1
248 232 1
248 268 1
248 304 1
248 549 1
248 585 1
248 621 1
249 123 1
249 159 1
249 195 1
249 229 1
249 265 1
249 301 1
249 552 1
249 588 1
249 624 1
250 124 1
250 160 1
250 196 1
250 230 1
250 266 1
250 302 1
250 558 1
250 594 1
250 630 1
251 125 1
251 161 1
251 197 1
251 234 1
251 270 1
251 306 1
251 554 1
251 590 1
251 626 1
252 126 1
252 162 1
252 198 1
252 233 1
252 269 1
252 305 1
252 542 1
252 578 1
252 614 1
253 127 1
253 145 1
253 199 1
253 236 1
253 254 1
253 308 1
253 575 1
253 593 1
253 647 1
254 128 1
254 146 1
254 200 1
254 235 1
254 253 1
254 307 1
254 563 1
254 581 1
254 635 1
255 129 1
255 147 1
255 201 1
255 239 1
255 257 1
255 311 1
255 559 1
255 577 1
255 631 1
256 130 1
256 148 1
256 202 1
256 240 1
256 258 1
256 312 1
256 565 1
256 583 1
256 637 1
257 131 1
257 149 1
257 203 1
257 237 1
257 255 1
257 309 1
257 568 1
257 586 1
257 640 1
258 132 1
258 150 1
258 204 1
258 238 1
258 256 1
258 310 1
258 569 1
258 587 1
258 641 1
259 133 1
259 151 1
259 205 1
259 244 1
259 262 1
259 316 1
259 561 1
259 579 1
259 633 1
260 134 1
260 152 1
260 206 1
260 245 1
260 263 1
260 317 1
260 562 1
260 580 1
260 634 1
261 135 1
261 153 1
261 207 1
261 246 1
261 264 1
261 318 1
261 571 1
261 589 1
261 643 1
262 136 1
262 154 1
262 208 1
262 241 1
262 259 1
262 313 1
262 564 1
262 582 1
262 636 1
263 137 1
263 155 1
263 209 1
263 242 1
263 260 1
263 314 1
263 573 1
263 591 1
263 645 1
264 138 1
264 156 1
264 210 1
264 243 1
264 261 1
264 315 1
264 574 1
264 592 1
264 646 1
265 139 1
265 157 1
265 211 1
265 249 1
265 267 1
265 321 1
265 566 1
265 584 1
265 638 1
266 140 1
266 158 1
266 212 1
266 250 1
266 268 1
266 322 1
266 567 1
266 585 1
266 639 1
267 141 1
267 159 1
267 213 1
267 247 1
267 265 1
267 319 1
267 570 1
267 588 1
267 642 1
268 142 1
268 160 1
268 214 1
268 248 1
268 266 1
268 320 1
268 576 1
268 594 1
268 648 1
269 143 1
269 161 1
269 215 1
269 252 1
269 270 1
269 324 1
269 572 1
269 590 1
269 644 1
270 144 1
270 162 1
270 216 1
270 251 1
270 269 1
270 323 1
270 560 1
270 578 1
270 632 1
271 218 1
271 236 1
271 272 1
271 337 1
271 355 1
271 391 1
271 448 1
271 466 1
271 502 1
272 217 1
272 235 1
272 271 1
272 335 1
272 353 1
272 389 1
272 439 1
272 457 1
272 493 1
273 221 1
273 239 1
273 275 1
273 333 1
273 351 1
273 387 1
273 450 1
273 468 1
273 504 1
274 222 1
274 240 1
274 276 1
274 341 1
274 359 1
274 395 1
274 437 1
274 455 1
274 491 1
275 219 1
275 237 1
275 273 1
275 339 1
275 357 1
275 393 1
275 436 1
275 454 1
275 490 1
276 220 1
276 238 1
276 274 1
276 340 1
276 358 1
276 394 1
276 445 1
276 463 1
276 499 1
277 226 1
277 244 1
277 280 1
277 338 1
277 356 1
277 392 1
277 434 1
277 452 1
277 488 1
278 227 1
278 245 1
278 281 1
278 325 1
278 343 1
278 379 1
278 442 1
278 460 1
278 496 1
279 228 1
279 246 1
279 282 1
279 331 1
279 349 1
279 385 1
279 443 1
279 461 1
279 497 1
280 223 1
280 241 1
280 277 1
280 336 1
280 354 1
280 390 1
280 440 1
280 458 1
280 494 1
281 224 1
281 242 1
281 278 1
281 342 1
281 360 1
281 396 1
281 441 1
281 459 1
281 495 1
282 225 1
282 243 1
282 279 1
282 329 1
282 347 1
282 383 1
282 449 1
282 467 1
282 503 1
283 231 1
283 249 1
283 285 1
283 327 1
283 345 1
283 381 1
283 438 1
283 456 1
283 492 1
284 232 1
284 250 1
284 286 1
284 328 1
284 346 1
284 382 1
284 447 1
284 465 1
284 501 1
285 229 1
285 247 1
285 283 1
285 326 1
285 344 1
285 380 1
285 446 1
285 464 1
285 500 1
286 230 1
286 248 1
286 284 1
286 334 1
286 352 1
286 388 1
286 433 1
286 451 1
286 487 1
287 234 1
287 252 1
287 288 1
287 332 1
287 350 1
287 386 1
287 444 1
287 462 1
287 498 1
288 233 1
288 251 1
288 287 1
288 330 1
288 348 1
288 384 1
288 435 1
288 453 1
288 489 1
289 218 1
289 254 1
289 290 1
289 337 1
289 373 1
289 409 1
289 448 1
289 484 1
289 520 1
290 217 1
290 253 1
290 289 1
290 335 1
290 371 1
290 407 1
290 439 1
290 475 1
290 511 1
291 221 1
291 257 1
291 293 1
291 333 1
291 369 1
291 405 1
291 450 1
291 486 1
291 522 1
292 222 1
292 258 1
292 294 1
292 341 1
292 377 1
292 413 1
292 437 1
292 473 1
292 509 1
293 219 1
293 255 1
293 291 1
293 339 1
293 375 1
293 411 1
293 436 1
293 472 1
293 508 1
294 220 1
294 256 1
294 292 1
294 340 1
294 376 1
294 412 1
294 445 1
294 481 1
294 517 1
295 226 1
295 262 1
295 298 1
295 338 1
295 374 1
295 410 1
295 434 1
295 470 1
295 506 1
296 227 1
296 263 1
296 299 1
296 325 1
296 361 1
296 397 1
296 442 1
296 478 1
296 514 1
297 228 1
297 264 1
297 300 1
297 331 1
297 367 1
297 403 1
297 443 1
297 479 1
297 515 1
298 223 1
298 259 1
298 295 1
298 336 1
298 372 1
298 408 1
298 440 1
298 476 1
298 512 1
299 224 1
299 260 1
299 296 1
299 342 1
299 378 1
299 414 1
299 441 1
299 477 1
299 513 1
300 225 1
300 261 1
300 297 1
300 329 1
300 365 1
300 401 1
300 449 1
300 485 1
300 521 1
301 231 1
301 267 1
301 303 1
301 327 1
301 363 1
301 399 1
301 438 1
301 474 1
301 510 1
302 232 1
302 268 1
302 304 1
302 328 1
302 364 1
302 400 1
302 447 1
302 483 1
302 519 1
303 229 1
303 265 1
303 301 1
303 326 1
303 362 1
303 398 1
303 446 1
303 482 1
303 518 1
304 230 1
304 266 1
304 302 1
304 334 1
304 370 1
304 406 1
304 433 1
304 469 1
304 505 1
305 234 1
305 270 1
305 306 1
305 332 1
305 368 1
305 404 1
305 444 1
305 480 1
305 516 1
306 233 1
306 269 1
306 305 1
306 330 1
306 366 1
306 402 1
306 435 1
306 471 1
306 507 1
307 236 1
307 254 1
307 308 1
307 355 1
307 373 1
307 427 1
307 466 1
307 484 1
307 538 1
308 235 1
308 253 1
308 307 1
308 353 1
308 371 1
308 425 1
308 457 1
308 475 1
308 529 1
309 239 1
309 257 1
309 311 1
309 351 1
309 369 1
309 423 1
309 468 1
309 486 1
309 540 1
310 240 1
310 258 1
310 312 1
310 359 1
310 377 1
310 431 1
310 455 1
310 473 1
310 527 1
311 237 1
311 255 1
311 309 1
311 357 1
311 375 1
311 429 1
311 454 1
311 472 1
311 526 1
312 238 1
312 256 1
312 310 1
312 358 1
312 376 1
312 430 1
312 463 1
312 481 1
312 535 1
313 244 1
313 262 1
313 316 1
313 356 1
313 374 1
313 428 1
313 452 1
313 470 1
313 524 1
314 245 1
314 263 1
314 317 1
314 343 1
314 361 1
314 415 1
314 460 1
314 478 1
314 532 1
315 246 1
315 264 1
315 318 1
315 349 1
315 367 1
315 421 1
315 461 1
315 479 1
315 533 1
316 241 1
316 259 1
316 313 1
316 354 1
316 372 1
316 426 1
316 458 1
316 476 1
316 530 1
317 242 1
317 260 1
317 314 1
317 360 1
317 378 1
317 432 1
317 459 1
317 477 1
317 531 1
318 243 1
318 261 1
318 315 1
318 347 1
318 365 1
318 419 1
318 467 1
318 485 1
318 539 1
319 249 1
319 267 1
319 321 1
319 345 1
319 363 1
319 417 1
319 456 1
319 474 1
319 528 1
320 250 1
320 268 1
320 322 1
320 346 1
320 364 1
320 418 1
320 465 1
320 483 1
320 537 1
321 247 1
321 265 1
321 319 1
321 344 1
321 362 1
321 416 1
321 464 1
321 482 1
321 536 1
322 248 1
322 266 1
322 320 1
322 352 1
322 370 1
322 424 1
322 451 1
322 469 1
322 523 1
323 252 1
323 270 1
323 324 1
323 350 1
323 368 1
323 422 1
323 462 1
323 480 1
323 534 1
324 251 1
324 269 1
324 323 1
324 348 1
324 366 1
324 420 1
324 453 1
324 471 1
324 525 1
