%%MatrixMarket matrix coordinate integer general
288 576 2592
1 1 1
1 28 1
1 83 1
1 289 1
1 316 1
1 371 1
1 385 1
1 412 1
1 467 1
2 2 1
2 21 1
2 86 1
2 290 1
2 309 1
2 374 1
2 386 1
2 405 1
2 470 1
3 3 1
3 24 1
3 84 1
3 291 1
3 312 1
3 372 1
3 387 1
3 408 1
3 468 1
4 4 1
4 29 1
4 89 1
4 292 1
4 317 1
4 377 1
4 388 1
4 413 1
4 473 1
5 5 1
5 32 1
5 90 1
5 293 1
5 320 1
5 378 1
5 389 1
5 416 1
5 474 1
6 6 1
6 26 1
6 87 1
6 294 1
6 314 1
6 375 1
6 390 1
6 410 1
6 471 1
7 7 1
7 27 1
7 92 1
7 295 1
7 315 1
7 380 1
7 391 1
7 411 1
7 476 1
8 8 1
8 17 1
8 93 1
8 296 1
8 305 1
8 381 1
8 392 1
8 401 1
8 477 1
9 9 1
9 30 1
9 85 1
9 297 1
9 318 1
9 373 1
9 393 1
9 414 1
9 469 1
10 10 1
10 18 1
10 91 1
10 298 1
10 306 1
10 379 1
10 394 1
10 402 1
10 475 1
11 11 1
11 22 1
11 95 1
11 299 1
11 310 1
11 383 1
11 395 1
11 406 1
11 479 1
12 12 1
12 31 1
12 88 1
12 300 1
12 319 1
12 376 1
12 396 1
12 415 1
12 472 1
13 13 1
13 19 1
13 94 1
13 301 1
13 307 1
13 382 1
13 397 1
13 403 1
13 478 1
14 14 1
14 20 1
14 96 1
14 302 1
14 308 1
14 384 1
14 398 1
14 404 1
14 480 1
15 15 1
15 23 1
15 81 1
15 303 1
15 311 1
15 369 1
15 399 1
15 407 1
15 465 1
16 16 1
16 25 1
16 82 1
16 304 1
16 313 1
16 370 1
16 400 1
16 409 1
16 466 1
17 1 1
17 57 1
17 70 1
17 289 1
17 345 1
17 358 1
17 385 1
17 441 1
17 454 1
18 2 1
18 60 1
18 68 1
18 290 1
18 348 1
18 356 1
18 386 1
18 444 1
18 452 1
19 3 1
19 53 1
19 71 1
19 291 1
19 341 1
19 359 1
19 387 1
19 437 1
19 455 1
20 4 1
20 58 1
20 76 1
20 292 1
20 346 1
20 364 1
20 388 1
20 442 1
20 460 1
21 5 1
21 63 1
21 77 1
21 293 1
21 351 1
21 365 1
21 389 1
21 447 1
21 461 1
22 6 1
22 56 1
22 73 1
22 294 1
22 344 1
22 361 1
22 390 1
22 440 1
22 457 1
23 7 1
23 61 1
23 69 1
23 295 1
23 349 1
23 357 1
23 391 1
23 445 1
23 453 1
24 8 1
24 64 1
24 75 1
24 296 1
24 352 1
24 363 1
24 392 1
24 448 1
24 459 1
25 9 1
25 59 1
25 72 1
25 297 1
25 347 1
25 360 1
25 393 1
25 443 1
25 456 1
26 10 1
26 49 1
26 78 1
26 298 1
26 337 1
26 366 1
26 394 1
26 433 1
26 462 1
27 11 1
27 51 1
27 80 1
27 299 1
27 339 1
27 368 1
27 395 1
27 435 1
27 464 1
28 12 1
28 62 1
28 74 1
28 300 1
28 350 1
28 362 1
28 396 1
28 446 1
28 458 1
29 13 1
29 50 1
29 79 1
29 301 1
29 338 1
29 367 1
29 397 1
29 434 1
29 463 1
30 14 1
30 54 1
30 65 1
30 302 1
30 342 1
30 353 1
30 398 1
30 438 1
30 449 1
31 15 1
31 52 1
31 66 1
31 303 1
31 340 1
31 354 1
31 399 1
31 436 1
31 450 1
32 16 1
32 55 1
32 67 1
32 304 1
32 343 1
32 355 1
32 400 1
32 439 1
32 451 1
33 28 1
33 42 1
33 57 1
33 316 1
33 330 1
33 345 1
33 412 1
33 426 1
33 441 1
34 21 1
34 45 1
34 60 1
34 309 1
34 333 1
34 348 1
34 405 1
34 429 1
34 444 1
35 24 1
35 43 1
35 53 1
35 312 1
35 331 1
35 341 1
35 408 1
35 427 1
35 437 1
36 29 1
36 47 1
36 58 1
36 317 1
36 335 1
36 346 1
36 413 1
36 431 1
36 442 1
37 32 1
37 35 1
37 63 1
37 320 1
37 323 1
37 351 1
37 416 1
37 419 1
37 447 1
38 26 1
38 46 1
38 56 1
38 314 1
38 334 1
38 344 1
38 410 1
38 430 1
38 440 1
39 27 1
39 48 1
39 61 1
39 315 1
39 336 1
39 349 1
39 411 1
39 432 1
39 445 1
40 17 1
40 38 1
40 64 1
40 305 1
40 326 1
40 352 1
40 401 1
40 422 1
40 448 1
41 30 1
41 33 1
41 59 1
41 318 1
41 321 1
41 347 1
41 414 1
41 417 1
41 443 1
42 18 1
42 36 1
42 49 1
42 306 1
42 324 1
42 337 1
42 402 1
42 420 1
42 433 1
43 22 1
43 41 1
43 51 1
43 310 1
43 329 1
43 339 1
43 406 1
43 425 1
43 435 1
44 31 1
44 34 1
44 62 1
44 319 1
44 322 1
44 350 1
44 415 1
44 418 1
44 446 1
45 19 1
45 39 1
45 50 1
45 307 1
45 327 1
45 338 1
45 403 1
45 423 1
45 434 1
46 20 1
46 44 1
46 54 1
46 308 1
46 332 1
46 342 1
46 404 1
46 428 1
46 438 1
47 23 1
47 37 1
47 52 1
47 311 1
47 325 1
47 340 1
47 407 1
47 421 1
47 436 1
48 25 1
48 40 1
48 55 1
48 313 1
48 328 1
48 343 1
48 409 1
48 424 1
48 439 1
49 97 1
49 124 1
49 179 1
49 289 1
49 316 1
49 371 1
49 481 1
49 508 1
49 563 1
50 98 1
50 117 1
50 182 1
50 290 1
50 309 1
50 374 1
50 482 1
50 501 1
50 566 1
51 99 1
51 120 1
51 180 1
51 291 1
51 312 1
51 372 1
51 483 1
51 504 1
51 564 1
52 100 1
52 125 1
52 185 1
52 292 1
52 317 1
52 377 1
52 484 1
52 509 1
52 569 1
53 101 1
53 128 1
53 186 1
53 293 1
53 320 1
53 378 1
53 485 1
53 512 1
53 570 1
54 102 1
54 122 1
54 183 1
54 294 1
54 314 1
54 375 1
54 486 1
54 506 1
54 567 1
55 103 1
55 123 1
55 188 1
55 295 1
55 315 1
55 380 1
55 487 1
55 507 1
55 572 1
56 104 1
56 113 1
56 189 1
56 296 1
56 305 1
56 381 1
56 488 1
56 497 1
56 573 1
57 105 1
57 126 1
57 181 1
57 297 1
57 318 1
57 373 1
57 489 1
57 510 1
57 565 1
58 106 1
58 114 1
58 187 1
58 298 1
58 306 1
58 379 1
58 490 1
58 498 1
58 571 1
59 107 1
59 118 1
59 191 1
59 299 1
59 310 1
59 383 1
59 491 1
59 502 1
59 575 1
60 108 1
60 127 1
60 184 1
60 300 1
60 319 1
60 376 1
60 492 1
60 511 1
60 568 1
61 109 1
61 115 1
61 190 1
61 301 1
61 307 1
61 382 1
61 493 1
61 499 1
61 574 1
62 110 1
62 116 1
62 192 1
62 302 1
62 308 1
62 384 1
62 494 1
62 500 1
62 576 1
63 111 1
63 119 1
63 177 1
63 303 1
63 311 1
63 369 1
63 495 1
63 503 1
63 561 1
64 112 1
64 121 1
64 178 1
64 304 1
64 313 1
64 370 1
64 496 1
64 505 1
64 562 1
65 97 1
65 153 1
65 166 1
65 289 1
65 345 1
65 358 1
65 481 1
65 537 1
65 550 1
66 98 1
66 156 1
66 164 1
66 290 1
66 348 1
66 356 1
66 482 1
66 540 1
66 548 1
67 99 1
67 149 1
67 167 1
67 291 1
67 341 1
67 359 1
67 483 1
67 533 1
67 551 1
68 100 1
68 154 1
68 172 1
68 292 1
68 346 1
68 364 1
68 484 1
68 538 1
68 556 1
69 101 1
69 159 1
69 173 1
69 293 1
69 351 1
69 365 1
69 485 1
69 543 1
69 557 1
70 102 1
70 152 1
70 169 1
70 294 1
70 344 1
70 361 1
70 486 1
70 536 1
70 553 1
71 103 1
71 157 1
71 165 1
71 295 1
71 349 1
71 357 1
71 487 1
71 541 1
71 549 1
72 104 1
72 160 1
72 171 1
72 296 1
72 352 1
72 363 1
72 488 1
72 544 1
72 555 1
73 105 1
73 155 1
73 168 1
73 297 1
73 347 1
73 360 1
73 489 1
73 539 1
73 552 1
74 106 1
74 145 1
74 174 1
74 298 1
74 337 1
74 366 1
74 490 1
74 529 1
74 558 1
75 107 1
75 147 1
75 176 1
75 299 1
75 339 1
75 368 1
75 491 1
75 531 1
75 560 1
76 108 1
76 158 1
76 170 1
76 300 1
76 350 1
76 362 1
76 492 1
76 542 1
76 554 1
77 109 1
77 146 1
77 175 1
77 301 1
77 338 1
77 367 1
77 493 1
77 530 1
77 559 1
78 110 1
78 150 1
78 161 1
78 302 1
78 342 1
78 353 1
78 494 1
78 534 1
78 545 1
79 111 1
79 148 1
79 162 1
79 303 1
79 340 1
79 354 1
79 495 1
79 532 1
79 546 1
80 112 1
80 151 1
80 163 1
80 304 1
80 343 1
80 355 1
80 496 1
80 535 1
80 547 1
81 124 1
81 138 1
81 153 1
81 316 1
81 330 1
81 345 1
81 508 1
81 522 1
81 537 1
82 117 1
82 141 1
82 156 1
82 309 1
82 333 1
82 348 1
82 501 1
82 525 1
82 540 1
83 120 1
83 139 1
83 149 1
83 312 1
83 331 1
83 341 1
83 504 1
83 523 1
83 533 1
84 125 1
84 143 1
84 154 1
84 317 1
84 335 1
84 346 1
84 509 1
84 527 1
84 538 1
85 128 1
85 131 1
85 159 1
85 320 1
85 323 1
85 351 1
85 512 1
85 515 1
85 543 1
86 122 1
86 142 1
86 152 1
86 314 1
86 334 1
86 344 1
86 506 1
86 526 1
86 536 1
87 123 1
87 144 1
87 157 1
87 315 1
87 336 1
87 349 1
87 507 1
87 528 1
87 541 1
88 113 1
88 134 1
88 160 1
88 305 1
88 326 1
88 352 1
88 497 1
88 518 1
88 544 1
89 126 1
89 129 1
89 155 1
89 318 1
89 321 1
89 347 1
89 510 1
89 513 1
89 539 1
90 114 1
90 132 1
90 145 1
90 306 1
90 324 1
90 337 1
90 498 1
90 516 1
90 529 1
91 118 1
91 137 1
91 147 1
91 310 1
91 329 1
91 339 1
91 502 1
91 521 1
91 531 1
92 127 1
92 130 1
92 158 1
92 319 1
92 322 1
92 350 1
92 511 1
92 514 1
92 542 1
93 115 1
93 135 1
93 146 1
93 307 1
93 327 1
93 338 1
93 499 1
93 519 1
93 530 1
94 116 1
94 140 1
94 150 1
94 308 1
94 332 1
94 342 1
94 500 1
94 524 1
94 534 1
95 119 1
95 133 1
95 148 1
95 311 1
95 325 1
95 340 1
95 503 1
95 517 1
95 532 1
96 121 1
96 136 1
96 151 1
96 313 1
96 328 1
96 343 1
96 505 1
96 520 1
96 535 1
97 193 1
97 220 1
97 275 1
97 385 1
97 412 1
97 467 1
97 481 1
97 508 1
97 563 1
98 194 1
98 213 1
98 278 1
98 386 1
98 405 1
98 470 1
98 482 1
98 501 1
98 566 1
99 195 1
99 216 1
99 276 1
99 387 1
99 408 1
99 468 1
99 483 1
99 504 1
99 564 1
100 196 1
100 221 1
100 281 1
100 388 1
100 413 1
100 473 1
100 484 1
100 509 1
100 569 1
101 197 1
101 224 1
101 282 1
101 389 1
101 416 1
101 474 1
101 485 1
101 512 1
101 570 1
102 198 1
102 218 1
102 279 1
102 390 1
102 410 1
102 471 1
102 486 1
102 506 1
102 567 1
103 199 1
103 219 1
103 284 1
103 391 1
103 411 1
103 476 1
103 487 1
103 507 1
103 572 1
104 200 1
104 209 1
104 285 1
104 392 1
104 401 1
104 477 1
104 488 1
104 497 1
104 573 1
105 201 1
105 222 1
105 277 1
105 393 1
105 414 1
105 469 1
105 489 1
105 510 1
105 565 1
106 202 1
106 210 1
106 283 1
106 394 1
106 402 1
106 475 1
106 490 1
106 498 1
106 571 1
107 203 1
107 214 1
107 287 1
107 395 1
107 406 1
107 479 1
107 491 1
107 502 1
107 575 1
108 204 1
108 223 1
108 280 1
108 396 1
108 415 1
108 472 1
108 492 1
108 511 1
108 568 1
109 205 1
109 211 1
109 286 1
109 397 1
109 403 1
109 478 1
109 493 1
109 499 1
109 574 1
110 206 1
110 212 1
110 288 1
110 398 1
110 404 1
110 480 1
110 494 1
110 500 1
110 576 1
111 207 1
111 215 1
111 273 1
111 399 1
111 407 1
111 465 1
111 495 1
111 503 1
111 561 1
112 208 1
112 217 1
112 274 1
112 400 1
112 409 1
112 466 1
112 496 1
112 505 1
112 562 1
113 193 1
113 249 1
113 262 1
113 385 1
113 441 1
113 454 1
113 481 1
113 537 1
113 550 1
114 194 1
114 252 1
114 260 1
114 386 1
114 444 1
114 452 1
114 482 1
114 540 1
114 548 1
115 195 1
115 245 1
115 263 1
115 387 1
115 437 1
115 455 1
115 483 1
115 533 1
115 551 1
116 196 1
116 250 1
116 268 1
116 388 1
116 442 1
116 460 1
116 484 1
116 538 1
116 556 1
117 197 1
117 255 1
117 269 1
117 389 1
117 447 1
117 461 1
117 485 1
117 543 1
117 557 1
118 198 1
118 248 1
118 265 1
118 390 1
118 440 1
118 457 1
118 486 1
118 536 1
118 553 1
119 199 1
119 253 1
119 261 1
119 391 1
119 445 1
119 453 1
119 487 1
119 541 1
119 549 1
120 200 1
120 256 1
120 267 1
120 392 1
120 448 1
120 459 1
120 488 1
120 544 1
120 555 1
121 201 1
121 251 1
121 264 1
121 393 1
121 443 1
121 456 1
121 489 1
121 539 1
121 552 1
122 202 1
122 241 1
122 270 1
122 394 1
122 433 1
122 462 1
122 490 1
122 529 1
122 558 1
123 203 1
123 243 1
123 272 1
123 395 1
123 435 1
123 464 1
123 491 1
123 531 1
123 560 1
124 204 1
124 254 1
124 266 1
124 396 1
124 446 1
124 458 1
124 492 1
124 542 1
124 554 1
125 205 1
125 242 1
125 271 1
125 397 1
125 434 1
125 463 1
125 493 1
125 530 1
125 559 1
126 206 1
126 246 1
126 257 1
126 398 1
126 438 1
126 449 1
126 494 1
126 534 1
126 545 1
127 207 1
127 244 1
127 258 1
127 399 1
127 436 1
127 450 1
127 495 1
127 532 1
127 546 1
128 208 1
128 247 1
128 259 1
128 400 1
128 439 1
128 451 1
128 496 1
128 535 1
128 547 1
129 220 1
129 234 1
129 249 1
129 412 1
129 426 1
129 441 1
129 508 1
129 522 1
129 537 1
130 213 1
130 237 1
130 252 1
130 405 1
130 429 1
130 444 1
130 501 1
130 525 1
130 540 1
131 216 1
131 235 1
131 245 1
131 408 1
131 427 1
131 437 1
131 504 1
131 523 1
131 533 1
132 221 1
132 239 1
132 250 1
132 413 1
132 431 1
132 442 1
132 509 1
132 527 1
132 538 1
133 224 1
133 227 1
133 255 1
133 416 1
133 419 1
133 447 1
133 512 1
133 515 1
133 543 1
134 218 1
134 238 1
134 248 1
134 410 1
134 430 1
134 440 1
134 506 1
134 526 1
134 536 1
135 219 1
135 240 1
135 253 1
135 411 1
135 432 1
135 445 1
135 507 1
135 528 1
135 541 1
136 209 1
136 230 1
136 256 1
136 401 1
136 422 1
136 448 1
136 497 1
136 518 1
136 544 1
137 222 1
137 225 1
137 251 1
137 414 1
137 417 1
137 443 1
137 510 1
137 513 1
137 539 1
138 210 1
138 228 1
138 241 1
138 402 1
138 420 1
138 433 1
138 498 1
138 516 1
138 529 1
139 214 1
139 233 1
139 243 1
139 406 1
139 425 1
139 435 1
139 502 1
139 521 1
139 531 1
140 223 1
140 226 1
140 254 1
140 415 1
140 418 1
140 446 1
140 511 1
140 514 1
140 542 1
141 211 1
141 231 1
141 242 1
141 403 1
141 423 1
141 434 1
141 499 1
141 519 1
141 530 1
142 212 1
142 236 1
142 246 1
142 404 1
142 428 1
142 438 1
142 500 1
142 524 1
142 534 1
143 215 1
143 229 1
143 244 1
143 407 1
143 421 1
143 436 1
143 503 1
143 517 1
143 532 1
144 217 1
144 232 1
144 247 1
144 409 1
144 424 1
144 439 1
144 505 1
144 520 1
144 535 1
145 1 1
145 17 1
145 49 1
145 397 1
145 413 1
145 445 1
145 494 1
145 510 1
145 542 1
146 2 1
146 18 1
146 50 1
146 395 1
146 411 1
146 443 1
146 495 1
146 511 1
146 543 1
147 3 1
147 19 1
147 51 1
147 398 1
147 414 1
147 446 1
147 496 1
147 512 1
147 544 1
148 4 1
148 20 1
148 52 1
148 400 1
148 416 1
148 448 1
148 482 1
148 498 1
148 530 1
149 5 1
149 21 1
149 53 1
149 390 1
149 406 1
149 438 1
149 487 1
149 503 1
149 535 1
150 6 1
150 22 1
150 54 1
150 399 1
150 415 1
150 447 1
150 481 1
150 497 1
150 529 1
151 7 1
151 23 1
151 55 1
151 385 1
151 401 1
151 433 1
151 483 1
151 499 1
151 531 1
152 8 1
152 24 1
152 56 1
152 388 1
152 404 1
152 436 1
152 489 1
152 505 1
152 537 1
153 9 1
153 25 1
153 57 1
153 386 1
153 402 1
153 434 1
153 486 1
153 502 1
153 534 1
154 10 1
154 26 1
154 58 1
154 391 1
154 407 1
154 439 1
154 492 1
154 508 1
154 540 1
155 11 1
155 27 1
155 59 1
155 396 1
155 412 1
155 444 1
155 488 1
155 504 1
155 536 1
156 12 1
156 28 1
156 60 1
156 387 1
156 403 1
156 435 1
156 484 1
156 500 1
156 532 1
157 13 1
157 29 1
157 61 1
157 393 1
157 409 1
157 441 1
157 485 1
157 501 1
157 533 1
158 14 1
158 30 1
158 62 1
158 389 1
158 405 1
158 437 1
158 490 1
158 506 1
158 538 1
159 15 1
159 31 1
159 63 1
159 392 1
159 408 1
159 440 1
159 493 1
159 509 1
159 541 1
160 16 1
160 32 1
160 64 1
160 394 1
160 410 1
160 442 1
160 491 1
160 507 1
160 539 1
161 1 1
161 33 1
161 65 1
161 397 1
161 429 1
161 461 1
161 494 1
161 526 1
161 558 1
162 2 1
162 34 1
162 66 1
162 395 1
162 427 1
162 459 1
162 495 1
162 527 1
162 559 1
163 3 1
163 35 1
163 67 1
163 398 1
163 430 1
163 462 1
163 496 1
163 528 1
163 560 1
164 4 1
164 36 1
164 68 1
164 400 1
164 432 1
164 464 1
164 482 1
164 514 1
164 546 1
165 5 1
165 37 1
165 69 1
165 390 1
165 422 1
165 454 1
165 487 1
165 519 1
165 551 1
166 6 1
166 38 1
166 70 1
166 399 1
166 431 1
166 463 1
166 481 1
166 513 1
166 545 1
167 7 1
167 39 1
167 71 1
167 385 1
167 417 1
167 449 1
167 483 1
167 515 1
167 547 1
168 8 1
168 40 1
168 72 1
168 388 1
168 420 1
168 452 1
168 489 1
168 521 1
168 553 1
169 9 1
169 41 1
169 73 1
169 386 1
169 418 1
169 450 1
169 486 1
169 518 1
169 550 1
170 10 1
170 42 1
170 74 1
170 391 1
170 423 1
170 455 1
170 492 1
170 524 1
170 556 1
171 11 1
171 43 1
171 75 1
171 396 1
171 428 1
171 460 1
171 488 1
171 520 1
171 552 1
172 12 1
172 44 1
172 76 1
172 387 1
172 419 1
172 451 1
172 484 1
172 516 1
172 548 1
173 13 1
173 45 1
173 77 1
173 393 1
173 425 1
173 457 1
173 485 1
173 517 1
173 549 1
174 14 1
174 46 1
174 78 1
174 389 1
174 421 1
174 453 1
174 490 1
174 522 1
174 554 1
175 15 1
175 47 1
175 79 1
175 392 1
175 424 1
175 456 1
175 493 1
175 525 1
175 557 1
176 16 1
176 48 1
176 80 1
176 394 1
176 426 1
176 458 1
176 491 1
176 523 1
176 555 1
177 17 1
177 33 1
177 81 1
177 413 1
177 429 1
177 477 1
177 510 1
177 526 1
177 574 1
178 18 1
178 34 1
178 82 1
178 411 1
178 427 1
178 475 1
178 511 1
178 527 1
178 575 1
179 19 1
179 35 1
179 83 1
179 414 1
179 430 1
179 478 1
179 512 1
179 528 1
179 576 1
180 20 1
180 36 1
180 84 1
180 416 1
180 432 1
180 480 1
180 498 1
180 514 1
180 562 1
181 21 1
181 37 1
181 85 1
181 406 1
181 422 1
181 470 1
181 503 1
181 519 1
181 567 1
182 22 1
182 38 1
182 86 1
182 415 1
182 431 1
182 479 1
182 497 1
182 513 1
182 561 1
183 23 1
183 39 1
183 87 1
183 401 1
183 417 1
183 465 1
183 499 1
183 515 1
183 563 1
184 24 1
184 40 1
184 88 1
184 404 1
184 420 1
184 468 1
184 505 1
184 521 1
184 569 1
185 25 1
185 41 1
185 89 1
185 402 1
185 418 1
185 466 1
185 502 1
185 518 1
185 566 1
186 26 1
186 42 1
186 90 1
186 407 1
186 423 1
186 471 1
186 508 1
186 524 1
186 572 1
187 27 1
187 43 1
187 91 1
187 412 1
187 428 1
187 476 1
187 504 1
187 520 1
187 568 1
188 28 1
188 44 1
188 92 1
188 403 1
188 419 1
188 467 1
188 500 1
188 516 1
188 564 1
189 29 1
189 45 1
189 93 1
189 409 1
189 425 1
189 473 1
189 501 1
189 517 1
189 565 1
190 30 1
190 46 1
190 94 1
190 405 1
190 421 1
190 469 1
190 506 1
190 522 1
190 570 1
191 31 1
191 47 1
191 95 1
191 408 1
191 424 1
191 472 1
191 509 1
191 525 1
191 573 1
192 32 1
192 48 1
192 96 1
192 410 1
192 426 1
192 474 1
192 507 1
192 523 1
192 571 1
193 102 1
193 118 1
193 150 1
193 200 1
193 216 1
193 248 1
193 494 1
193 510 1
193 542 1
194 100 1
194 116 1
194 148 1
194 202 1
194 218 1
194 250 1
194 495 1
194 511 1
194 543 1
195 103 1
195 119 1
195 151 1
195 205 1
195 221 1
195 253 1
195 496 1
195 512 1
195 544 1
196 108 1
196 124 1
196 156 1
196 206 1
196 222 1
196 254 1
196 482 1
196 498 1
196 530 1
197 109 1
197 125 1
197 157 1
197 194 1
197 210 1
197 242 1
197 487 1
197 503 1
197 535 1
198 105 1
198 121 1
198 153 1
198 203 1
198 219 1
198 251 1
198 481 1
198 497 1
198 529 1
199 101 1
199 117 1
199 149 1
199 207 1
199 223 1
199 255 1
199 483 1
199 499 1
199 531 1
200 107 1
200 123 1
200 155 1
200 195 1
200 211 1
200 243 1
200 489 1
200 505 1
200 537 1
201 104 1
201 120 1
201 152 1
201 208 1
201 224 1
201 256 1
201 486 1
201 502 1
201 534 1
202 110 1
202 126 1
202 158 1
202 198 1
202 214 1
202 246 1
202 492 1
202 508 1
202 540 1
203 112 1
203 128 1
203 160 1
203 199 1
203 215 1
203 247 1
203 488 1
203 504 1
203 536 1
204 106 1
204 122 1
204 154 1
204 193 1
204 209 1
204 241 1
204 484 1
204 500 1
204 532 1
205 111 1
205 127 1
205 159 1
205 196 1
205 212 1
205 244 1
205 485 1
205 501 1
205 533 1
206 97 1
206 113 1
206 145 1
206 201 1
206 217 1
206 249 1
206 490 1
206 506 1
206 538 1
207 98 1
207 114 1
207 146 1
207 204 1
207 220 1
207 252 1
207 493 1
207 509 1
207 541 1
208 99 1
208 115 1
208 147 1
208 197 1
208 213 1
208 245 1
208 491 1
208 507 1
208 539 1
209 102 1
209 134 1
209 166 1
209 200 1
209 232 1
209 264 1
209 494 1
209 526 1
209 558 1
210 100 1
210 132 1
210 164 1
210 202 1
210 234 1
210 266 1
210 495 1
210 527 1
210 559 1
211 103 1
211 135 1
211 167 1
211 205 1
211 237 1
211 269 1
211 496 1
211 528 1
211 560 1
212 108 1
212 140 1
212 172 1
212 206 1
212 238 1
212 270 1
212 482 1
212 514 1
212 546 1
213 109 1
213 141 1
213 173 1
213 194 1
213 226 1
213 258 1
213 487 1
213 519 1
213 551 1
214 105 1
214 137 1
214 169 1
214 203 1
214 235 1
214 267 1
214 481 1
214 513 1
214 545 1
215 101 1
215 133 1
215 165 1
215 207 1
215 239 1
215 271 1
215 483 1
215 515 1
215 547 1
216 107 1
216 139 1
216 171 1
216 195 1
216 227 1
216 259 1
216 489 1
216 521 1
216 553 1
217 104 1
217 136 1
217 168 1
217 208 1
217 240 1
217 272 1
217 486 1
217 518 1
217 550 1
218 110 1
218 142 1
218 174 1
218 198 1
218 230 1
218 262 1
218 492 1
218 524 1
218 556 1
219 112 1
219 144 1
219 176 1
219 199 1
219 231 1
219 263 1
219 488 1
219 520 1
219 552 1
220 106 1
220 138 1
220 170 1
220 193 1
220 225 1
220 257 1
220 484 1
220 516 1
220 548 1
221 111 1
221 143 1
221 175 1
221 196 1
221 228 1
221 260 1
221 485 1
221 517 1
221 549 1
222 97 1
222 129 1
222 161 1
222 201 1
222 233 1
222 265 1
222 490 1
222 522 1
222 554 1
223 98 1
223 130 1
223 162 1
223 204 1
223 236 1
223 268 1
223 493 1
223 525 1
223 557 1
224 99 1
224 131 1
224 163 1
224 197 1
224 229 1
224 261 1
224 491 1
224 523 1
224 555 1
225 118 1
225 134 1
225 182 1
225 216 1
225 232 1
225 280 1
225 510 1
225 526 1
225 574 1
226 116 1
226 132 1
226 180 1
226 218 1
226 234 1
226 282 1
226 511 1
226 527 1
226 575 1
227 119 1
227 135 1
227 183 1
227 221 1
227 237 1
227 285 1
227 512 1
227 528 1
227 576 1
228 124 1
228 140 1
228 188 1
228 222 1
228 238 1
228 286 1
228 498 1
228 514 1
228 562 1
229 125 1
229 141 1
229 189 1
229 210 1
229 226 1
229 274 1
229 503 1
229 519 1
229 567 1
230 121 1
230 137 1
230 185 1
230 219 1
230 235 1
230 283 1
230 497 1
230 513 1
230 561 1
231 117 1
231 133 1
231 181 1
231 223 1
231 239 1
231 287 1
231 499 1
231 515 1
231 563 1
232 123 1
232 139 1
232 187 1
232 211 1
232 227 1
232 275 1
232 505 1
232 521 1
232 569 1
233 120 1
233 136 1
233 184 1
233 224 1
233 240 1
233 288 1
233 502 1
233 518 1
233 566 1
234 126 1
234 142 1
234 190 1
234 214 1
234 230 1
234 278 1
234 508 1
234 524 1
234 572 1
235 128 1
235 144 1
235 192 1
235 215 1
235 231 1
235 279 1
235 504 1
235 520 1
235 568 1
236 122 1
236 138 1
236 186 1
236 209 1
236 225 1
236 273 1
236 500 1
236 516 1
236 564 1
237 127 1
237 143 1
237 191 1
237 212 1
237 228 1
237 276 1
237 501 1
237 517 1
237 565 1
238 113 1
238 129 1
238 177 1
238 217 1
238 233 1
238 281 1
238 506 1
238 522 1
238 570 1
239 114 1
239 130 1
239 178 1
239 220 1
239 236 1
239 284 1
239 509 1
239 525 1
239 573 1
240 115 1
240 131 1
240 179 1
240 213 1
240 229 1
240 277 1
240 507 1
240 523 1
240 571 1
241 200 1
241 216 1
241 248 1
241 297 1
241 313 1
241 345 1
241 397 1
241 413 1
241 445 1
242 202 1
242 218 1
242 250 1
242 300 1
242 316 1
242 348 1
242 395 1
242 411 1
242 443 1
243 205 1
243 221 1
243 253 1
243 293 1
243 309 1
243 341 1
243 398 1
243 414 1
243 446 1
244 206 1
244 222 1
244 254 1
244 298 1
244 314 1
244 346 1
244 400 1
244 416 1
244 448 1
245 194 1
245 210 1
245 242 1
245 303 1
245 319 1
245 351 1
245 390 1
245 406 1
245 438 1
246 203 1
246 219 1
246 251 1
246 296 1
246 312 1
246 344 1
246 399 1
246 415 1
246 447 1
247 207 1
247 223 1
247 255 1
247 301 1
247 317 1
247 349 1
247 385 1
247 401 1
247 433 1
248 195 1
248 211 1
248 243 1
248 304 1
248 320 1
248 352 1
248 388 1
248 404 1
248 436 1
249 208 1
249 224 1
249 256 1
249 299 1
249 315 1
249 347 1
249 386 1
249 402 1
249 434 1
250 198 1
250 214 1
250 246 1
250 289 1
250 305 1
250 337 1
250 391 1
250 407 1
250 439 1
251 199 1
251 215 1
251 247 1
251 291 1
251 307 1
251 339 1
251 396 1
251 412 1
251 444 1
252 193 1
252 209 1
252 241 1
252 302 1
252 318 1
252 350 1
252 387 1
252 403 1
252 435 1
253 196 1
253 212 1
253 244 1
253 290 1
253 306 1
253 338 1
253 393 1
253 409 1
253 441 1
254 201 1
254 217 1
254 249 1
254 294 1
254 310 1
254 342 1
254 389 1
254 405 1
254 437 1
255 204 1
255 220 1
255 252 1
255 292 1
255 308 1
255 340 1
255 392 1
255 408 1
255 440 1
256 197 1
256 213 1
256 245 1
256 295 1
256 311 1
256 343 1
256 394 1
256 410 1
256 442 1
257 200 1
257 232 1
257 264 1
257 297 1
257 329 1
257 361 1
257 397 1
257 429 1
257 461 1
258 202 1
258 234 1
258 266 1
258 300 1
258 332 1
258 364 1
258 395 1
258 427 1
258 459 1
259 205 1
259 237 1
259 269 1
259 293 1
259 325 1
259 357 1
259 398 1
259 430 1
259 462 1
260 206 1
260 238 1
260 270 1
260 298 1
260 330 1
260 362 1
260 400 1
260 432 1
260 464 1
261 194 1
261 226 1
261 258 1
261 303 1
261 335 1
261 367 1
261 390 1
261 422 1
261 454 1
262 203 1
262 235 1
262 267 1
262 296 1
262 328 1
262 360 1
262 399 1
262 431 1
262 463 1
263 207 1
263 239 1
263 271 1
263 301 1
263 333 1
263 365 1
263 385 1
263 417 1
263 449 1
264 195 1
264 227 1
264 259 1
264 304 1
264 336 1
264 368 1
264 388 1
264 420 1
264 452 1
265 208 1
265 240 1
265 272 1
265 299 1
265 331 1
265 363 1
265 386 1
265 418 1
265 450 1
266 198 1
266 230 1
266 262 1
266 289 1
266 321 1
266 353 1
266 391 1
266 423 1
266 455 1
267 199 1
267 231 1
267 263 1
267 291 1
267 323 1
267 355 1
267 396 1
267 428 1
267 460 1
268 193 1
268 225 1
268 257 1
268 302 1
268 334 1
268 366 1
268 387 1
268 419 1
268 451 1
269 196 1
269 228 1
269 260 1
269 290 1
269 322 1
269 354 1
269 393 1
269 425 1
269 457 1
270 201 1
270 233 1
270 265 1
270 294 1
270 326 1
270 358 1
270 389 1
270 421 1
270 453 1
271 204 1
271 236 1
271 268 1
271 292 1
271 324 1
271 356 1
271 392 1
271 424 1
271 456 1
272 197 1
272 229 1
272 261 1
272 295 1
272 327 1
272 359 1
272 394 1
272 426 1
272 458 1
273 216 1
273 232 1
273 280 1
273 313 1
273 329 1
273 377 1
273 413 1
273 429 1
273 477 1
274 218 1
274 234 1
274 282 1
274 316 1
274 332 1
274 380 1
274 411 1
274 427 1
274 475 1
275 221 1
275 237 1
275 285 1
275 309 1
275 325 1
275 373 1
275 414 1
275 430 1
275 478 1
276 222 1
276 238 1
276 286 1
276 314 1
276 330 1
276 378 1
276 416 1
276 432 1
276 480 1
277 210 1
277 226 1
277 274 1
277 319 1
277 335 1
277 383 1
277 406 1
277 422 1
277 470 1
278 219 1
278 235 1
278 283 1
278 312 1
278 328 1
278 376 1
278 415 1
278 431 1
278 479 1
279 223 1
279 239 1
279 287 1
279 317 1
279 333 1
279 381 1
279 401 1
279 417 1
279 465 1
280 211 1
280 227 1
280 275 1
280 320 1
280 336 1
280 384 1
280 404 1
280 420 1
280 468 1
281 224 1
281 240 1
281 288 1
281 315 1
281 331 1
281 379 1
281 402 1
281 418 1
281 466 1
282 214 1
282 230 1
282 278 1
282 305 1
282 321 1
282 369 1
282 407 1
282 423 1
282 471 1
283 215 1
283 231 1
283 279 1
283 307 1
283 323 1
283 371 1
283 412 1
283 428 1
283 476 1
284 209 1
284 225 1
284 273 1
284 318 1
284 334 1
284 382 1
284 403 1
284 419 1
284 467 1
285 212 1
285 228 1
285 276 1
285 306 1
285 322 1
285 370 1
285 409 1
285 425 1
285 473 1
286 217 1
286 233 1
286 281 1
286 310 1
286 326 1
286 374 1
286 405 1
286 421 1
286 469 1
287 220 1
287 236 1
287 284 1
287 308 1
287 324 1
287 372 1
287 408 1
287 424 1
287 472 1
288 213 1
288 229 1
288 277 1
288 311 1
288 327 1
288 375 1
288 410 1
288 426 1
288 474 1
