%%MatrixMarket matrix coordinate integer general
306 612 2754
1 1 1
1 52 1
1 69 1
1 103 1
1 154 1
1 171 1
1 307 1
1 358 1
1 375 1
2 2 1
2 53 1
2 70 1
2 104 1
2 155 1
2 172 1
2 308 1
2 359 1
2 376 1
3 3 1
3 54 1
3 71 1
3 105 1
3 156 1
3 173 1
3 309 1
3 360 1
3 377 1
4 4 1
4 55 1
4 72 1
4 106 1
4 157 1
4 174 1
4 310 1
4 361 1
4 378 1
5 5 1
5 56 1
5 73 1
5 107 1
5 158 1
5 175 1
5 311 1
5 362 1
5 379 1
6 6 1
6 57 1
6 74 1
6 108 1
6 159 1
6 176 1
6 312 1
6 363 1
6 380 1
7 7 1
7 58 1
7 75 1
7 109 1
7 160 1
7 177 1
7 313 1
7 364 1
7 381 1
8 8 1
8 59 1
8 76 1
8 110 1
8 161 1
8 178 1
8 314 1
8 365 1
8 382 1
9 9 1
9 60 1
9 77 1
9 111 1
9 162 1
9 179 1
9 315 1
9 366 1
9 383 1
10 10 1
10 61 1
10 78 1
10 112 1
10 163 1
10 180 1
10 316 1
10 367 1
10 384 1
11 11 1
11 62 1
11 79 1
11 113 1
11 164 1
11 181 1
11 317 1
11 368 1
11 385 1
12 12 1
12 63 1
12 80 1
12 114 1
12 165 1
12 182 1
12 318 1
12 369 1
12 386 1
13 13 1
13 64 1
13 81 1
13 115 1
13 166 1
13 183 1
13 319 1
13 370 1
13 387 1
14 14 1
14 65 1
14 82 1
14 116 1
14 167 1
14 184 1
14 320 1
14 371 1
14 388 1
15 15 1
15 66 1
15 83 1
15 117 1
15 168 1
15 185 1
15 321 1
15 372 1
15 389 1
16 16 1
16 67 1
16 84 1
16 118 1
16 169 1
16 186 1
16 322 1
16 373 1
16 390 1
17 17 1
17 68 1
17 85 1
17 119 1
17 170 1
17 187 1
17 323 1
17 374 1
17 391 1
18 18 1
18 52 1
18 86 1
18 120 1
18 154 1
18 188 1
18 324 1
18 358 1
18 392 1
19 19 1
19 53 1
19 87 1
19 121 1
19 155 1
19 189 1
19 325 1
19 359 1
19 393 1
20 20 1
20 54 1
20 88 1
20 122 1
20 156 1
20 190 1
20 326 1
20 360 1
20 394 1
21 21 1
21 55 1
21 89 1
21 123 1
21 157 1
21 191 1
21 327 1
21 361 1
21 395 1
22 22 1
22 56 1
22 90 1
22 124 1
22 158 1
22 192 1
22 328 1
22 362 1
22 396 1
23 23 1
23 57 1
23 91 1
23 125 1
23 159 1
23 193 1
23 329 1
23 363 1
23 397 1
24 24 1
24 58 1
24 92 1
24 126 1
24 160 1
24 194 1
24 330 1
24 364 1
24 398 1
25 25 1
25 59 1
25 93 1
25 127 1
25 161 1
25 195 1
25 331 1
25 365 1
25 399 1
26 26 1
26 60 1
26 94 1
26 128 1
26 162 1
26 196 1
26 332 1
26 366 1
26 400 1
27 27 1
27 61 1
27 95 1
27 129 1
27 163 1
27 197 1
27 333 1
27 367 1
27 401 1
28 28 1
28 62 1
28 96 1
28 130 1
28 164 1
28 198 1
28 334 1
28 368 1
28 402 1
29 29 1
29 63 1
29 97 1
29 131 1
29 165 1
29 199 1
29 335 1
29 369 1
29 403 1
30 30 1
30 64 1
30 98 1
30 132 1
30 166 1
30 200 1
30 336 1
30 370 1
30 404 1
31 31 1
31 65 1
31 99 1
31 133 1
31 167 1
31 201 1
31 337 1
31 371 1
31 405 1
32 32 1
32 66 1
32 100 1
32 134 1
32 168 1
32 202 1
32 338 1
32 372 1
32 406 1
33 33 1
33 67 1
33 101 1
33 135 1
33 169 1
33 203 1
33 339 1
33 373 1
33 407 1
34 34 1
34 68 1
34 102 1
34 136 1
34 170 1
34 204 1
34 340 1
34 374 1
34 408 1
35 35 1
35 69 1
35 86 1
35 137 1
35 171 1
35 188 1
35 341 1
35 375 1
35 392 1
36 36 1
36 70 1
36 87 1
36 138 1
36 172 1
36 189 1
36 342 1
36 376 1
36 393 1
37 37 1
37 71 1
37 88 1
37 139 1
37 173 1
37 190 1
37 343 1
37 377 1
37 394 1
38 38 1
38 72 1
38 89 1
38 140 1
38 174 1
38 191 1
38 344 1
38 378 1
38 395 1
39 39 1
39 73 1
39 90 1
39 141 1
39 175 1
39 192 1
39 345 1
39 379 1
39 396 1
40 40 1
40 74 1
40 91 1
40 142 1
40 176 1
40 193 1
40 346 1
40 380 1
40 397 1
41 41 1
41 75 1
41 92 1
41 143 1
41 177 1
41 194 1
41 347 1
41 381 1
41 398 1
42 42 1
42 76 1
42 93 1
42 144 1
42 178 1
42 195 1
42 348 1
42 382 1
42 399 1
43 43 1
43 77 1
43 94 1
43 145 1
43 179 1
43 196 1
43 349 1
43 383 1
43 400 1
44 44 1
44 78 1
44 95 1
44 146 1
44 180 1
44 197 1
44 350 1
44 384 1
44 401 1
45 45 1
45 79 1
45 96 1
45 147 1
45 181 1
45 198 1
45 351 1
45 385 1
45 402 1
46 46 1
46 80 1
46 97 1
46 148 1
46 182 1
46 199 1
46 352 1
46 386 1
46 403 1
47 47 1
47 81 1
47 98 1
47 149 1
47 183 1
47 200 1
47 353 1
47 387 1
47 404 1
48 48 1
48 82 1
48 99 1
48 150 1
48 184 1
48 201 1
48 354 1
48 388 1
48 405 1
49 49 1
49 83 1
49 100 1
49 151 1
49 185 1
49 202 1
49 355 1
49 389 1
49 406 1
50 50 1
50 84 1
50 101 1
50 152 1
50 186 1
50 203 1
50 356 1
50 390 1
50 407 1
51 51 1
51 85 1
51 102 1
51 153 1
51 187 1
51 204 1
51 357 1
51 391 1
51 408 1
52 1 1
52 52 1
52 69 1
52 205 1
52 256 1
52 273 1
52 409 1
52 460 1
52 477 1
53 2 1
53 53 1
53 70 1
53 206 1
53 257 1
53 274 1
53 410 1
53 461 1
53 478 1
54 3 1
54 54 1
54 71 1
54 207 1
54 258 1
54 275 1
54 411 1
54 462 1
54 479 1
55 4 1
55 55 1
55 72 1
55 208 1
55 259 1
55 276 1
55 412 1
55 463 1
55 480 1
56 5 1
56 56 1
56 73 1
56 209 1
56 260 1
56 277 1
56 413 1
56 464 1
56 481 1
57 6 1
57 57 1
57 74 1
57 210 1
57 261 1
57 278 1
57 414 1
57 465 1
57 482 1
58 7 1
58 58 1
58 75 1
58 211 1
58 262 1
58 279 1
58 415 1
58 466 1
58 483 1
59 8 1
59 59 1
59 76 1
59 212 1
59 263 1
59 280 1
59 416 1
59 467 1
59 484 1
60 9 1
60 60 1
60 77 1
60 213 1
60 264 1
60 281 1
60 417 1
60 468 1
60 485 1
61 10 1
61 61 1
61 78 1
61 214 1
61 265 1
61 282 1
61 418 1
61 469 1
61 486 1
62 11 1
62 62 1
62 79 1
62 215 1
62 266 1
62 283 1
62 419 1
62 470 1
62 487 1
63 12 1
63 63 1
63 80 1
63 216 1
63 267 1
63 284 1
63 420 1
63 471 1
63 488 1
64 13 1
64 64 1
64 81 1
64 217 1
64 268 1
64 285 1
64 421 1
64 472 1
64 489 1
65 14 1
65 65 1
65 82 1
65 218 1
65 269 1
65 286 1
65 422 1
65 473 1
65 490 1
66 15 1
66 66 1
66 83 1
66 219 1
66 270 1
66 287 1
66 423 1
66 474 1
66 491 1
67 16 1
67 67 1
67 84 1
67 220 1
67 271 1
67 288 1
67 424 1
67 475 1
67 492 1
68 17 1
68 68 1
68 85 1
68 221 1
68 272 1
68 289 1
68 425 1
68 476 1
68 493 1
69 18 1
69 52 1
69 86 1
69 222 1
69 256 1
69 290 1
69 426 1
69 460 1
69 494 1
70 19 1
70 53 1
70 87 1
70 223 1
70 257 1
70 291 1
70 427 1
70 461 1
70 495 1
71 20 1
71 54 1
71 88 1
71 224 1
71 258 1
71 292 1
71 428 1
71 462 1
71 496 1
72 21 1
72 55 1
72 89 1
72 225 1
72 259 1
72 293 1
72 429 1
72 463 1
72 497 1
73 22 1
73 56 1
73 90 1
73 226 1
73 260 1
73 294 1
73 430 1
73 464 1
73 498 1
74 23 1
74 57 1
74 91 1
74 227 1
74 261 1
74 295 1
74 431 1
74 465 1
74 499 1
75 24 1
75 58 1
75 92 1
75 228 1
75 262 1
75 296 1
75 432 1
75 466 1
75 500 1
76 25 1
76 59 1
76 93 1
76 229 1
76 263 1
76 297 1
76 433 1
76 467 1
76 501 1
77 26 1
77 60 1
77 94 1
77 230 1
77 264 1
77 298 1
77 434 1
77 468 1
77 502 1
78 27 1
78 61 1
78 95 1
78 231 1
78 265 1
78 299 1
78 435 1
78 469 1
78 503 1
79 28 1
79 62 1
79 96 1
79 232 1
79 266 1
79 300 1
79 436 1
79 470 1
79 504 1
80 29 1
80 63 1
80 97 1
80 233 1
80 267 1
80 301 1
80 437 1
80 471 1
80 505 1
81 30 1
81 64 1
81 98 1
81 234 1
81 268 1
81 302 1
81 438 1
81 472 1
81 506 1
82 31 1
82 65 1
82 99 1
82 235 1
82 269 1
82 303 1
82 439 1
82 473 1
82 507 1
83 32 1
83 66 1
83 100 1
83 236 1
83 270 1
83 304 1
83 440 1
83 474 1
83 508 1
84 33 1
84 67 1
84 101 1
84 237 1
84 271 1
84 305 1
84 441 1
84 475 1
84 509 1
85 34 1
85 68 1
85 102 1
85 238 1
85 272 1
85 306 1
85 442 1
85 476 1
85 510 1
86 35 1
86 69 1
86 86 1
86 239 1
86 273 1
86 290 1
86 443 1
86 477 1
86 494 1
87 36 1
87 70 1
87 87 1
87 240 1
87 274 1
87 291 1
87 444 1
87 478 1
87 495 1
88 37 1
88 71 1
88 88 1
88 241 1
88 275 1
88 292 1
88 445 1
88 479 1
88 496 1
89 38 1
89 72 1
89 89 1
89 242 1
89 276 1
89 293 1
89 446 1
89 480 1
89 497 1
90 39 1
90 73 1
90 90 1
90 243 1
90 277 1
90 294 1
90 447 1
90 481 1
90 498 1
91 40 1
91 74 1
91 91 1
91 244 1
91 278 1
91 295 1
91 448 1
91 482 1
91 499 1
92 41 1
92 75 1
92 92 1
92 245 1
92 279 1
92 296 1
92 449 1
92 483 1
92 500 1
93 42 1
93 76 1
93 93 1
93 246 1
93 280 1
93 297 1
93 450 1
93 484 1
93 501 1
94 43 1
94 77 1
94 94 1
94 247 1
94 281 1
94 298 1
94 451 1
94 485 1
94 502 1
95 44 1
95 78 1
95 95 1
95 248 1
95 282 1
95 299 1
95 452 1
95 486 1
95 503 1
96 45 1
96 79 1
96 96 1
96 249 1
96 283 1
96 300 1
96 453 1
96 487 1
96 504 1
97 46 1
97 80 1
97 97 1
97 250 1
97 284 1
97 301 1
97 454 1
97 488 1
97 505 1
98 47 1
98 81 1
98 98 1
98 251 1
98 285 1
98 302 1
98 455 1
98 489 1
98 506 1
99 48 1
99 82 1
99 99 1
99 252 1
99 286 1
99 303 1
99 456 1
99 490 1
99 507 1
100 49 1
100 83 1
100 100 1
100 253 1
100 287 1
100 304 1
100 457 1
100 491 1
100 508 1
101 50 1
101 84 1
101 101 1
101 254 1
101 288 1
101 305 1
101 458 1
101 492 1
101 509 1
102 51 1
102 85 1
102 102 1
102 255 1
102 289 1
102 306 1
102 459 1
102 493 1
102 510 1
103 103 1
103 154 1
103 171 1
103 205 1
103 256 1
103 273 1
103 511 1
103 562 1
103 579 1
104 104 1
104 155 1
104 172 1
104 206 1
104 257 1
104 274 1
104 512 1
104 563 1
104 580 1
105 105 1
105 156 1
105 173 1
105 207 1
105 258 1
105 275 1
105 513 1
105 564 1
105 581 1
106 106 1
106 157 1
106 174 1
106 208 1
106 259 1
106 276 1
106 514 1
106 565 1
106 582 1
107 107 1
107 158 1
107 175 1
107 209 1
107 260 1
107 277 1
107 515 1
107 566 1
107 583 1
108 108 1
108 159 1
108 176 1
108 210 1
108 261 1
108 278 1
108 516 1
108 567 1
108 584 1
109 109 1
109 160 1
109 177 1
109 211 1
109 262 1
109 279 1
109 517 1
109 568 1
109 585 1
110 110 1
110 161 1
110 178 1
110 212 1
110 263 1
110 280 1
110 518 1
110 569 1
110 586 1
111 111 1
111 162 1
111 179 1
111 213 1
111 264 1
111 281 1
111 519 1
111 570 1
111 587 1
112 112 1
112 163 1
112 180 1
112 214 1
112 265 1
112 282 1
112 520 1
112 571 1
112 588 1
113 113 1
113 164 1
113 181 1
113 215 1
113 266 1
113 283 1
113 521 1
113 572 1
113 589 1
114 114 1
114 165 1
114 182 1
114 216 1
114 267 1
114 284 1
114 522 1
114 573 1
114 590 1
115 115 1
115 166 1
115 183 1
115 217 1
115 268 1
115 285 1
115 523 1
115 574 1
115 591 1
116 116 1
116 167 1
116 184 1
116 218 1
116 269 1
116 286 1
116 524 1
116 575 1
116 592 1
117 117 1
117 168 1
117 185 1
117 219 1
117 270 1
117 287 1
117 525 1
117 576 1
117 593 1
118 118 1
118 169 1
118 186 1
118 220 1
118 271 1
118 288 1
118 526 1
118 577 1
118 594 1
119 119 1
119 170 1
119 187 1
119 221 1
119 272 1
119 289 1
119 527 1
119 578 1
119 595 1
120 120 1
120 154 1
120 188 1
120 222 1
120 256 1
120 290 1
120 528 1
120 562 1
120 596 1
121 121 1
121 155 1
121 189 1
121 223 1
121 257 1
121 291 1
121 529 1
121 563 1
121 597 1
122 122 1
122 156 1
122 190 1
122 224 1
122 258 1
122 292 1
122 530 1
122 564 1
122 598 1
123 123 1
123 157 1
123 191 1
123 225 1
123 259 1
123 293 1
123 531 1
123 565 1
123 599 1
124 124 1
124 158 1
124 192 1
124 226 1
124 260 1
124 294 1
124 532 1
124 566 1
124 600 1
125 125 1
125 159 1
125 193 1
125 227 1
125 261 1
125 295 1
125 533 1
125 567 1
125 601 1
126 126 1
126 160 1
126 194 1
126 228 1
126 262 1
126 296 1
126 534 1
126 568 1
126 602 1
127 127 1
127 161 1
127 195 1
127 229 1
127 263 1
127 297 1
127 535 1
127 569 1
127 603 1
128 128 1
128 162 1
128 196 1
128 230 1
128 264 1
128 298 1
128 536 1
128 570 1
128 604 1
129 129 1
129 163 1
129 197 1
129 231 1
129 265 1
129 299 1
129 537 1
129 571 1
129 605 1
130 130 1
130 164 1
130 198 1
130 232 1
130 266 1
130 300 1
130 538 1
130 572 1
130 606 1
131 131 1
131 165 1
131 199 1
131 233 1
131 267 1
131 301 1
131 539 1
131 573 1
131 607 1
132 132 1
132 166 1
132 200 1
132 234 1
132 268 1
132 302 1
132 540 1
132 574 1
132 608 1
133 133 1
133 167 1
133 201 1
133 235 1
133 269 1
133 303 1
133 541 1
133 575 1
133 609 1
134 134 1
134 168 1
134 202 1
134 236 1
134 270 1
134 304 1
134 542 1
134 576 1
134 610 1
135 135 1
135 169 1
135 203 1
135 237 1
135 271 1
135 305 1
135 543 1
135 577 1
135 611 1
136 136 1
136 170 1
136 204 1
136 238 1
136 272 1
136 306 1
136 544 1
136 578 1
136 612 1
137 137 1
137 171 1
137 188 1
137 239 1
137 273 1
137 290 1
137 545 1
137 579 1
137 596 1
138 138 1
138 172 1
138 189 1
138 240 1
138 274 1
138 291 1
138 546 1
138 580 1
138 597 1
139 139 1
139 173 1
139 190 1
139 241 1
139 275 1
139 292 1
139 547 1
139 581 1
139 598 1
140 140 1
140 174 1
140 191 1
140 242 1
140 276 1
140 293 1
140 548 1
140 582 1
140 599 1
141 141 1
141 175 1
141 192 1
141 243 1
141 277 1
141 294 1
141 549 1
141 583 1
141 600 1
142 142 1
142 176 1
142 193 1
142 244 1
142 278 1
142 295 1
142 550 1
142 584 1
142 601 1
143 143 1
143 177 1
143 194 1
143 245 1
143 279 1
143 296 1
143 551 1
143 585 1
143 602 1
144 144 1
144 178 1
144 195 1
144 246 1
144 280 1
144 297 1
144 552 1
144 586 1
144 603 1
145 145 1
145 179 1
145 196 1
145 247 1
145 281 1
145 298 1
145 553 1
145 587 1
145 604 1
146 146 1
146 180 1
146 197 1
146 248 1
146 282 1
146 299 1
146 554 1
146 588 1
146 605 1
147 147 1
147 181 1
147 198 1
147 249 1
147 283 1
147 300 1
147 555 1
147 589 1
147 606 1
148 148 1
148 182 1
148 199 1
148 250 1
148 284 1
148 301 1
148 556 1
148 590 1
148 607 1
149 149 1
149 183 1
149 200 1
149 251 1
149 285 1
149 302 1
149 557 1
149 591 1
149 608 1
150 150 1
150 184 1
150 201 1
150 252 1
150 286 1
150 303 1
150 558 1
150 592 1
150 609 1
151 151 1
151 185 1
151 202 1
151 253 1
151 287 1
151 304 1
151 559 1
151 593 1
151 610 1
152 152 1
152 186 1
152 203 1
152 254 1
152 288 1
152 305 1
152 560 1
152 594 1
152 611 1
153 153 1
153 187 1
153 204 1
153 255 1
153 289 1
153 306 1
153 561 1
153 595 1
153 612 1
154 1 1
154 58 1
154 73 1
154 111 1
154 168 1
154 183 1
154 315 1
154 372 1
154 387 1
155 2 1
155 59 1
155 74 1
155 112 1
155 169 1
155 184 1
155 316 1
155 373 1
155 388 1
156 3 1
156 60 1
156 75 1
156 113 1
156 170 1
156 185 1
156 317 1
156 374 1
156 389 1
157 4 1
157 61 1
157 76 1
157 114 1
157 154 1
157 186 1
157 318 1
157 358 1
157 390 1
158 5 1
158 62 1
158 77 1
158 115 1
158 155 1
158 187 1
158 319 1
158 359 1
158 391 1
159 6 1
159 63 1
159 78 1
159 116 1
159 156 1
159 171 1
159 320 1
159 360 1
159 375 1
160 7 1
160 64 1
160 79 1
160 117 1
160 157 1
160 172 1
160 321 1
160 361 1
160 376 1
161 8 1
161 65 1
161 80 1
161 118 1
161 158 1
161 173 1
161 322 1
161 362 1
161 377 1
162 9 1
162 66 1
162 81 1
162 119 1
162 159 1
162 174 1
162 323 1
162 363 1
162 378 1
163 10 1
163 67 1
163 82 1
163 103 1
163 160 1
163 175 1
163 307 1
163 364 1
163 379 1
164 11 1
164 68 1
164 83 1
164 104 1
164 161 1
164 176 1
164 308 1
164 365 1
164 380 1
165 12 1
165 52 1
165 84 1
165 105 1
165 162 1
165 177 1
165 309 1
165 366 1
165 381 1
166 13 1
166 53 1
166 85 1
166 106 1
166 163 1
166 178 1
166 310 1
166 367 1
166 382 1
167 14 1
167 54 1
167 69 1
167 107 1
167 164 1
167 179 1
167 311 1
167 368 1
167 383 1
168 15 1
168 55 1
168 70 1
168 108 1
168 165 1
168 180 1
168 312 1
168 369 1
168 384 1
169 16 1
169 56 1
169 71 1
169 109 1
169 166 1
169 181 1
169 313 1
169 370 1
169 385 1
170 17 1
170 57 1
170 72 1
170 110 1
170 167 1
170 182 1
170 314 1
170 371 1
170 386 1
171 33 1
171 58 1
171 89 1
171 126 1
171 168 1
171 199 1
171 330 1
171 372 1
171 403 1
172 34 1
172 59 1
172 90 1
172 127 1
172 169 1
172 200 1
172 331 1
172 373 1
172 404 1
173 18 1
173 60 1
173 91 1
173 128 1
173 170 1
173 201 1
173 332 1
173 374 1
173 405 1
174 19 1
174 61 1
174 92 1
174 129 1
174 154 1
174 202 1
174 333 1
174 358 1
174 406 1
175 20 1
175 62 1
175 93 1
175 130 1
175 155 1
175 203 1
175 334 1
175 359 1
175 407 1
176 21 1
176 63 1
176 94 1
176 131 1
176 156 1
176 204 1
176 335 1
176 360 1
176 408 1
177 22 1
177 64 1
177 95 1
177 132 1
177 157 1
177 188 1
177 336 1
177 361 1
177 392 1
178 23 1
178 65 1
178 96 1
178 133 1
178 158 1
178 189 1
178 337 1
178 362 1
178 393 1
179 24 1
179 66 1
179 97 1
179 134 1
179 159 1
179 190 1
179 338 1
179 363 1
179 394 1
180 25 1
180 67 1
180 98 1
180 135 1
180 160 1
180 191 1
180 339 1
180 364 1
180 395 1
181 26 1
181 68 1
181 99 1
181 136 1
181 161 1
181 192 1
181 340 1
181 365 1
181 396 1
182 27 1
182 52 1
182 100 1
182 120 1
182 162 1
182 193 1
182 324 1
182 366 1
182 397 1
183 28 1
183 53 1
183 101 1
183 121 1
183 163 1
183 194 1
183 325 1
183 367 1
183 398 1
184 29 1
184 54 1
184 102 1
184 122 1
184 164 1
184 195 1
184 326 1
184 368 1
184 399 1
185 30 1
185 55 1
185 86 1
185 123 1
185 165 1
185 196 1
185 327 1
185 369 1
185 400 1
186 31 1
186 56 1
186 87 1
186 124 1
186 166 1
186 197 1
186 328 1
186 370 1
186 401 1
187 32 1
187 57 1
187 88 1
187 125 1
187 167 1
187 198 1
187 329 1
187 371 1
187 402 1
188 49 1
188 73 1
188 89 1
188 142 1
188 183 1
188 199 1
188 346 1
188 387 1
188 403 1
189 50 1
189 74 1
189 90 1
189 143 1
189 184 1
189 200 1
189 347 1
189 388 1
189 404 1
190 51 1
190 75 1
190 91 1
190 144 1
190 185 1
190 201 1
190 348 1
190 389 1
190 405 1
191 35 1
191 76 1
191 92 1
191 145 1
191 186 1
191 202 1
191 349 1
191 390 1
191 406 1
192 36 1
192 77 1
192 93 1
192 146 1
192 187 1
192 203 1
192 350 1
192 391 1
192 407 1
193 37 1
193 78 1
193 94 1
193 147 1
193 171 1
193 204 1
193 351 1
193 375 1
193 408 1
194 38 1
194 79 1
194 95 1
194 148 1
194 172 1
194 188 1
194 352 1
194 376 1
194 392 1
195 39 1
195 80 1
195 96 1
195 149 1
195 173 1
195 189 1
195 353 1
195 377 1
195 393 1
196 40 1
196 81 1
196 97 1
196 150 1
196 174 1
196 190 1
196 354 1
196 378 1
196 394 1
197 41 1
197 82 1
197 98 1
197 151 1
197 175 1
197 191 1
197 355 1
197 379 1
197 395 1
198 42 1
198 83 1
198 99 1
198 152 1
198 176 1
198 192 1
198 356 1
198 380 1
198 396 1
199 43 1
199 84 1
199 100 1
199 153 1
199 177 1
199 193 1
199 357 1
199 381 1
199 397 1
200 44 1
200 85 1
200 101 1
200 137 1
200 178 1
200 194 1
200 341 1
200 382 1
200 398 1
201 45 1
201 69 1
201 102 1
201 138 1
201 179 1
201 195 1
201 342 1
201 383 1
201 399 1
202 46 1
202 70 1
202 86 1
202 139 1
202 180 1
202 196 1
202 343 1
202 384 1
202 400 1
203 47 1
203 71 1
203 87 1
203 140 1
203 181 1
203 197 1
203 344 1
203 385 1
203 401 1
204 48 1
204 72 1
204 88 1
204 141 1
204 182 1
204 198 1
204 345 1
204 386 1
204 402 1
205 1 1
205 58 1
205 73 1
205 213 1
205 270 1
205 285 1
205 417 1
205 474 1
205 489 1
206 2 1
206 59 1
206 74 1
206 214 1
206 271 1
206 286 1
206 418 1
206 475 1
206 490 1
207 3 1
207 60 1
207 75 1
207 215 1
207 272 1
207 287 1
207 419 1
207 476 1
207 491 1
208 4 1
208 61 1
208 76 1
208 216 1
208 256 1
208 288 1
208 420 1
208 460 1
208 492 1
209 5 1
209 62 1
209 77 1
209 217 1
209 257 1
209 289 1
209 421 1
209 461 1
209 493 1
210 6 1
210 63 1
210 78 1
210 218 1
210 258 1
210 273 1
210 422 1
210 462 1
210 477 1
211 7 1
211 64 1
211 79 1
211 219 1
211 259 1
211 274 1
211 423 1
211 463 1
211 478 1
212 8 1
212 65 1
212 80 1
212 220 1
212 260 1
212 275 1
212 424 1
212 464 1
212 479 1
213 9 1
213 66 1
213 81 1
213 221 1
213 261 1
213 276 1
213 425 1
213 465 1
213 480 1
214 10 1
214 67 1
214 82 1
214 205 1
214 262 1
214 277 1
214 409 1
214 466 1
214 481 1
215 11 1
215 68 1
215 83 1
215 206 1
215 263 1
215 278 1
215 410 1
215 467 1
215 482 1
216 12 1
216 52 1
216 84 1
216 207 1
216 264 1
216 279 1
216 411 1
216 468 1
216 483 1
217 13 1
217 53 1
217 85 1
217 208 1
217 265 1
217 280 1
217 412 1
217 469 1
217 484 1
218 14 1
218 54 1
218 69 1
218 209 1
218 266 1
218 281 1
218 413 1
218 470 1
218 485 1
219 15 1
219 55 1
219 70 1
219 210 1
219 267 1
219 282 1
219 414 1
219 471 1
219 486 1
220 16 1
220 56 1
220 71 1
220 211 1
220 268 1
220 283 1
220 415 1
220 472 1
220 487 1
221 17 1
221 57 1
221 72 1
221 212 1
221 269 1
221 284 1
221 416 1
221 473 1
221 488 1
222 33 1
222 58 1
222 89 1
222 228 1
222 270 1
222 301 1
222 432 1
222 474 1
222 505 1
223 34 1
223 59 1
223 90 1
223 229 1
223 271 1
223 302 1
223 433 1
223 475 1
223 506 1
224 18 1
224 60 1
224 91 1
224 230 1
224 272 1
224 303 1
224 434 1
224 476 1
224 507 1
225 19 1
225 61 1
225 92 1
225 231 1
225 256 1
225 304 1
225 435 1
225 460 1
225 508 1
226 20 1
226 62 1
226 93 1
226 232 1
226 257 1
226 305 1
226 436 1
226 461 1
226 509 1
227 21 1
227 63 1
227 94 1
227 233 1
227 258 1
227 306 1
227 437 1
227 462 1
227 510 1
228 22 1
228 64 1
228 95 1
228 234 1
228 259 1
228 290 1
228 438 1
228 463 1
228 494 1
229 23 1
229 65 1
229 96 1
229 235 1
229 260 1
229 291 1
229 439 1
229 464 1
229 495 1
230 24 1
230 66 1
230 97 1
230 236 1
230 261 1
230 292 1
230 440 1
230 465 1
230 496 1
231 25 1
231 67 1
231 98 1
231 237 1
231 262 1
231 293 1
231 441 1
231 466 1
231 497 1
232 26 1
232 68 1
232 99 1
232 238 1
232 263 1
232 294 1
232 442 1
232 467 1
232 498 1
233 27 1
233 52 1
233 100 1
233 222 1
233 264 1
233 295 1
233 426 1
233 468 1
233 499 1
234 28 1
234 53 1
234 101 1
234 223 1
234 265 1
234 296 1
234 427 1
234 469 1
234 500 1
235 29 1
235 54 1
235 102 1
235 224 1
235 266 1
235 297 1
235 428 1
235 470 1
235 501 1
236 30 1
236 55 1
236 86 1
236 225 1
236 267 1
236 298 1
236 429 1
236 471 1
236 502 1
237 31 1
237 56 1
237 87 1
237 226 1
237 268 1
237 299 1
237 430 1
237 472 1
237 503 1
238 32 1
238 57 1
238 88 1
238 227 1
238 269 1
238 300 1
238 431 1
238 473 1
238 504 1
239 49 1
239 73 1
239 89 1
239 244 1
239 285 1
239 301 1
239 448 1
239 489 1
239 505 1
240 50 1
240 74 1
240 90 1
240 245 1
240 286 1
240 302 1
240 449 1
240 490 1
240 506 1
241 51 1
241 75 1
241 91 1
241 246 1
241 287 1
241 303 1
241 450 1
241 491 1
241 507 1
242 35 1
242 76 1
242 92 1
242 247 1
242 288 1
242 304 1
242 451 1
242 492 1
242 508 1
243 36 1
243 77 1
243 93 1
243 248 1
243 289 1
243 305 1
243 452 1
243 493 1
243 509 1
244 37 1
244 78 1
244 94 1
244 249 1
244 273 1
244 306 1
244 453 1
244 477 1
244 510 1
245 38 1
245 79 1
245 95 1
245 250 1
245 274 1
245 290 1
245 454 1
245 478 1
245 494 1
246 39 1
246 80 1
246 96 1
246 251 1
246 275 1
246 291 1
246 455 1
246 479 1
246 495 1
247 40 1
247 81 1
247 97 1
247 252 1
247 276 1
247 292 1
247 456 1
247 480 1
247 496 1
248 41 1
248 82 1
248 98 1
248 253 1
248 277 1
248 293 1
248 457 1
248 481 1
248 497 1
249 42 1
249 83 1
249 99 1
249 254 1
249 278 1
249 294 1
249 458 1
249 482 1
249 498 1
250 43 1
250 84 1
250 100 1
250 255 1
250 279 1
250 295 1
250 459 1
250 483 1
250 499 1
251 44 1
251 85 1
251 101 1
251 239 1
251 280 1
251 296 1
251 443 1
251 484 1
251 500 1
252 45 1
252 69 1
252 102 1
252 240 1
252 281 1
252 297 1
252 444 1
252 485 1
252 501 1
253 46 1
253 70 1
253 86 1
253 241 1
253 282 1
253 298 1
253 445 1
253 486 1
253 502 1
254 47 1
254 71 1
254 87 1
254 242 1
254 283 1
254 299 1
254 446 1
254 487 1
254 503 1
255 48 1
255 72 1
255 88 1
255 243 1
255 284 1
255 300 1
255 447 1
255 488 1
255 504 1
256 111 1
256 168 1
256 183 1
256 213 1
256 270 1
256 285 1
256 519 1
256 576 1
256 591 1
257 112 1
257 169 1
257 184 1
257 214 1
257 271 1
257 286 1
257 520 1
257 577 1
257 592 1
258 113 1
258 170 1
258 185 1
258 215 1
258 272 1
258 287 1
258 521 1
258 578 1
258 593 1
259 114 1
259 154 1
259 186 1
259 216 1
259 256 1
259 288 1
259 522 1
259 562 1
259 594 1
260 115 1
260 155 1
260 187 1
260 217 1
260 257 1
260 289 1
260 523 1
260 563 1
260 595 1
261 116 1
261 156 1
261 171 1
261 218 1
261 258 1
261 273 1
261 524 1
261 564 1
261 579 1
262 117 1
262 157 1
262 172 1
262 219 1
262 259 1
262 274 1
262 525 1
262 565 1
262 580 1
263 118 1
263 158 1
263 173 1
263 220 1
263 260 1
263 275 1
263 526 1
263 566 1
263 581 1
264 119 1
264 159 1
264 174 1
264 221 1
264 261 1
264 276 1
264 527 1
264 567 1
264 582 1
265 103 1
265 160 1
265 175 1
265 205 1
265 262 1
265 277 1
265 511 1
265 568 1
265 583 1
266 104 1
266 161 1
266 176 1
266 206 1
266 263 1
266 278 1
266 512 1
266 569 1
266 584 1
267 105 1
267 162 1
267 177 1
267 207 1
267 264 1
267 279 1
267 513 1
267 570 1
267 585 1
268 106 1
268 163 1
268 178 1
268 208 1
268 265 1
268 280 1
268 514 1
268 571 1
268 586 1
269 107 1
269 164 1
269 179 1
269 209 1
269 266 1
269 281 1
269 515 1
269 572 1
269 587 1
270 108 1
270 165 1
270 180 1
270 210 1
270 267 1
270 282 1
270 516 1
270 573 1
270 588 1
271 109 1
271 166 1
271 181 1
271 211 1
271 268 1
271 283 1
271 517 1
271 574 1
271 589 1
272 110 1
272 167 1
272 182 1
272 212 1
272 269 1
272 284 1
272 518 1
272 575 1
272 590 1
273 126 1
273 168 1
273 199 1
273 228 1
273 270 1
273 301 1
273 534 1
273 576 1
273 607 1
274 127 1
274 169 1
274 200 1
274 229 1
274 271 1
274 302 1
274 535 1
274 577 1
274 608 1
275 128 1
275 170 1
275 201 1
275 230 1
275 272 1
275 303 1
275 536 1
275 578 1
275 609 1
276 129 1
276 154 1
276 202 1
276 231 1
276 256 1
276 304 1
276 537 1
276 562 1
276 610 1
277 130 1
277 155 1
277 203 1
277 232 1
277 257 1
277 305 1
277 538 1
277 563 1
277 611 1
278 131 1
278 156 1
278 204 1
278 233 1
278 258 1
278 306 1
278 539 1
278 564 1
278 612 1
279 132 1
279 157 1
279 188 1
279 234 1
279 259 1
279 290 1
279 540 1
279 565 1
279 596 1
280 133 1
280 158 1
280 189 1
280 235 1
280 260 1
280 291 1
280 541 1
280 566 1
280 597 1
281 134 1
281 159 1
281 190 1
281 236 1
281 261 1
281 292 1
281 542 1
281 567 1
281 598 1
282 135 1
282 160 1
282 191 1
282 237 1
282 262 1
282 293 1
282 543 1
282 568 1
282 599 1
283 136 1
283 161 1
283 192 1
283 238 1
283 263 1
283 294 1
283 544 1
283 569 1
283 600 1
284 120 1
284 162 1
284 193 1
284 222 1
284 264 1
284 295 1
284 528 1
284 570 1
284 601 1
285 121 1
285 163 1
285 194 1
285 223 1
285 265 1
285 296 1
285 529 1
285 571 1
285 602 1
286 122 1
286 164 1
286 195 1
286 224 1
286 266 1
286 297 1
286 530 1
286 572 1
286 603 1
287 123 1
287 165 1
287 196 1
287 225 1
287 267 1
287 298 1
287 531 1
287 573 1
287 604 1
288 124 1
288 166 1
288 197 1
288 226 1
288 268 1
288 299 1
288 532 1
288 574 1
288 605 1
289 125 1
289 167 1
289 198 1
289 227 1
289 269 1
289 300 1
289 533 1
289 575 1
289 606 1
290 142 1
290 183 1
290 199 1
290 244 1
290 285 1
290 301 1
290 550 1
290 591 1
290 607 1
291 143 1
291 184 1
291 200 1
291 245 1
291 286 1
291 302 1
291 551 1
291 592 1
291 608 1
292 144 1
292 185 1
292 201 1
292 246 1
292 287 1
292 303 1
292 552 1
292 593 1
292 609 1
293 145 1
293 186 1
293 202 1
293 247 1
293 288 1
293 304 1
293 553 1
293 594 1
293 610 1
294 146 1
294 187 1
294 203 1
294 248 1
294 289 1
294 305 1
294 554 1
294 595 1
294 611 1
295 147 1
295 171 1
295 204 1
295 249 1
295 273 1
295 306 1
295 555 1
295 579 1
295 612 1
296 148 1
296 172 1
296 188 1
296 250 1
296 274 1
296 290 1
296 556 1
296 580 1
296 596 1
297 149 1
297 173 1
297 189 1
297 251 1
297 275 1
297 291 1
297 557 1
297 581 1
297 597 1
298 150 1
298 174 1
298 190 1
298 252 1
298 276 1
298 292 1
298 558 1
298 582 1
298 598 1
299 151 1
299 175 1
299 191 1
299 253 1
299 277 1
299 293 1
299 559 1
299 583 1
299 599 1
300 152 1
300 176 1
300 192 1
300 254 1
300 278 1
300 294 1
300 560 1
300 584 1
300 600 1
301 153 1
301 177 1
301 193 1
301 255 1
301 279 1
301 295 1
301 561 1
301 585 1
301 601 1
302 137 1
302 178 1
302 194 1
302 239 1
302 280 1
302 296 1
302 545 1
302 586 1
302 602 1
303 138 1
303 179 1
303 195 1
303 240 1
303 281 1
303 297 1
303 546 1
303 587 1
303 603 1
304 139 1
304 180 1
304 196 1
304 241 1
304 282 1
304 298 1
304 547 1
304 588 1
304 604 1
305 140 1
305 181 1
305 197 1
305 242 1
305 283 1
305 299 1
305 548 1
305 589 1
305 605 1
306 141 1
306 182 1
306 198 1
306 243 1
306 284 1
306 300 1
306 549 1
306 590 1
306 606 1
