%%MatrixMarket matrix coordinate integer general
288 576 2592
1 1 1
1 34 1
1 77 1
1 289 1
1 322 1
1 365 1
1 385 1
1 418 1
1 461 1
2 2 1
2 36 1
2 79 1
2 290 1
2 324 1
2 367 1
2 386 1
2 420 1
2 463 1
3 3 1
3 38 1
3 66 1
3 291 1
3 326 1
3 354 1
3 387 1
3 422 1
3 450 1
4 4 1
4 39 1
4 80 1
4 292 1
4 327 1
4 368 1
4 388 1
4 423 1
4 464 1
5 5 1
5 40 1
5 70 1
5 293 1
5 328 1
5 358 1
5 389 1
5 424 1
5 454 1
6 6 1
6 41 1
6 68 1
6 294 1
6 329 1
6 356 1
6 390 1
6 425 1
6 452 1
7 7 1
7 33 1
7 74 1
7 295 1
7 321 1
7 362 1
7 391 1
7 417 1
7 458 1
8 8 1
8 43 1
8 73 1
8 296 1
8 331 1
8 361 1
8 392 1
8 427 1
8 457 1
9 9 1
9 44 1
9 71 1
9 297 1
9 332 1
9 359 1
9 393 1
9 428 1
9 455 1
10 10 1
10 45 1
10 72 1
10 298 1
10 333 1
10 360 1
10 394 1
10 429 1
10 456 1
11 11 1
11 46 1
11 76 1
11 299 1
11 334 1
11 364 1
11 395 1
11 430 1
11 460 1
12 12 1
12 35 1
12 65 1
12 300 1
12 323 1
12 353 1
12 396 1
12 419 1
12 449 1
13 13 1
13 47 1
13 75 1
13 301 1
13 335 1
13 363 1
13 397 1
13 431 1
13 459 1
14 14 1
14 37 1
14 67 1
14 302 1
14 325 1
14 355 1
14 398 1
14 421 1
14 451 1
15 15 1
15 48 1
15 78 1
15 303 1
15 336 1
15 366 1
15 399 1
15 432 1
15 462 1
16 16 1
16 42 1
16 69 1
16 304 1
16 330 1
16 357 1
16 400 1
16 426 1
16 453 1
17 1 1
17 51 1
17 86 1
17 289 1
17 339 1
17 374 1
17 385 1
17 435 1
17 470 1
18 2 1
18 54 1
18 89 1
18 290 1
18 342 1
18 377 1
18 386 1
18 438 1
18 473 1
19 3 1
19 53 1
19 88 1
19 291 1
19 341 1
19 376 1
19 387 1
19 437 1
19 472 1
20 4 1
20 57 1
20 92 1
20 292 1
20 345 1
20 380 1
20 388 1
20 441 1
20 476 1
21 5 1
21 58 1
21 93 1
21 293 1
21 346 1
21 381 1
21 389 1
21 442 1
21 477 1
22 6 1
22 56 1
22 91 1
22 294 1
22 344 1
22 379 1
22 390 1
22 440 1
22 475 1
23 7 1
23 60 1
23 83 1
23 295 1
23 348 1
23 371 1
23 391 1
23 444 1
23 467 1
24 8 1
24 61 1
24 95 1
24 296 1
24 349 1
24 383 1
24 392 1
24 445 1
24 479 1
25 9 1
25 59 1
25 94 1
25 297 1
25 347 1
25 382 1
25 393 1
25 443 1
25 478 1
26 10 1
26 49 1
26 82 1
26 298 1
26 337 1
26 370 1
26 394 1
26 433 1
26 466 1
27 11 1
27 63 1
27 96 1
27 299 1
27 351 1
27 384 1
27 395 1
27 447 1
27 480 1
28 12 1
28 62 1
28 85 1
28 300 1
28 350 1
28 373 1
28 396 1
28 446 1
28 469 1
29 13 1
29 50 1
29 84 1
29 301 1
29 338 1
29 372 1
29 397 1
29 434 1
29 468 1
30 14 1
30 64 1
30 90 1
30 302 1
30 352 1
30 378 1
30 398 1
30 448 1
30 474 1
31 15 1
31 52 1
31 87 1
31 303 1
31 340 1
31 375 1
31 399 1
31 436 1
31 471 1
32 16 1
32 55 1
32 81 1
32 304 1
32 343 1
32 369 1
32 400 1
32 439 1
32 465 1
33 17 1
33 34 1
33 51 1
33 305 1
33 322 1
33 339 1
33 401 1
33 418 1
33 435 1
34 18 1
34 36 1
34 54 1
34 306 1
34 324 1
34 342 1
34 402 1
34 420 1
34 438 1
35 19 1
35 38 1
35 53 1
35 307 1
35 326 1
35 341 1
35 403 1
35 422 1
35 437 1
36 20 1
36 39 1
36 57 1
36 308 1
36 327 1
36 345 1
36 404 1
36 423 1
36 441 1
37 21 1
37 40 1
37 58 1
37 309 1
37 328 1
37 346 1
37 405 1
37 424 1
37 442 1
38 22 1
38 41 1
38 56 1
38 310 1
38 329 1
38 344 1
38 406 1
38 425 1
38 440 1
39 23 1
39 33 1
39 60 1
39 311 1
39 321 1
39 348 1
39 407 1
39 417 1
39 444 1
40 24 1
40 43 1
40 61 1
40 312 1
40 331 1
40 349 1
40 408 1
40 427 1
40 445 1
41 25 1
41 44 1
41 59 1
41 313 1
41 332 1
41 347 1
41 409 1
41 428 1
41 443 1
42 26 1
42 45 1
42 49 1
42 314 1
42 333 1
42 337 1
42 410 1
42 429 1
42 433 1
43 27 1
43 46 1
43 63 1
43 315 1
43 334 1
43 351 1
43 411 1
43 430 1
43 447 1
44 28 1
44 35 1
44 62 1
44 316 1
44 323 1
44 350 1
44 412 1
44 419 1
44 446 1
45 29 1
45 47 1
45 50 1
45 317 1
45 335 1
45 338 1
45 413 1
45 431 1
45 434 1
46 30 1
46 37 1
46 64 1
46 318 1
46 325 1
46 352 1
46 414 1
46 421 1
46 448 1
47 31 1
47 48 1
47 52 1
47 319 1
47 336 1
47 340 1
47 415 1
47 432 1
47 436 1
48 32 1
48 42 1
48 55 1
48 320 1
48 330 1
48 343 1
48 416 1
48 426 1
48 439 1
49 97 1
49 130 1
49 173 1
49 289 1
49 322 1
49 365 1
49 481 1
49 514 1
49 557 1
50 98 1
50 132 1
50 175 1
50 290 1
50 324 1
50 367 1
50 482 1
50 516 1
50 559 1
51 99 1
51 134 1
51 162 1
51 291 1
51 326 1
51 354 1
51 483 1
51 518 1
51 546 1
52 100 1
52 135 1
52 176 1
52 292 1
52 327 1
52 368 1
52 484 1
52 519 1
52 560 1
53 101 1
53 136 1
53 166 1
53 293 1
53 328 1
53 358 1
53 485 1
53 520 1
53 550 1
54 102 1
54 137 1
54 164 1
54 294 1
54 329 1
54 356 1
54 486 1
54 521 1
54 548 1
55 103 1
55 129 1
55 170 1
55 295 1
55 321 1
55 362 1
55 487 1
55 513 1
55 554 1
56 104 1
56 139 1
56 169 1
56 296 1
56 331 1
56 361 1
56 488 1
56 523 1
56 553 1
57 105 1
57 140 1
57 167 1
57 297 1
57 332 1
57 359 1
57 489 1
57 524 1
57 551 1
58 106 1
58 141 1
58 168 1
58 298 1
58 333 1
58 360 1
58 490 1
58 525 1
58 552 1
59 107 1
59 142 1
59 172 1
59 299 1
59 334 1
59 364 1
59 491 1
59 526 1
59 556 1
60 108 1
60 131 1
60 161 1
60 300 1
60 323 1
60 353 1
60 492 1
60 515 1
60 545 1
61 109 1
61 143 1
61 171 1
61 301 1
61 335 1
61 363 1
61 493 1
61 527 1
61 555 1
62 110 1
62 133 1
62 163 1
62 302 1
62 325 1
62 355 1
62 494 1
62 517 1
62 547 1
63 111 1
63 144 1
63 174 1
63 303 1
63 336 1
63 366 1
63 495 1
63 528 1
63 558 1
64 112 1
64 138 1
64 165 1
64 304 1
64 330 1
64 357 1
64 496 1
64 522 1
64 549 1
65 97 1
65 147 1
65 182 1
65 289 1
65 339 1
65 374 1
65 481 1
65 531 1
65 566 1
66 98 1
66 150 1
66 185 1
66 290 1
66 342 1
66 377 1
66 482 1
66 534 1
66 569 1
67 99 1
67 149 1
67 184 1
67 291 1
67 341 1
67 376 1
67 483 1
67 533 1
67 568 1
68 100 1
68 153 1
68 188 1
68 292 1
68 345 1
68 380 1
68 484 1
68 537 1
68 572 1
69 101 1
69 154 1
69 189 1
69 293 1
69 346 1
69 381 1
69 485 1
69 538 1
69 573 1
70 102 1
70 152 1
70 187 1
70 294 1
70 344 1
70 379 1
70 486 1
70 536 1
70 571 1
71 103 1
71 156 1
71 179 1
71 295 1
71 348 1
71 371 1
71 487 1
71 540 1
71 563 1
72 104 1
72 157 1
72 191 1
72 296 1
72 349 1
72 383 1
72 488 1
72 541 1
72 575 1
73 105 1
73 155 1
73 190 1
73 297 1
73 347 1
73 382 1
73 489 1
73 539 1
73 574 1
74 106 1
74 145 1
74 178 1
74 298 1
74 337 1
74 370 1
74 490 1
74 529 1
74 562 1
75 107 1
75 159 1
75 192 1
75 299 1
75 351 1
75 384 1
75 491 1
75 543 1
75 576 1
76 108 1
76 158 1
76 181 1
76 300 1
76 350 1
76 373 1
76 492 1
76 542 1
76 565 1
77 109 1
77 146 1
77 180 1
77 301 1
77 338 1
77 372 1
77 493 1
77 530 1
77 564 1
78 110 1
78 160 1
78 186 1
78 302 1
78 352 1
78 378 1
78 494 1
78 544 1
78 570 1
79 111 1
79 148 1
79 183 1
79 303 1
79 340 1
79 375 1
79 495 1
79 532 1
79 567 1
80 112 1
80 151 1
80 177 1
80 304 1
80 343 1
80 369 1
80 496 1
80 535 1
80 561 1
81 113 1
81 130 1
81 147 1
81 305 1
81 322 1
81 339 1
81 497 1
81 514 1
81 531 1
82 114 1
82 132 1
82 150 1
82 306 1
82 324 1
82 342 1
82 498 1
82 516 1
82 534 1
83 115 1
83 134 1
83 149 1
83 307 1
83 326 1
83 341 1
83 499 1
83 518 1
83 533 1
84 116 1
84 135 1
84 153 1
84 308 1
84 327 1
84 345 1
84 500 1
84 519 1
84 537 1
85 117 1
85 136 1
85 154 1
85 309 1
85 328 1
85 346 1
85 501 1
85 520 1
85 538 1
86 118 1
86 137 1
86 152 1
86 310 1
86 329 1
86 344 1
86 502 1
86 521 1
86 536 1
87 119 1
87 129 1
87 156 1
87 311 1
87 321 1
87 348 1
87 503 1
87 513 1
87 540 1
88 120 1
88 139 1
88 157 1
88 312 1
88 331 1
88 349 1
88 504 1
88 523 1
88 541 1
89 121 1
89 140 1
89 155 1
89 313 1
89 332 1
89 347 1
89 505 1
89 524 1
89 539 1
90 122 1
90 141 1
90 145 1
90 314 1
90 333 1
90 337 1
90 506 1
90 525 1
90 529 1
91 123 1
91 142 1
91 159 1
91 315 1
91 334 1
91 351 1
91 507 1
91 526 1
91 543 1
92 124 1
92 131 1
92 158 1
92 316 1
92 323 1
92 350 1
92 508 1
92 515 1
92 542 1
93 125 1
93 143 1
93 146 1
93 317 1
93 335 1
93 338 1
93 509 1
93 527 1
93 530 1
94 126 1
94 133 1
94 160 1
94 318 1
94 325 1
94 352 1
94 510 1
94 517 1
94 544 1
95 127 1
95 144 1
95 148 1
95 319 1
95 336 1
95 340 1
95 511 1
95 528 1
95 532 1
96 128 1
96 138 1
96 151 1
96 320 1
96 330 1
96 343 1
96 512 1
96 522 1
96 535 1
97 193 1
97 226 1
97 269 1
97 385 1
97 418 1
97 461 1
97 481 1
97 514 1
97 557 1
98 194 1
98 228 1
98 271 1
98 386 1
98 420 1
98 463 1
98 482 1
98 516 1
98 559 1
99 195 1
99 230 1
99 258 1
99 387 1
99 422 1
99 450 1
99 483 1
99 518 1
99 546 1
100 196 1
100 231 1
100 272 1
100 388 1
100 423 1
100 464 1
100 484 1
100 519 1
100 560 1
101 197 1
101 232 1
101 262 1
101 389 1
101 424 1
101 454 1
101 485 1
101 520 1
101 550 1
102 198 1
102 233 1
102 260 1
102 390 1
102 425 1
102 452 1
102 486 1
102 521 1
102 548 1
103 199 1
103 225 1
103 266 1
103 391 1
103 417 1
103 458 1
103 487 1
103 513 1
103 554 1
104 200 1
104 235 1
104 265 1
104 392 1
104 427 1
104 457 1
104 488 1
104 523 1
104 553 1
105 201 1
105 236 1
105 263 1
105 393 1
105 428 1
105 455 1
105 489 1
105 524 1
105 551 1
106 202 1
106 237 1
106 264 1
106 394 1
106 429 1
106 456 1
106 490 1
106 525 1
106 552 1
107 203 1
107 238 1
107 268 1
107 395 1
107 430 1
107 460 1
107 491 1
107 526 1
107 556 1
108 204 1
108 227 1
108 257 1
108 396 1
108 419 1
108 449 1
108 492 1
108 515 1
108 545 1
109 205 1
109 239 1
109 267 1
109 397 1
109 431 1
109 459 1
109 493 1
109 527 1
109 555 1
110 206 1
110 229 1
110 259 1
110 398 1
110 421 1
110 451 1
110 494 1
110 517 1
110 547 1
111 207 1
111 240 1
111 270 1
111 399 1
111 432 1
111 462 1
111 495 1
111 528 1
111 558 1
112 208 1
112 234 1
112 261 1
112 400 1
112 426 1
112 453 1
112 496 1
112 522 1
112 549 1
113 193 1
113 243 1
113 278 1
113 385 1
113 435 1
113 470 1
113 481 1
113 531 1
113 566 1
114 194 1
114 246 1
114 281 1
114 386 1
114 438 1
114 473 1
114 482 1
114 534 1
114 569 1
115 195 1
115 245 1
115 280 1
115 387 1
115 437 1
115 472 1
115 483 1
115 533 1
115 568 1
116 196 1
116 249 1
116 284 1
116 388 1
116 441 1
116 476 1
116 484 1
116 537 1
116 572 1
117 197 1
117 250 1
117 285 1
117 389 1
117 442 1
117 477 1
117 485 1
117 538 1
117 573 1
118 198 1
118 248 1
118 283 1
118 390 1
118 440 1
118 475 1
118 486 1
118 536 1
118 571 1
119 199 1
119 252 1
119 275 1
119 391 1
119 444 1
119 467 1
119 487 1
119 540 1
119 563 1
120 200 1
120 253 1
120 287 1
120 392 1
120 445 1
120 479 1
120 488 1
120 541 1
120 575 1
121 201 1
121 251 1
121 286 1
121 393 1
121 443 1
121 478 1
121 489 1
121 539 1
121 574 1
122 202 1
122 241 1
122 274 1
122 394 1
122 433 1
122 466 1
122 490 1
122 529 1
122 562 1
123 203 1
123 255 1
123 288 1
123 395 1
123 447 1
123 480 1
123 491 1
123 543 1
123 576 1
124 204 1
124 254 1
124 277 1
124 396 1
124 446 1
124 469 1
124 492 1
124 542 1
124 565 1
125 205 1
125 242 1
125 276 1
125 397 1
125 434 1
125 468 1
125 493 1
125 530 1
125 564 1
126 206 1
126 256 1
126 282 1
126 398 1
126 448 1
126 474 1
126 494 1
126 544 1
126 570 1
127 207 1
127 244 1
127 279 1
127 399 1
127 436 1
127 471 1
127 495 1
127 532 1
127 567 1
128 208 1
128 247 1
128 273 1
128 400 1
128 439 1
128 465 1
128 496 1
128 535 1
128 561 1
129 209 1
129 226 1
129 243 1
129 401 1
129 418 1
129 435 1
129 497 1
129 514 1
129 531 1
130 210 1
130 228 1
130 246 1
130 402 1
130 420 1
130 438 1
130 498 1
130 516 1
130 534 1
131 211 1
131 230 1
131 245 1
131 403 1
131 422 1
131 437 1
131 499 1
131 518 1
131 533 1
132 212 1
132 231 1
132 249 1
132 404 1
132 423 1
132 441 1
132 500 1
132 519 1
132 537 1
133 213 1
133 232 1
133 250 1
133 405 1
133 424 1
133 442 1
133 501 1
133 520 1
133 538 1
134 214 1
134 233 1
134 248 1
134 406 1
134 425 1
134 440 1
134 502 1
134 521 1
134 536 1
135 215 1
135 225 1
135 252 1
135 407 1
135 417 1
135 444 1
135 503 1
135 513 1
135 540 1
136 216 1
136 235 1
136 253 1
136 408 1
136 427 1
136 445 1
136 504 1
136 523 1
136 541 1
137 217 1
137 236 1
137 251 1
137 409 1
137 428 1
137 443 1
137 505 1
137 524 1
137 539 1
138 218 1
138 237 1
138 241 1
138 410 1
138 429 1
138 433 1
138 506 1
138 525 1
138 529 1
139 219 1
139 238 1
139 255 1
139 411 1
139 430 1
139 447 1
139 507 1
139 526 1
139 543 1
140 220 1
140 227 1
140 254 1
140 412 1
140 419 1
140 446 1
140 508 1
140 515 1
140 542 1
141 221 1
141 239 1
141 242 1
141 413 1
141 431 1
141 434 1
141 509 1
141 527 1
141 530 1
142 222 1
142 229 1
142 256 1
142 414 1
142 421 1
142 448 1
142 510 1
142 517 1
142 544 1
143 223 1
143 240 1
143 244 1
143 415 1
143 432 1
143 436 1
143 511 1
143 528 1
143 532 1
144 224 1
144 234 1
144 247 1
144 416 1
144 426 1
144 439 1
144 512 1
144 522 1
144 535 1
145 1 1
145 17 1
145 49 1
145 393 1
145 409 1
145 441 1
145 494 1
145 510 1
145 542 1
146 2 1
146 18 1
146 50 1
146 396 1
146 412 1
146 444 1
146 485 1
146 501 1
146 533 1
147 3 1
147 19 1
147 51 1
147 395 1
147 411 1
147 443 1
147 496 1
147 512 1
147 544 1
148 4 1
148 20 1
148 52 1
148 387 1
148 403 1
148 435 1
148 488 1
148 504 1
148 536 1
149 5 1
149 21 1
149 53 1
149 399 1
149 415 1
149 447 1
149 487 1
149 503 1
149 535 1
150 6 1
150 22 1
150 54 1
150 398 1
150 414 1
150 446 1
150 490 1
150 506 1
150 538 1
151 7 1
151 23 1
151 55 1
151 390 1
151 406 1
151 438 1
151 491 1
151 507 1
151 539 1
152 8 1
152 24 1
152 56 1
152 400 1
152 416 1
152 448 1
152 481 1
152 497 1
152 529 1
153 9 1
153 25 1
153 57 1
153 389 1
153 405 1
153 437 1
153 493 1
153 509 1
153 541 1
154 10 1
154 26 1
154 58 1
154 388 1
154 404 1
154 436 1
154 492 1
154 508 1
154 540 1
155 11 1
155 27 1
155 59 1
155 394 1
155 410 1
155 442 1
155 482 1
155 498 1
155 530 1
156 12 1
156 28 1
156 60 1
156 392 1
156 408 1
156 440 1
156 495 1
156 511 1
156 543 1
157 13 1
157 29 1
157 61 1
157 391 1
157 407 1
157 439 1
157 483 1
157 499 1
157 531 1
158 14 1
158 30 1
158 62 1
158 397 1
158 413 1
158 445 1
158 484 1
158 500 1
158 532 1
159 15 1
159 31 1
159 63 1
159 385 1
159 401 1
159 433 1
159 486 1
159 502 1
159 534 1
160 16 1
160 32 1
160 64 1
160 386 1
160 402 1
160 434 1
160 489 1
160 505 1
160 537 1
161 1 1
161 33 1
161 65 1
161 393 1
161 425 1
161 457 1
161 494 1
161 526 1
161 558 1
162 2 1
162 34 1
162 66 1
162 396 1
162 428 1
162 460 1
162 485 1
162 517 1
162 549 1
163 3 1
163 35 1
163 67 1
163 395 1
163 427 1
163 459 1
163 496 1
163 528 1
163 560 1
164 4 1
164 36 1
164 68 1
164 387 1
164 419 1
164 451 1
164 488 1
164 520 1
164 552 1
165 5 1
165 37 1
165 69 1
165 399 1
165 431 1
165 463 1
165 487 1
165 519 1
165 551 1
166 6 1
166 38 1
166 70 1
166 398 1
166 430 1
166 462 1
166 490 1
166 522 1
166 554 1
167 7 1
167 39 1
167 71 1
167 390 1
167 422 1
167 454 1
167 491 1
167 523 1
167 555 1
168 8 1
168 40 1
168 72 1
168 400 1
168 432 1
168 464 1
168 481 1
168 513 1
168 545 1
169 9 1
169 41 1
169 73 1
169 389 1
169 421 1
169 453 1
169 493 1
169 525 1
169 557 1
170 10 1
170 42 1
170 74 1
170 388 1
170 420 1
170 452 1
170 492 1
170 524 1
170 556 1
171 11 1
171 43 1
171 75 1
171 394 1
171 426 1
171 458 1
171 482 1
171 514 1
171 546 1
172 12 1
172 44 1
172 76 1
172 392 1
172 424 1
172 456 1
172 495 1
172 527 1
172 559 1
173 13 1
173 45 1
173 77 1
173 391 1
173 423 1
173 455 1
173 483 1
173 515 1
173 547 1
174 14 1
174 46 1
174 78 1
174 397 1
174 429 1
174 461 1
174 484 1
174 516 1
174 548 1
175 15 1
175 47 1
175 79 1
175 385 1
175 417 1
175 449 1
175 486 1
175 518 1
175 550 1
176 16 1
176 48 1
176 80 1
176 386 1
176 418 1
176 450 1
176 489 1
176 521 1
176 553 1
177 17 1
177 33 1
177 81 1
177 409 1
177 425 1
177 473 1
177 510 1
177 526 1
177 574 1
178 18 1
178 34 1
178 82 1
178 412 1
178 428 1
178 476 1
178 501 1
178 517 1
178 565 1
179 19 1
179 35 1
179 83 1
179 411 1
179 427 1
179 475 1
179 512 1
179 528 1
179 576 1
180 20 1
180 36 1
180 84 1
180 403 1
180 419 1
180 467 1
180 504 1
180 520 1
180 568 1
181 21 1
181 37 1
181 85 1
181 415 1
181 431 1
181 479 1
181 503 1
181 519 1
181 567 1
182 22 1
182 38 1
182 86 1
182 414 1
182 430 1
182 478 1
182 506 1
182 522 1
182 570 1
183 23 1
183 39 1
183 87 1
183 406 1
183 422 1
183 470 1
183 507 1
183 523 1
183 571 1
184 24 1
184 40 1
184 88 1
184 416 1
184 432 1
184 480 1
184 497 1
184 513 1
184 561 1
185 25 1
185 41 1
185 89 1
185 405 1
185 421 1
185 469 1
185 509 1
185 525 1
185 573 1
186 26 1
186 42 1
186 90 1
186 404 1
186 420 1
186 468 1
186 508 1
186 524 1
186 572 1
187 27 1
187 43 1
187 91 1
187 410 1
187 426 1
187 474 1
187 498 1
187 514 1
187 562 1
188 28 1
188 44 1
188 92 1
188 408 1
188 424 1
188 472 1
188 511 1
188 527 1
188 575 1
189 29 1
189 45 1
189 93 1
189 407 1
189 423 1
189 471 1
189 499 1
189 515 1
189 563 1
190 30 1
190 46 1
190 94 1
190 413 1
190 429 1
190 477 1
190 500 1
190 516 1
190 564 1
191 31 1
191 47 1
191 95 1
191 401 1
191 417 1
191 465 1
191 502 1
191 518 1
191 566 1
192 32 1
192 48 1
192 96 1
192 402 1
192 418 1
192 466 1
192 505 1
192 521 1
192 569 1
193 97 1
193 113 1
193 145 1
193 194 1
193 210 1
193 242 1
193 393 1
193 409 1
193 441 1
194 98 1
194 114 1
194 146 1
194 196 1
194 212 1
194 244 1
194 396 1
194 412 1
194 444 1
195 99 1
195 115 1
195 147 1
195 198 1
195 214 1
195 246 1
195 395 1
195 411 1
195 443 1
196 100 1
196 116 1
196 148 1
196 199 1
196 215 1
196 247 1
196 387 1
196 403 1
196 435 1
197 101 1
197 117 1
197 149 1
197 200 1
197 216 1
197 248 1
197 399 1
197 415 1
197 447 1
198 102 1
198 118 1
198 150 1
198 201 1
198 217 1
198 249 1
198 398 1
198 414 1
198 446 1
199 103 1
199 119 1
199 151 1
199 193 1
199 209 1
199 241 1
199 390 1
199 406 1
199 438 1
200 104 1
200 120 1
200 152 1
200 203 1
200 219 1
200 251 1
200 400 1
200 416 1
200 448 1
201 105 1
201 121 1
201 153 1
201 204 1
201 220 1
201 252 1
201 389 1
201 405 1
201 437 1
202 106 1
202 122 1
202 154 1
202 205 1
202 221 1
202 253 1
202 388 1
202 404 1
202 436 1
203 107 1
203 123 1
203 155 1
203 206 1
203 222 1
203 254 1
203 394 1
203 410 1
203 442 1
204 108 1
204 124 1
204 156 1
204 195 1
204 211 1
204 243 1
204 392 1
204 408 1
204 440 1
205 109 1
205 125 1
205 157 1
205 207 1
205 223 1
205 255 1
205 391 1
205 407 1
205 439 1
206 110 1
206 126 1
206 158 1
206 197 1
206 213 1
206 245 1
206 397 1
206 413 1
206 445 1
207 111 1
207 127 1
207 159 1
207 208 1
207 224 1
207 256 1
207 385 1
207 401 1
207 433 1
208 112 1
208 128 1
208 160 1
208 202 1
208 218 1
208 250 1
208 386 1
208 402 1
208 434 1
209 97 1
209 129 1
209 161 1
209 194 1
209 226 1
209 258 1
209 393 1
209 425 1
209 457 1
210 98 1
210 130 1
210 162 1
210 196 1
210 228 1
210 260 1
210 396 1
210 428 1
210 460 1
211 99 1
211 131 1
211 163 1
211 198 1
211 230 1
211 262 1
211 395 1
211 427 1
211 459 1
212 100 1
212 132 1
212 164 1
212 199 1
212 231 1
212 263 1
212 387 1
212 419 1
212 451 1
213 101 1
213 133 1
213 165 1
213 200 1
213 232 1
213 264 1
213 399 1
213 431 1
213 463 1
214 102 1
214 134 1
214 166 1
214 201 1
214 233 1
214 265 1
214 398 1
214 430 1
214 462 1
215 103 1
215 135 1
215 167 1
215 193 1
215 225 1
215 257 1
215 390 1
215 422 1
215 454 1
216 104 1
216 136 1
216 168 1
216 203 1
216 235 1
216 267 1
216 400 1
216 432 1
216 464 1
217 105 1
217 137 1
217 169 1
217 204 1
217 236 1
217 268 1
217 389 1
217 421 1
217 453 1
218 106 1
218 138 1
218 170 1
218 205 1
218 237 1
218 269 1
218 388 1
218 420 1
218 452 1
219 107 1
219 139 1
219 171 1
219 206 1
219 238 1
219 270 1
219 394 1
219 426 1
219 458 1
220 108 1
220 140 1
220 172 1
220 195 1
220 227 1
220 259 1
220 392 1
220 424 1
220 456 1
221 109 1
221 141 1
221 173 1
221 207 1
221 239 1
221 271 1
221 391 1
221 423 1
221 455 1
222 110 1
222 142 1
222 174 1
222 197 1
222 229 1
222 261 1
222 397 1
222 429 1
222 461 1
223 111 1
223 143 1
223 175 1
223 208 1
223 240 1
223 272 1
223 385 1
223 417 1
223 449 1
224 112 1
224 144 1
224 176 1
224 202 1
224 234 1
224 266 1
224 386 1
224 418 1
224 450 1
225 113 1
225 129 1
225 177 1
225 210 1
225 226 1
225 274 1
225 409 1
225 425 1
225 473 1
226 114 1
226 130 1
226 178 1
226 212 1
226 228 1
226 276 1
226 412 1
226 428 1
226 476 1
227 115 1
227 131 1
227 179 1
227 214 1
227 230 1
227 278 1
227 411 1
227 427 1
227 475 1
228 116 1
228 132 1
228 180 1
228 215 1
228 231 1
228 279 1
228 403 1
228 419 1
228 467 1
229 117 1
229 133 1
229 181 1
229 216 1
229 232 1
229 280 1
229 415 1
229 431 1
229 479 1
230 118 1
230 134 1
230 182 1
230 217 1
230 233 1
230 281 1
230 414 1
230 430 1
230 478 1
231 119 1
231 135 1
231 183 1
231 209 1
231 225 1
231 273 1
231 406 1
231 422 1
231 470 1
232 120 1
232 136 1
232 184 1
232 219 1
232 235 1
232 283 1
232 416 1
232 432 1
232 480 1
233 121 1
233 137 1
233 185 1
233 220 1
233 236 1
233 284 1
233 405 1
233 421 1
233 469 1
234 122 1
234 138 1
234 186 1
234 221 1
234 237 1
234 285 1
234 404 1
234 420 1
234 468 1
235 123 1
235 139 1
235 187 1
235 222 1
235 238 1
235 286 1
235 410 1
235 426 1
235 474 1
236 124 1
236 140 1
236 188 1
236 211 1
236 227 1
236 275 1
236 408 1
236 424 1
236 472 1
237 125 1
237 141 1
237 189 1
237 223 1
237 239 1
237 287 1
237 407 1
237 423 1
237 471 1
238 126 1
238 142 1
238 190 1
238 213 1
238 229 1
238 277 1
238 413 1
238 429 1
238 477 1
239 127 1
239 143 1
239 191 1
239 224 1
239 240 1
239 288 1
239 401 1
239 417 1
239 465 1
240 128 1
240 144 1
240 192 1
240 218 1
240 234 1
240 282 1
240 402 1
240 418 1
240 466 1
241 97 1
241 113 1
241 145 1
241 291 1
241 307 1
241 339 1
241 494 1
241 510 1
241 542 1
242 98 1
242 114 1
242 146 1
242 294 1
242 310 1
242 342 1
242 485 1
242 501 1
242 533 1
243 99 1
243 115 1
243 147 1
243 293 1
243 309 1
243 341 1
243 496 1
243 512 1
243 544 1
244 100 1
244 116 1
244 148 1
244 297 1
244 313 1
244 345 1
244 488 1
244 504 1
244 536 1
245 101 1
245 117 1
245 149 1
245 298 1
245 314 1
245 346 1
245 487 1
245 503 1
245 535 1
246 102 1
246 118 1
246 150 1
246 296 1
246 312 1
246 344 1
246 490 1
246 506 1
246 538 1
247 103 1
247 119 1
247 151 1
247 300 1
247 316 1
247 348 1
247 491 1
247 507 1
247 539 1
248 104 1
248 120 1
248 152 1
248 301 1
248 317 1
248 349 1
248 481 1
248 497 1
248 529 1
249 105 1
249 121 1
249 153 1
249 299 1
249 315 1
249 347 1
249 493 1
249 509 1
249 541 1
250 106 1
250 122 1
250 154 1
250 289 1
250 305 1
250 337 1
250 492 1
250 508 1
250 540 1
251 107 1
251 123 1
251 155 1
251 303 1
251 319 1
251 351 1
251 482 1
251 498 1
251 530 1
252 108 1
252 124 1
252 156 1
252 302 1
252 318 1
252 350 1
252 495 1
252 511 1
252 543 1
253 109 1
253 125 1
253 157 1
253 290 1
253 306 1
253 338 1
253 483 1
253 499 1
253 531 1
254 110 1
254 126 1
254 158 1
254 304 1
254 320 1
254 352 1
254 484 1
254 500 1
254 532 1
255 111 1
255 127 1
255 159 1
255 292 1
255 308 1
255 340 1
255 486 1
255 502 1
255 534 1
256 112 1
256 128 1
256 160 1
256 295 1
256 311 1
256 343 1
256 489 1
256 505 1
256 537 1
257 97 1
257 129 1
257 161 1
257 291 1
257 323 1
257 355 1
257 494 1
257 526 1
257 558 1
258 98 1
258 130 1
258 162 1
258 294 1
258 326 1
258 358 1
258 485 1
258 517 1
258 549 1
259 99 1
259 131 1
259 163 1
259 293 1
259 325 1
259 357 1
259 496 1
259 528 1
259 560 1
260 100 1
260 132 1
260 164 1
260 297 1
260 329 1
260 361 1
260 488 1
260 520 1
260 552 1
261 101 1
261 133 1
261 165 1
261 298 1
261 330 1
261 362 1
261 487 1
261 519 1
261 551 1
262 102 1
262 134 1
262 166 1
262 296 1
262 328 1
262 360 1
262 490 1
262 522 1
262 554 1
263 103 1
263 135 1
263 167 1
263 300 1
263 332 1
263 364 1
263 491 1
263 523 1
263 555 1
264 104 1
264 136 1
264 168 1
264 301 1
264 333 1
264 365 1
264 481 1
264 513 1
264 545 1
265 105 1
265 137 1
265 169 1
265 299 1
265 331 1
265 363 1
265 493 1
265 525 1
265 557 1
266 106 1
266 138 1
266 170 1
266 289 1
266 321 1
266 353 1
266 492 1
266 524 1
266 556 1
267 107 1
267 139 1
267 171 1
267 303 1
267 335 1
267 367 1
267 482 1
267 514 1
267 546 1
268 108 1
268 140 1
268 172 1
268 302 1
268 334 1
268 366 1
268 495 1
268 527 1
268 559 1
269 109 1
269 141 1
269 173 1
269 290 1
269 322 1
269 354 1
269 483 1
269 515 1
269 547 1
270 110 1
270 142 1
270 174 1
270 304 1
270 336 1
270 368 1
270 484 1
270 516 1
270 548 1
271 111 1
271 143 1
271 175 1
271 292 1
271 324 1
271 356 1
271 486 1
271 518 1
271 550 1
272 112 1
272 144 1
272 176 1
272 295 1
272 327 1
272 359 1
272 489 1
272 521 1
272 553 1
273 113 1
273 129 1
273 177 1
273 307 1
273 323 1
273 371 1
273 510 1
273 526 1
273 574 1
274 114 1
274 130 1
274 178 1
274 310 1
274 326 1
274 374 1
274 501 1
274 517 1
274 565 1
275 115 1
275 131 1
275 179 1
275 309 1
275 325 1
275 373 1
275 512 1
275 528 1
275 576 1
276 116 1
276 132 1
276 180 1
276 313 1
276 329 1
276 377 1
276 504 1
276 520 1
276 568 1
277 117 1
277 133 1
277 181 1
277 314 1
277 330 1
277 378 1
277 503 1
277 519 1
277 567 1
278 118 1
278 134 1
278 182 1
278 312 1
278 328 1
278 376 1
278 506 1
278 522 1
278 570 1
279 119 1
279 135 1
279 183 1
279 316 1
279 332 1
279 380 1
279 507 1
279 523 1
279 571 1
280 120 1
280 136 1
280 184 1
280 317 1
280 333 1
280 381 1
280 497 1
280 513 1
280 561 1
281 121 1
281 137 1
281 185 1
281 315 1
281 331 1
281 379 1
281 509 1
281 525 1
281 573 1
282 122 1
282 138 1
282 186 1
282 305 1
282 321 1
282 369 1
282 508 1
282 524 1
282 572 1
283 123 1
283 139 1
283 187 1
283 319 1
283 335 1
283 383 1
283 498 1
283 514 1
283 562 1
284 124 1
284 140 1
284 188 1
284 318 1
284 334 1
284 382 1
284 511 1
284 527 1
284 575 1
285 125 1
285 141 1
285 189 1
285 306 1
285 322 1
285 370 1
285 499 1
285 515 1
285 563 1
286 126 1
286 142 1
286 190 1
286 320 1
286 336 1
286 384 1
286 500 1
286 516 1
286 564 1
287 127 1
287 143 1
287 191 1
287 308 1
287 324 1
287 372 1
287 502 1
287 518 1
287 566 1
288 128 1
288 144 1
288 192 1
288 311 1
288 327 1
288 375 1
288 505 1
288 521 1
288 569 1
