%%MatrixMarket matrix coordinate integer general
234 468 2106
1 1 1
1 21 1
1 45 1
1 235 1
1 255 1
1 279 1
1 313 1
1 333 1
1 357 1
2 2 1
2 22 1
2 46 1
2 236 1
2 256 1
2 280 1
2 314 1
2 334 1
2 358 1
3 3 1
3 23 1
3 47 1
3 237 1
3 257 1
3 281 1
3 315 1
3 335 1
3 359 1
4 4 1
4 24 1
4 48 1
4 238 1
4 258 1
4 282 1
4 316 1
4 336 1
4 360 1
5 5 1
5 25 1
5 49 1
5 239 1
5 259 1
5 283 1
5 317 1
5 337 1
5 361 1
6 6 1
6 26 1
6 50 1
6 240 1
6 260 1
6 284 1
6 318 1
6 338 1
6 362 1
7 7 1
7 14 1
7 51 1
7 241 1
7 248 1
7 285 1
7 319 1
7 326 1
7 363 1
8 8 1
8 15 1
8 52 1
8 242 1
8 249 1
8 286 1
8 320 1
8 327 1
8 364 1
9 9 1
9 16 1
9 40 1
9 243 1
9 250 1
9 274 1
9 321 1
9 328 1
9 352 1
10 10 1
10 17 1
10 41 1
10 244 1
10 251 1
10 275 1
10 322 1
10 329 1
10 353 1
11 11 1
11 18 1
11 42 1
11 245 1
11 252 1
11 276 1
11 323 1
11 330 1
11 354 1
12 12 1
12 19 1
12 43 1
12 246 1
12 253 1
12 277 1
12 324 1
12 331 1
12 355 1
13 13 1
13 20 1
13 44 1
13 247 1
13 254 1
13 278 1
13 325 1
13 332 1
13 356 1
14 1 1
14 33 1
14 55 1
14 235 1
14 267 1
14 289 1
14 313 1
14 345 1
14 367 1
15 2 1
15 34 1
15 56 1
15 236 1
15 268 1
15 290 1
15 314 1
15 346 1
15 368 1
16 3 1
16 35 1
16 57 1
16 237 1
16 269 1
16 291 1
16 315 1
16 347 1
16 369 1
17 4 1
17 36 1
17 58 1
17 238 1
17 270 1
17 292 1
17 316 1
17 348 1
17 370 1
18 5 1
18 37 1
18 59 1
18 239 1
18 271 1
18 293 1
18 317 1
18 349 1
18 371 1
19 6 1
19 38 1
19 60 1
19 240 1
19 272 1
19 294 1
19 318 1
19 350 1
19 372 1
20 7 1
20 39 1
20 61 1
20 241 1
20 273 1
20 295 1
20 319 1
20 351 1
20 373 1
21 8 1
21 27 1
21 62 1
21 242 1
21 261 1
21 296 1
21 320 1
21 339 1
21 374 1
22 9 1
22 28 1
22 63 1
22 243 1
22 262 1
22 297 1
22 321 1
22 340 1
22 375 1
23 10 1
23 29 1
23 64 1
23 244 1
23 263 1
23 298 1
23 322 1
23 341 1
23 376 1
24 11 1
24 30 1
24 65 1
24 245 1
24 264 1
24 299 1
24 323 1
24 342 1
24 377 1
25 12 1
25 31 1
25 53 1
25 246 1
25 265 1
25 287 1
25 324 1
25 343 1
25 365 1
26 13 1
26 32 1
26 54 1
26 247 1
26 266 1
26 288 1
26 325 1
26 344 1
26 366 1
27 21 1
27 33 1
27 67 1
27 255 1
27 267 1
27 301 1
27 333 1
27 345 1
27 379 1
28 22 1
28 34 1
28 68 1
28 256 1
28 268 1
28 302 1
28 334 1
28 346 1
28 380 1
29 23 1
29 35 1
29 69 1
29 257 1
29 269 1
29 303 1
29 335 1
29 347 1
29 381 1
30 24 1
30 36 1
30 70 1
30 258 1
30 270 1
30 304 1
30 336 1
30 348 1
30 382 1
31 25 1
31 37 1
31 71 1
31 259 1
31 271 1
31 305 1
31 337 1
31 349 1
31 383 1
32 26 1
32 38 1
32 72 1
32 260 1
32 272 1
32 306 1
32 338 1
32 350 1
32 384 1
33 14 1
33 39 1
33 73 1
33 248 1
33 273 1
33 307 1
33 326 1
33 351 1
33 385 1
34 15 1
34 27 1
34 74 1
34 249 1
34 261 1
34 308 1
34 327 1
34 339 1
34 386 1
35 16 1
35 28 1
35 75 1
35 250 1
35 262 1
35 309 1
35 328 1
35 340 1
35 387 1
36 17 1
36 29 1
36 76 1
36 251 1
36 263 1
36 310 1
36 329 1
36 341 1
36 388 1
37 18 1
37 30 1
37 77 1
37 252 1
37 264 1
37 311 1
37 330 1
37 342 1
37 389 1
38 19 1
38 31 1
38 78 1
38 253 1
38 265 1
38 312 1
38 331 1
38 343 1
38 390 1
39 20 1
39 32 1
39 66 1
39 254 1
39 266 1
39 300 1
39 332 1
39 344 1
39 378 1
40 79 1
40 99 1
40 123 1
40 235 1
40 255 1
40 279 1
40 391 1
40 411 1
40 435 1
41 80 1
41 100 1
41 124 1
41 236 1
41 256 1
41 280 1
41 392 1
41 412 1
41 436 1
42 81 1
42 101 1
42 125 1
42 237 1
42 257 1
42 281 1
42 393 1
42 413 1
42 437 1
43 82 1
43 102 1
43 126 1
43 238 1
43 258 1
43 282 1
43 394 1
43 414 1
43 438 1
44 83 1
44 103 1
44 127 1
44 239 1
44 259 1
44 283 1
44 395 1
44 415 1
44 439 1
45 84 1
45 104 1
45 128 1
45 240 1
45 260 1
45 284 1
45 396 1
45 416 1
45 440 1
46 85 1
46 92 1
46 129 1
46 241 1
46 248 1
46 285 1
46 397 1
46 404 1
46 441 1
47 86 1
47 93 1
47 130 1
47 242 1
47 249 1
47 286 1
47 398 1
47 405 1
47 442 1
48 87 1
48 94 1
48 118 1
48 243 1
48 250 1
48 274 1
48 399 1
48 406 1
48 430 1
49 88 1
49 95 1
49 119 1
49 244 1
49 251 1
49 275 1
49 400 1
49 407 1
49 431 1
50 89 1
50 96 1
50 120 1
50 245 1
50 252 1
50 276 1
50 401 1
50 408 1
50 432 1
51 90 1
51 97 1
51 121 1
51 246 1
51 253 1
51 277 1
51 402 1
51 409 1
51 433 1
52 91 1
52 98 1
52 122 1
52 247 1
52 254 1
52 278 1
52 403 1
52 410 1
52 434 1
53 79 1
53 111 1
53 133 1
53 235 1
53 267 1
53 289 1
53 391 1
53 423 1
53 445 1
54 80 1
54 112 1
54 134 1
54 236 1
54 268 1
54 290 1
54 392 1
54 424 1
54 446 1
55 81 1
55 113 1
55 135 1
55 237 1
55 269 1
55 291 1
55 393 1
55 425 1
55 447 1
56 82 1
56 114 1
56 136 1
56 238 1
56 270 1
56 292 1
56 394 1
56 426 1
56 448 1
57 83 1
57 115 1
57 137 1
57 239 1
57 271 1
57 293 1
57 395 1
57 427 1
57 449 1
58 84 1
58 116 1
58 138 1
58 240 1
58 272 1
58 294 1
58 396 1
58 428 1
58 450 1
59 85 1
59 117 1
59 139 1
59 241 1
59 273 1
59 295 1
59 397 1
59 429 1
59 451 1
60 86 1
60 105 1
60 140 1
60 242 1
60 261 1
60 296 1
60 398 1
60 417 1
60 452 1
61 87 1
61 106 1
61 141 1
61 243 1
61 262 1
61 297 1
61 399 1
61 418 1
61 453 1
62 88 1
62 107 1
62 142 1
62 244 1
62 263 1
62 298 1
62 400 1
62 419 1
62 454 1
63 89 1
63 108 1
63 143 1
63 245 1
63 264 1
63 299 1
63 401 1
63 420 1
63 455 1
64 90 1
64 109 1
64 131 1
64 246 1
64 265 1
64 287 1
64 402 1
64 421 1
64 443 1
65 91 1
65 110 1
65 132 1
65 247 1
65 266 1
65 288 1
65 403 1
65 422 1
65 444 1
66 99 1
66 111 1
66 145 1
66 255 1
66 267 1
66 301 1
66 411 1
66 423 1
66 457 1
67 100 1
67 112 1
67 146 1
67 256 1
67 268 1
67 302 1
67 412 1
67 424 1
67 458 1
68 101 1
68 113 1
68 147 1
68 257 1
68 269 1
68 303 1
68 413 1
68 425 1
68 459 1
69 102 1
69 114 1
69 148 1
69 258 1
69 270 1
69 304 1
69 414 1
69 426 1
69 460 1
70 103 1
70 115 1
70 149 1
70 259 1
70 271 1
70 305 1
70 415 1
70 427 1
70 461 1
71 104 1
71 116 1
71 150 1
71 260 1
71 272 1
71 306 1
71 416 1
71 428 1
71 462 1
72 92 1
72 117 1
72 151 1
72 248 1
72 273 1
72 307 1
72 404 1
72 429 1
72 463 1
73 93 1
73 105 1
73 152 1
73 249 1
73 261 1
73 308 1
73 405 1
73 417 1
73 464 1
74 94 1
74 106 1
74 153 1
74 250 1
74 262 1
74 309 1
74 406 1
74 418 1
74 465 1
75 95 1
75 107 1
75 154 1
75 251 1
75 263 1
75 310 1
75 407 1
75 419 1
75 466 1
76 96 1
76 108 1
76 155 1
76 252 1
76 264 1
76 311 1
76 408 1
76 420 1
76 467 1
77 97 1
77 109 1
77 156 1
77 253 1
77 265 1
77 312 1
77 409 1
77 421 1
77 468 1
78 98 1
78 110 1
78 144 1
78 254 1
78 266 1
78 300 1
78 410 1
78 422 1
78 456 1
79 157 1
79 177 1
79 201 1
79 313 1
79 333 1
79 357 1
79 391 1
79 411 1
79 435 1
80 158 1
80 178 1
80 202 1
80 314 1
80 334 1
80 358 1
80 392 1
80 412 1
80 436 1
81 159 1
81 179 1
81 203 1
81 315 1
81 335 1
81 359 1
81 393 1
81 413 1
81 437 1
82 160 1
82 180 1
82 204 1
82 316 1
82 336 1
82 360 1
82 394 1
82 414 1
82 438 1
83 161 1
83 181 1
83 205 1
83 317 1
83 337 1
83 361 1
83 395 1
83 415 1
83 439 1
84 162 1
84 182 1
84 206 1
84 318 1
84 338 1
84 362 1
84 396 1
84 416 1
84 440 1
85 163 1
85 170 1
85 207 1
85 319 1
85 326 1
85 363 1
85 397 1
85 404 1
85 441 1
86 164 1
86 171 1
86 208 1
86 320 1
86 327 1
86 364 1
86 398 1
86 405 1
86 442 1
87 165 1
87 172 1
87 196 1
87 321 1
87 328 1
87 352 1
87 399 1
87 406 1
87 430 1
88 166 1
88 173 1
88 197 1
88 322 1
88 329 1
88 353 1
88 400 1
88 407 1
88 431 1
89 167 1
89 174 1
89 198 1
89 323 1
89 330 1
89 354 1
89 401 1
89 408 1
89 432 1
90 168 1
90 175 1
90 199 1
90 324 1
90 331 1
90 355 1
90 402 1
90 409 1
90 433 1
91 169 1
91 176 1
91 200 1
91 325 1
91 332 1
91 356 1
91 403 1
91 410 1
91 434 1
92 157 1
92 189 1
92 211 1
92 313 1
92 345 1
92 367 1
92 391 1
92 423 1
92 445 1
93 158 1
93 190 1
93 212 1
93 314 1
93 346 1
93 368 1
93 392 1
93 424 1
93 446 1
94 159 1
94 191 1
94 213 1
94 315 1
94 347 1
94 369 1
94 393 1
94 425 1
94 447 1
95 160 1
95 192 1
95 214 1
95 316 1
95 348 1
95 370 1
95 394 1
95 426 1
95 448 1
96 161 1
96 193 1
96 215 1
96 317 1
96 349 1
96 371 1
96 395 1
96 427 1
96 449 1
97 162 1
97 194 1
97 216 1
97 318 1
97 350 1
97 372 1
97 396 1
97 428 1
97 450 1
98 163 1
98 195 1
98 217 1
98 319 1
98 351 1
98 373 1
98 397 1
98 429 1
98 451 1
99 164 1
99 183 1
99 218 1
99 320 1
99 339 1
99 374 1
99 398 1
99 417 1
99 452 1
100 165 1
100 184 1
100 219 1
100 321 1
100 340 1
100 375 1
100 399 1
100 418 1
100 453 1
101 166 1
101 185 1
101 220 1
101 322 1
101 341 1
101 376 1
101 400 1
101 419 1
101 454 1
102 167 1
102 186 1
102 221 1
102 323 1
102 342 1
102 377 1
102 401 1
102 420 1
102 455 1
103 168 1
103 187 1
103 209 1
103 324 1
103 343 1
103 365 1
103 402 1
103 421 1
103 443 1
104 169 1
104 188 1
104 210 1
104 325 1
104 344 1
104 366 1
104 403 1
104 422 1
104 444 1
105 177 1
105 189 1
105 223 1
105 333 1
105 345 1
105 379 1
105 411 1
105 423 1
105 457 1
106 178 1
106 190 1
106 224 1
106 334 1
106 346 1
106 380 1
106 412 1
106 424 1
106 458 1
107 179 1
107 191 1
107 225 1
107 335 1
107 347 1
107 381 1
107 413 1
107 425 1
107 459 1
108 180 1
108 192 1
108 226 1
108 336 1
108 348 1
108 382 1
108 414 1
108 426 1
108 460 1
109 181 1
109 193 1
109 227 1
109 337 1
109 349 1
109 383 1
109 415 1
109 427 1
109 461 1
110 182 1
110 194 1
110 228 1
110 338 1
110 350 1
110 384 1
110 416 1
110 428 1
110 462 1
111 170 1
111 195 1
111 229 1
111 326 1
111 351 1
111 385 1
111 404 1
111 429 1
111 463 1
112 171 1
112 183 1
112 230 1
112 327 1
112 339 1
112 386 1
112 405 1
112 417 1
112 464 1
113 172 1
113 184 1
113 231 1
113 328 1
113 340 1
113 387 1
113 406 1
113 418 1
113 465 1
114 173 1
114 185 1
114 232 1
114 329 1
114 341 1
114 388 1
114 407 1
114 419 1
114 466 1
115 174 1
115 186 1
115 233 1
115 330 1
115 342 1
115 389 1
115 408 1
115 420 1
115 467 1
116 175 1
116 187 1
116 234 1
116 331 1
116 343 1
116 390 1
116 409 1
116 421 1
116 468 1
117 176 1
117 188 1
117 222 1
117 332 1
117 344 1
117 378 1
117 410 1
117 422 1
117 456 1
118 1 1
118 14 1
118 40 1
118 157 1
118 170 1
118 196 1
118 323 1
118 336 1
118 362 1
119 2 1
119 15 1
119 41 1
119 158 1
119 171 1
119 197 1
119 324 1
119 337 1
119 363 1
120 3 1
120 16 1
120 42 1
120 159 1
120 172 1
120 198 1
120 325 1
120 338 1
120 364 1
121 4 1
121 17 1
121 43 1
121 160 1
121 173 1
121 199 1
121 313 1
121 326 1
121 352 1
122 5 1
122 18 1
122 44 1
122 161 1
122 174 1
122 200 1
122 314 1
122 327 1
122 353 1
123 6 1
123 19 1
123 45 1
123 162 1
123 175 1
123 201 1
123 315 1
123 328 1
123 354 1
124 7 1
124 20 1
124 46 1
124 163 1
124 176 1
124 202 1
124 316 1
124 329 1
124 355 1
125 8 1
125 21 1
125 47 1
125 164 1
125 177 1
125 203 1
125 317 1
125 330 1
125 356 1
126 9 1
126 22 1
126 48 1
126 165 1
126 178 1
126 204 1
126 318 1
126 331 1
126 357 1
127 10 1
127 23 1
127 49 1
127 166 1
127 179 1
127 205 1
127 319 1
127 332 1
127 358 1
128 11 1
128 24 1
128 50 1
128 167 1
128 180 1
128 206 1
128 320 1
128 333 1
128 359 1
129 12 1
129 25 1
129 51 1
129 168 1
129 181 1
129 207 1
129 321 1
129 334 1
129 360 1
130 13 1
130 26 1
130 52 1
130 169 1
130 182 1
130 208 1
130 322 1
130 335 1
130 361 1
131 1 1
131 27 1
131 53 1
131 157 1
131 183 1
131 209 1
131 323 1
131 349 1
131 375 1
132 2 1
132 28 1
132 54 1
132 158 1
132 184 1
132 210 1
132 324 1
132 350 1
132 376 1
133 3 1
133 29 1
133 55 1
133 159 1
133 185 1
133 211 1
133 325 1
133 351 1
133 377 1
134 4 1
134 30 1
134 56 1
134 160 1
134 186 1
134 212 1
134 313 1
134 339 1
134 365 1
135 5 1
135 31 1
135 57 1
135 161 1
135 187 1
135 213 1
135 314 1
135 340 1
135 366 1
136 6 1
136 32 1
136 58 1
136 162 1
136 188 1
136 214 1
136 315 1
136 341 1
136 367 1
137 7 1
137 33 1
137 59 1
137 163 1
137 189 1
137 215 1
137 316 1
137 342 1
137 368 1
138 8 1
138 34 1
138 60 1
138 164 1
138 190 1
138 216 1
138 317 1
138 343 1
138 369 1
139 9 1
139 35 1
139 61 1
139 165 1
139 191 1
139 217 1
139 318 1
139 344 1
139 370 1
140 10 1
140 36 1
140 62 1
140 166 1
140 192 1
140 218 1
140 319 1
140 345 1
140 371 1
141 11 1
141 37 1
141 63 1
141 167 1
141 193 1
141 219 1
141 320 1
141 346 1
141 372 1
142 12 1
142 38 1
142 64 1
142 168 1
142 194 1
142 220 1
142 321 1
142 347 1
142 373 1
143 13 1
143 39 1
143 65 1
143 169 1
143 195 1
143 221 1
143 322 1
143 348 1
143 374 1
144 14 1
144 27 1
144 66 1
144 170 1
144 183 1
144 222 1
144 336 1
144 349 1
144 388 1
145 15 1
145 28 1
145 67 1
145 171 1
145 184 1
145 223 1
145 337 1
145 350 1
145 389 1
146 16 1
146 29 1
146 68 1
146 172 1
146 185 1
146 224 1
146 338 1
146 351 1
146 390 1
147 17 1
147 30 1
147 69 1
147 173 1
147 186 1
147 225 1
147 326 1
147 339 1
147 378 1
148 18 1
148 31 1
148 70 1
148 174 1
148 187 1
148 226 1
148 327 1
148 340 1
148 379 1
149 19 1
149 32 1
149 71 1
149 175 1
149 188 1
149 227 1
149 328 1
149 341 1
149 380 1
150 20 1
150 33 1
150 72 1
150 176 1
150 189 1
150 228 1
150 329 1
150 342 1
150 381 1
151 21 1
151 34 1
151 73 1
151 177 1
151 190 1
151 229 1
151 330 1
151 343 1
151 382 1
152 22 1
152 35 1
152 74 1
152 178 1
152 191 1
152 230 1
152 331 1
152 344 1
152 383 1
153 23 1
153 36 1
153 75 1
153 179 1
153 192 1
153 231 1
153 332 1
153 345 1
153 384 1
154 24 1
154 37 1
154 76 1
154 180 1
154 193 1
154 232 1
154 333 1
154 346 1
154 385 1
155 25 1
155 38 1
155 77 1
155 181 1
155 194 1
155 233 1
155 334 1
155 347 1
155 386 1
156 26 1
156 39 1
156 78 1
156 182 1
156 195 1
156 234 1
156 335 1
156 348 1
156 387 1
157 79 1
157 92 1
157 118 1
157 157 1
157 170 1
157 196 1
157 402 1
157 415 1
157 441 1
158 80 1
158 93 1
158 119 1
158 158 1
158 171 1
158 197 1
158 403 1
158 416 1
158 442 1
159 81 1
159 94 1
159 120 1
159 159 1
159 172 1
159 198 1
159 391 1
159 404 1
159 430 1
160 82 1
160 95 1
160 121 1
160 160 1
160 173 1
160 199 1
160 392 1
160 405 1
160 431 1
161 83 1
161 96 1
161 122 1
161 161 1
161 174 1
161 200 1
161 393 1
161 406 1
161 432 1
162 84 1
162 97 1
162 123 1
162 162 1
162 175 1
162 201 1
162 394 1
162 407 1
162 433 1
163 85 1
163 98 1
163 124 1
163 163 1
163 176 1
163 202 1
163 395 1
163 408 1
163 434 1
164 86 1
164 99 1
164 125 1
164 164 1
164 177 1
164 203 1
164 396 1
164 409 1
164 435 1
165 87 1
165 100 1
165 126 1
165 165 1
165 178 1
165 204 1
165 397 1
165 410 1
165 436 1
166 88 1
166 101 1
166 127 1
166 166 1
166 179 1
166 205 1
166 398 1
166 411 1
166 437 1
167 89 1
167 102 1
167 128 1
167 167 1
167 180 1
167 206 1
167 399 1
167 412 1
167 438 1
168 90 1
168 103 1
168 129 1
168 168 1
168 181 1
168 207 1
168 400 1
168 413 1
168 439 1
169 91 1
169 104 1
169 130 1
169 169 1
169 182 1
169 208 1
169 401 1
169 414 1
169 440 1
170 79 1
170 105 1
170 131 1
170 157 1
170 183 1
170 209 1
170 402 1
170 428 1
170 454 1
171 80 1
171 106 1
171 132 1
171 158 1
171 184 1
171 210 1
171 403 1
171 429 1
171 455 1
172 81 1
172 107 1
172 133 1
172 159 1
172 185 1
172 211 1
172 391 1
172 417 1
172 443 1
173 82 1
173 108 1
173 134 1
173 160 1
173 186 1
173 212 1
173 392 1
173 418 1
173 444 1
174 83 1
174 109 1
174 135 1
174 161 1
174 187 1
174 213 1
174 393 1
174 419 1
174 445 1
175 84 1
175 110 1
175 136 1
175 162 1
175 188 1
175 214 1
175 394 1
175 420 1
175 446 1
176 85 1
176 111 1
176 137 1
176 163 1
176 189 1
176 215 1
176 395 1
176 421 1
176 447 1
177 86 1
177 112 1
177 138 1
177 164 1
177 190 1
177 216 1
177 396 1
177 422 1
177 448 1
178 87 1
178 113 1
178 139 1
178 165 1
178 191 1
178 217 1
178 397 1
178 423 1
178 449 1
179 88 1
179 114 1
179 140 1
179 166 1
179 192 1
179 218 1
179 398 1
179 424 1
179 450 1
180 89 1
180 115 1
180 141 1
180 167 1
180 193 1
180 219 1
180 399 1
180 425 1
180 451 1
181 90 1
181 116 1
181 142 1
181 168 1
181 194 1
181 220 1
181 400 1
181 426 1
181 452 1
182 91 1
182 117 1
182 143 1
182 169 1
182 195 1
182 221 1
182 401 1
182 427 1
182 453 1
183 92 1
183 105 1
183 144 1
183 170 1
183 183 1
183 222 1
183 415 1
183 428 1
183 467 1
184 93 1
184 106 1
184 145 1
184 171 1
184 184 1
184 223 1
184 416 1
184 429 1
184 468 1
185 94 1
185 107 1
185 146 1
185 172 1
185 185 1
185 224 1
185 404 1
185 417 1
185 456 1
186 95 1
186 108 1
186 147 1
186 173 1
186 186 1
186 225 1
186 405 1
186 418 1
186 457 1
187 96 1
187 109 1
187 148 1
187 174 1
187 187 1
187 226 1
187 406 1
187 419 1
187 458 1
188 97 1
188 110 1
188 149 1
188 175 1
188 188 1
188 227 1
188 407 1
188 420 1
188 459 1
189 98 1
189 111 1
189 150 1
189 176 1
189 189 1
189 228 1
189 408 1
189 421 1
189 460 1
190 99 1
190 112 1
190 151 1
190 177 1
190 190 1
190 229 1
190 409 1
190 422 1
190 461 1
191 100 1
191 113 1
191 152 1
191 178 1
191 191 1
191 230 1
191 410 1
191 423 1
191 462 1
192 101 1
192 114 1
192 153 1
192 179 1
192 192 1
192 231 1
192 411 1
192 424 1
192 463 1
193 102 1
193 115 1
193 154 1
193 180 1
193 193 1
193 232 1
193 412 1
193 425 1
193 464 1
194 103 1
194 116 1
194 155 1
194 181 1
194 194 1
194 233 1
194 413 1
194 426 1
194 465 1
195 104 1
195 117 1
195 156 1
195 182 1
195 195 1
195 234 1
195 414 1
195 427 1
195 466 1
196 236 1
196 249 1
196 275 1
196 323 1
196 336 1
196 362 1
196 402 1
196 415 1
196 441 1
197 237 1
197 250 1
197 276 1
197 324 1
197 337 1
197 363 1
197 403 1
197 416 1
197 442 1
198 238 1
198 251 1
198 277 1
198 325 1
198 338 1
198 364 1
198 391 1
198 404 1
198 430 1
199 239 1
199 252 1
199 278 1
199 313 1
199 326 1
199 352 1
199 392 1
199 405 1
199 431 1
200 240 1
200 253 1
200 279 1
200 314 1
200 327 1
200 353 1
200 393 1
200 406 1
200 432 1
201 241 1
201 254 1
201 280 1
201 315 1
201 328 1
201 354 1
201 394 1
201 407 1
201 433 1
202 242 1
202 255 1
202 281 1
202 316 1
202 329 1
202 355 1
202 395 1
202 408 1
202 434 1
203 243 1
203 256 1
203 282 1
203 317 1
203 330 1
203 356 1
203 396 1
203 409 1
203 435 1
204 244 1
204 257 1
204 283 1
204 318 1
204 331 1
204 357 1
204 397 1
204 410 1
204 436 1
205 245 1
205 258 1
205 284 1
205 319 1
205 332 1
205 358 1
205 398 1
205 411 1
205 437 1
206 246 1
206 259 1
206 285 1
206 320 1
206 333 1
206 359 1
206 399 1
206 412 1
206 438 1
207 247 1
207 260 1
207 286 1
207 321 1
207 334 1
207 360 1
207 400 1
207 413 1
207 439 1
208 235 1
208 248 1
208 274 1
208 322 1
208 335 1
208 361 1
208 401 1
208 414 1
208 440 1
209 236 1
209 262 1
209 288 1
209 323 1
209 349 1
209 375 1
209 402 1
209 428 1
209 454 1
210 237 1
210 263 1
210 289 1
210 324 1
210 350 1
210 376 1
210 403 1
210 429 1
210 455 1
211 238 1
211 264 1
211 290 1
211 325 1
211 351 1
211 377 1
211 391 1
211 417 1
211 443 1
212 239 1
212 265 1
212 291 1
212 313 1
212 339 1
212 365 1
212 392 1
212 418 1
212 444 1
213 240 1
213 266 1
213 292 1
213 314 1
213 340 1
213 366 1
213 393 1
213 419 1
213 445 1
214 241 1
214 267 1
214 293 1
214 315 1
214 341 1
214 367 1
214 394 1
214 420 1
214 446 1
215 242 1
215 268 1
215 294 1
215 316 1
215 342 1
215 368 1
215 395 1
215 421 1
215 447 1
216 243 1
216 269 1
216 295 1
216 317 1
216 343 1
216 369 1
216 396 1
216 422 1
216 448 1
217 244 1
217 270 1
217 296 1
217 318 1
217 344 1
217 370 1
217 397 1
217 423 1
217 449 1
218 245 1
218 271 1
218 297 1
218 319 1
218 345 1
218 371 1
218 398 1
218 424 1
218 450 1
219 246 1
219 272 1
219 298 1
219 320 1
219 346 1
219 372 1
219 399 1
219 425 1
219 451 1
220 247 1
220 273 1
220 299 1
220 321 1
220 347 1
220 373 1
220 400 1
220 426 1
220 452 1
221 235 1
221 261 1
221 287 1
221 322 1
221 348 1
221 374 1
221 401 1
221 427 1
221 453 1
222 249 1
222 262 1
222 301 1
222 336 1
222 349 1
222 388 1
222 415 1
222 428 1
222 467 1
223 250 1
223 263 1
223 302 1
223 337 1
223 350 1
223 389 1
223 416 1
223 429 1
223 468 1
224 251 1
224 264 1
224 303 1
224 338 1
224 351 1
224 390 1
224 404 1
224 417 1
224 456 1
225 252 1
225 265 1
225 304 1
225 326 1
225 339 1
225 378 1
225 405 1
225 418 1
225 457 1
226 253 1
226 266 1
226 305 1
226 327 1
226 340 1
226 379 1
226 406 1
226 419 1
226 458 1
227 254 1
227 267 1
227 306 1
227 328 1
227 341 1
227 380 1
227 407 1
227 420 1
227 459 1
228 255 1
228 268 1
228 307 1
228 329 1
228 342 1
228 381 1
228 408 1
228 421 1
228 460 1
229 256 1
229 269 1
229 308 1
229 330 1
229 343 1
229 382 1
229 409 1
229 422 1
229 461 1
230 257 1
230 270 1
230 309 1
230 331 1
230 344 1
230 383 1
230 410 1
230 423 1
230 462 1
231 258 1
231 271 1
231 310 1
231 332 1
231 345 1
231 384 1
231 411 1
231 424 1
231 463 1
232 259 1
232 272 1
232 311 1
232 333 1
232 346 1
232 385 1
232 412 1
232 425 1
232 464 1
233 260 1
233 273 1
233 312 1
233 334 1
233 347 1
233 386 1
233 413 1
233 426 1
233 465 1
234 248 1
234 261 1
234 300 1
234 335 1
234 348 1
234 387 1
234 414 1
234 427 1
234 466 1
