%%MatrixMarket matrix coordinate integer general
160 320 2560
1 1 1
1 21 1
1 26 1
1 31 1
1 161 1
1 181 1
1 186 1
1 191 1
1 201 1
1 221 1
1 226 1
1 231 1
1 241 1
1 261 1
1 266 1
1 271 1
2 2 1
2 22 1
2 27 1
2 32 1
2 162 1
2 182 1
2 187 1
2 192 1
2 202 1
2 222 1
2 227 1
2 232 1
2 242 1
2 262 1
2 267 1
2 272 1
3 3 1
3 23 1
3 28 1
3 33 1
3 163 1
3 183 1
3 188 1
3 193 1
3 203 1
3 223 1
3 228 1
3 233 1
3 243 1
3 263 1
3 268 1
3 273 1
4 4 1
4 24 1
4 29 1
4 34 1
4 164 1
4 184 1
4 189 1
4 194 1
4 204 1
4 224 1
4 229 1
4 234 1
4 244 1
4 264 1
4 269 1
4 274 1
5 5 1
5 25 1
5 30 1
5 35 1
5 165 1
5 185 1
5 190 1
5 195 1
5 205 1
5 225 1
5 230 1
5 235 1
5 245 1
5 265 1
5 270 1
5 275 1
6 6 1
6 21 1
6 26 1
6 36 1
6 166 1
6 181 1
6 186 1
6 196 1
6 206 1
6 221 1
6 226 1
6 236 1
6 246 1
6 261 1
6 266 1
6 276 1
7 7 1
7 22 1
7 27 1
7 37 1
7 167 1
7 182 1
7 187 1
7 197 1
7 207 1
7 222 1
7 227 1
7 237 1
7 247 1
7 262 1
7 267 1
7 277 1
8 8 1
8 23 1
8 28 1
8 38 1
8 168 1
8 183 1
8 188 1
8 198 1
8 208 1
8 223 1
8 228 1
8 238 1
8 248 1
8 263 1
8 268 1
8 278 1
9 9 1
9 24 1
9 29 1
9 39 1
9 169 1
9 184 1
9 189 1
9 199 1
9 209 1
9 224 1
9 229 1
9 239 1
9 249 1
9 264 1
9 269 1
9 279 1
10 10 1
10 25 1
10 30 1
10 40 1
10 170 1
10 185 1
10 190 1
10 200 1
10 210 1
10 225 1
10 230 1
10 240 1
10 250 1
10 265 1
10 270 1
10 280 1
11 11 1
11 21 1
11 31 1
11 36 1
11 171 1
11 181 1
11 191 1
11 196 1
11 211 1
11 221 1
11 231 1
11 236 1
11 251 1
11 261 1
11 271 1
11 276 1
12 12 1
12 22 1
12 32 1
12 37 1
12 172 1
12 182 1
12 192 1
12 197 1
12 212 1
12 222 1
12 232 1
12 237 1
12 252 1
12 262 1
12 272 1
12 277 1
13 13 1
13 23 1
13 33 1
13 38 1
13 173 1
13 183 1
13 193 1
13 198 1
13 213 1
13 223 1
13 233 1
13 238 1
13 253 1
13 263 1
13 273 1
13 278 1
14 14 1
14 24 1
14 34 1
14 39 1
14 174 1
14 184 1
14 194 1
14 199 1
14 214 1
14 224 1
14 234 1
14 239 1
14 254 1
14 264 1
14 274 1
14 279 1
15 15 1
15 25 1
15 35 1
15 40 1
15 175 1
15 185 1
15 195 1
15 200 1
15 215 1
15 225 1
15 235 1
15 240 1
15 255 1
15 265 1
15 275 1
15 280 1
16 16 1
16 26 1
16 31 1
16 36 1
16 176 1
16 186 1
16 191 1
16 196 1
16 216 1
16 226 1
16 231 1
16 236 1
16 256 1
16 266 1
16 271 1
16 276 1
17 17 1
17 27 1
17 32 1
17 37 1
17 177 1
17 187 1
17 192 1
17 197 1
17 217 1
17 227 1
17 232 1
17 237 1
17 257 1
17 267 1
17 272 1
17 277 1
18 18 1
18 28 1
18 33 1
18 38 1
18 178 1
18 188 1
18 193 1
18 198 1
18 218 1
18 228 1
18 233 1
18 238 1
18 258 1
18 268 1
18 273 1
18 278 1
19 19 1
19 29 1
19 34 1
19 39 1
19 179 1
19 189 1
19 194 1
19 199 1
19 219 1
19 229 1
19 234 1
19 239 1
19 259 1
19 269 1
19 274 1
19 279 1
20 20 1
20 30 1
20 35 1
20 40 1
20 180 1
20 190 1
20 195 1
20 200 1
20 220 1
20 230 1
20 235 1
20 240 1
20 260 1
20 270 1
20 275 1
20 280 1
21 41 1
21 61 1
21 66 1
21 71 1
21 161 1
21 181 1
21 186 1
21 191 1
21 201 1
21 221 1
21 226 1
21 231 1
21 281 1
21 301 1
21 306 1
21 311 1
22 42 1
22 62 1
22 67 1
22 72 1
22 162 1
22 182 1
22 187 1
22 192 1
22 202 1
22 222 1
22 227 1
22 232 1
22 282 1
22 302 1
22 307 1
22 312 1
23 43 1
23 63 1
23 68 1
23 73 1
23 163 1
23 183 1
23 188 1
23 193 1
23 203 1
23 223 1
23 228 1
23 233 1
23 283 1
23 303 1
23 308 1
23 313 1
24 44 1
24 64 1
24 69 1
24 74 1
24 164 1
24 184 1
24 189 1
24 194 1
24 204 1
24 224 1
24 229 1
24 234 1
24 284 1
24 304 1
24 309 1
24 314 1
25 45 1
25 65 1
25 70 1
25 75 1
25 165 1
25 185 1
25 190 1
25 195 1
25 205 1
25 225 1
25 230 1
25 235 1
25 285 1
25 305 1
25 310 1
25 315 1
26 46 1
26 61 1
26 66 1
26 76 1
26 166 1
26 181 1
26 186 1
26 196 1
26 206 1
26 221 1
26 226 1
26 236 1
26 286 1
26 301 1
26 306 1
26 316 1
27 47 1
27 62 1
27 67 1
27 77 1
27 167 1
27 182 1
27 187 1
27 197 1
27 207 1
27 222 1
27 227 1
27 237 1
27 287 1
27 302 1
27 307 1
27 317 1
28 48 1
28 63 1
28 68 1
28 78 1
28 168 1
28 183 1
28 188 1
28 198 1
28 208 1
28 223 1
28 228 1
28 238 1
28 288 1
28 303 1
28 308 1
28 318 1
29 49 1
29 64 1
29 69 1
29 79 1
29 169 1
29 184 1
29 189 1
29 199 1
29 209 1
29 224 1
29 229 1
29 239 1
29 289 1
29 304 1
29 309 1
29 319 1
30 50 1
30 65 1
30 70 1
30 80 1
30 170 1
30 185 1
30 190 1
30 200 1
30 210 1
30 225 1
30 230 1
30 240 1
30 290 1
30 305 1
30 310 1
30 320 1
31 51 1
31 61 1
31 71 1
31 76 1
31 171 1
31 181 1
31 191 1
31 196 1
31 211 1
31 221 1
31 231 1
31 236 1
31 291 1
31 301 1
31 311 1
31 316 1
32 52 1
32 62 1
32 72 1
32 77 1
32 172 1
32 182 1
32 192 1
32 197 1
32 212 1
32 222 1
32 232 1
32 237 1
32 292 1
32 302 1
32 312 1
32 317 1
33 53 1
33 63 1
33 73 1
33 78 1
33 173 1
33 183 1
33 193 1
33 198 1
33 213 1
33 223 1
33 233 1
33 238 1
33 293 1
33 303 1
33 313 1
33 318 1
34 54 1
34 64 1
34 74 1
34 79 1
34 174 1
34 184 1
34 194 1
34 199 1
34 214 1
34 224 1
34 234 1
34 239 1
34 294 1
34 304 1
34 314 1
34 319 1
35 55 1
35 65 1
35 75 1
35 80 1
35 175 1
35 185 1
35 195 1
35 200 1
35 215 1
35 225 1
35 235 1
35 240 1
35 295 1
35 305 1
35 315 1
35 320 1
36 56 1
36 66 1
36 71 1
36 76 1
36 176 1
36 186 1
36 191 1
36 196 1
36 216 1
36 226 1
36 231 1
36 236 1
36 296 1
36 306 1
36 311 1
36 316 1
37 57 1
37 67 1
37 72 1
37 77 1
37 177 1
37 187 1
37 192 1
37 197 1
37 217 1
37 227 1
37 232 1
37 237 1
37 297 1
37 307 1
37 312 1
37 317 1
38 58 1
38 68 1
38 73 1
38 78 1
38 178 1
38 188 1
38 193 1
38 198 1
38 218 1
38 228 1
38 233 1
38 238 1
38 298 1
38 308 1
38 313 1
38 318 1
39 59 1
39 69 1
39 74 1
39 79 1
39 179 1
39 189 1
39 194 1
39 199 1
39 219 1
39 229 1
39 234 1
39 239 1
39 299 1
39 309 1
39 314 1
39 319 1
40 60 1
40 70 1
40 75 1
40 80 1
40 180 1
40 190 1
40 195 1
40 200 1
40 220 1
40 230 1
40 235 1
40 240 1
40 300 1
40 310 1
40 315 1
40 320 1
41 81 1
41 101 1
41 106 1
41 111 1
41 161 1
41 181 1
41 186 1
41 191 1
41 241 1
41 261 1
41 266 1
41 271 1
41 281 1
41 301 1
41 306 1
41 311 1
42 82 1
42 102 1
42 107 1
42 112 1
42 162 1
42 182 1
42 187 1
42 192 1
42 242 1
42 262 1
42 267 1
42 272 1
42 282 1
42 302 1
42 307 1
42 312 1
43 83 1
43 103 1
43 108 1
43 113 1
43 163 1
43 183 1
43 188 1
43 193 1
43 243 1
43 263 1
43 268 1
43 273 1
43 283 1
43 303 1
43 308 1
43 313 1
44 84 1
44 104 1
44 109 1
44 114 1
44 164 1
44 184 1
44 189 1
44 194 1
44 244 1
44 264 1
44 269 1
44 274 1
44 284 1
44 304 1
44 309 1
44 314 1
45 85 1
45 105 1
45 110 1
45 115 1
45 165 1
45 185 1
45 190 1
45 195 1
45 245 1
45 265 1
45 270 1
45 275 1
45 285 1
45 305 1
45 310 1
45 315 1
46 86 1
46 101 1
46 106 1
46 116 1
46 166 1
46 181 1
46 186 1
46 196 1
46 246 1
46 261 1
46 266 1
46 276 1
46 286 1
46 301 1
46 306 1
46 316 1
47 87 1
47 102 1
47 107 1
47 117 1
47 167 1
47 182 1
47 187 1
47 197 1
47 247 1
47 262 1
47 267 1
47 277 1
47 287 1
47 302 1
47 307 1
47 317 1
48 88 1
48 103 1
48 108 1
48 118 1
48 168 1
48 183 1
48 188 1
48 198 1
48 248 1
48 263 1
48 268 1
48 278 1
48 288 1
48 303 1
48 308 1
48 318 1
49 89 1
49 104 1
49 109 1
49 119 1
49 169 1
49 184 1
49 189 1
49 199 1
49 249 1
49 264 1
49 269 1
49 279 1
49 289 1
49 304 1
49 309 1
49 319 1
50 90 1
50 105 1
50 110 1
50 120 1
50 170 1
50 185 1
50 190 1
50 200 1
50 250 1
50 265 1
50 270 1
50 280 1
50 290 1
50 305 1
50 310 1
50 320 1
51 91 1
51 101 1
51 111 1
51 116 1
51 171 1
51 181 1
51 191 1
51 196 1
51 251 1
51 261 1
51 271 1
51 276 1
51 291 1
51 301 1
51 311 1
51 316 1
52 92 1
52 102 1
52 112 1
52 117 1
52 172 1
52 182 1
52 192 1
52 197 1
52 252 1
52 262 1
52 272 1
52 277 1
52 292 1
52 302 1
52 312 1
52 317 1
53 93 1
53 103 1
53 113 1
53 118 1
53 173 1
53 183 1
53 193 1
53 198 1
53 253 1
53 263 1
53 273 1
53 278 1
53 293 1
53 303 1
53 313 1
53 318 1
54 94 1
54 104 1
54 114 1
54 119 1
54 174 1
54 184 1
54 194 1
54 199 1
54 254 1
54 264 1
54 274 1
54 279 1
54 294 1
54 304 1
54 314 1
54 319 1
55 95 1
55 105 1
55 115 1
55 120 1
55 175 1
55 185 1
55 195 1
55 200 1
55 255 1
55 265 1
55 275 1
55 280 1
55 295 1
55 305 1
55 315 1
55 320 1
56 96 1
56 106 1
56 111 1
56 116 1
56 176 1
56 186 1
56 191 1
56 196 1
56 256 1
56 266 1
56 271 1
56 276 1
56 296 1
56 306 1
56 311 1
56 316 1
57 97 1
57 107 1
57 112 1
57 117 1
57 177 1
57 187 1
57 192 1
57 197 1
57 257 1
57 267 1
57 272 1
57 277 1
57 297 1
57 307 1
57 312 1
57 317 1
58 98 1
58 108 1
58 113 1
58 118 1
58 178 1
58 188 1
58 193 1
58 198 1
58 258 1
58 268 1
58 273 1
58 278 1
58 298 1
58 308 1
58 313 1
58 318 1
59 99 1
59 109 1
59 114 1
59 119 1
59 179 1
59 189 1
59 194 1
59 199 1
59 259 1
59 269 1
59 274 1
59 279 1
59 299 1
59 309 1
59 314 1
59 319 1
60 100 1
60 110 1
60 115 1
60 120 1
60 180 1
60 190 1
60 195 1
60 200 1
60 260 1
60 270 1
60 275 1
60 280 1
60 300 1
60 310 1
60 315 1
60 320 1
61 121 1
61 141 1
61 146 1
61 151 1
61 201 1
61 221 1
61 226 1
61 231 1
61 241 1
61 261 1
61 266 1
61 271 1
61 281 1
61 301 1
61 306 1
61 311 1
62 122 1
62 142 1
62 147 1
62 152 1
62 202 1
62 222 1
62 227 1
62 232 1
62 242 1
62 262 1
62 267 1
62 272 1
62 282 1
62 302 1
62 307 1
62 312 1
63 123 1
63 143 1
63 148 1
63 153 1
63 203 1
63 223 1
63 228 1
63 233 1
63 243 1
63 263 1
63 268 1
63 273 1
63 283 1
63 303 1
63 308 1
63 313 1
64 124 1
64 144 1
64 149 1
64 154 1
64 204 1
64 224 1
64 229 1
64 234 1
64 244 1
64 264 1
64 269 1
64 274 1
64 284 1
64 304 1
64 309 1
64 314 1
65 125 1
65 145 1
65 150 1
65 155 1
65 205 1
65 225 1
65 230 1
65 235 1
65 245 1
65 265 1
65 270 1
65 275 1
65 285 1
65 305 1
65 310 1
65 315 1
66 126 1
66 141 1
66 146 1
66 156 1
66 206 1
66 221 1
66 226 1
66 236 1
66 246 1
66 261 1
66 266 1
66 276 1
66 286 1
66 301 1
66 306 1
66 316 1
67 127 1
67 142 1
67 147 1
67 157 1
67 207 1
67 222 1
67 227 1
67 237 1
67 247 1
67 262 1
67 267 1
67 277 1
67 287 1
67 302 1
67 307 1
67 317 1
68 128 1
68 143 1
68 148 1
68 158 1
68 208 1
68 223 1
68 228 1
68 238 1
68 248 1
68 263 1
68 268 1
68 278 1
68 288 1
68 303 1
68 308 1
68 318 1
69 129 1
69 144 1
69 149 1
69 159 1
69 209 1
69 224 1
69 229 1
69 239 1
69 249 1
69 264 1
69 269 1
69 279 1
69 289 1
69 304 1
69 309 1
69 319 1
70 130 1
70 145 1
70 150 1
70 160 1
70 210 1
70 225 1
70 230 1
70 240 1
70 250 1
70 265 1
70 270 1
70 280 1
70 290 1
70 305 1
70 310 1
70 320 1
71 131 1
71 141 1
71 151 1
71 156 1
71 211 1
71 221 1
71 231 1
71 236 1
71 251 1
71 261 1
71 271 1
71 276 1
71 291 1
71 301 1
71 311 1
71 316 1
72 132 1
72 142 1
72 152 1
72 157 1
72 212 1
72 222 1
72 232 1
72 237 1
72 252 1
72 262 1
72 272 1
72 277 1
72 292 1
72 302 1
72 312 1
72 317 1
73 133 1
73 143 1
73 153 1
73 158 1
73 213 1
73 223 1
73 233 1
73 238 1
73 253 1
73 263 1
73 273 1
73 278 1
73 293 1
73 303 1
73 313 1
73 318 1
74 134 1
74 144 1
74 154 1
74 159 1
74 214 1
74 224 1
74 234 1
74 239 1
74 254 1
74 264 1
74 274 1
74 279 1
74 294 1
74 304 1
74 314 1
74 319 1
75 135 1
75 145 1
75 155 1
75 160 1
75 215 1
75 225 1
75 235 1
75 240 1
75 255 1
75 265 1
75 275 1
75 280 1
75 295 1
75 305 1
75 315 1
75 320 1
76 136 1
76 146 1
76 151 1
76 156 1
76 216 1
76 226 1
76 231 1
76 236 1
76 256 1
76 266 1
76 271 1
76 276 1
76 296 1
76 306 1
76 311 1
76 316 1
77 137 1
77 147 1
77 152 1
77 157 1
77 217 1
77 227 1
77 232 1
77 237 1
77 257 1
77 267 1
77 272 1
77 277 1
77 297 1
77 307 1
77 312 1
77 317 1
78 138 1
78 148 1
78 153 1
78 158 1
78 218 1
78 228 1
78 233 1
78 238 1
78 258 1
78 268 1
78 273 1
78 278 1
78 298 1
78 308 1
78 313 1
78 318 1
79 139 1
79 149 1
79 154 1
79 159 1
79 219 1
79 229 1
79 234 1
79 239 1
79 259 1
79 269 1
79 274 1
79 279 1
79 299 1
79 309 1
79 314 1
79 319 1
80 140 1
80 150 1
80 155 1
80 160 1
80 220 1
80 230 1
80 235 1
80 240 1
80 260 1
80 270 1
80 275 1
80 280 1
80 300 1
80 310 1
80 315 1
80 320 1
81 1 1
81 25 1
81 30 1
81 39 1
81 121 1
81 145 1
81 150 1
81 159 1
81 202 1
81 221 1
81 226 1
81 240 1
81 242 1
81 261 1
81 266 1
81 280 1
82 2 1
82 21 1
82 26 1
82 40 1
82 122 1
82 141 1
82 146 1
82 160 1
82 203 1
82 222 1
82 227 1
82 236 1
82 243 1
82 262 1
82 267 1
82 276 1
83 3 1
83 22 1
83 27 1
83 36 1
83 123 1
83 142 1
83 147 1
83 156 1
83 204 1
83 223 1
83 228 1
83 237 1
83 244 1
83 263 1
83 268 1
83 277 1
84 4 1
84 23 1
84 28 1
84 37 1
84 124 1
84 143 1
84 148 1
84 157 1
84 205 1
84 224 1
84 229 1
84 238 1
84 245 1
84 264 1
84 269 1
84 278 1
85 5 1
85 24 1
85 29 1
85 38 1
85 125 1
85 144 1
85 149 1
85 158 1
85 201 1
85 225 1
85 230 1
85 239 1
85 241 1
85 265 1
85 270 1
85 279 1
86 6 1
86 25 1
86 35 1
86 39 1
86 126 1
86 145 1
86 155 1
86 159 1
86 207 1
86 221 1
86 231 1
86 240 1
86 247 1
86 261 1
86 271 1
86 280 1
87 7 1
87 21 1
87 31 1
87 40 1
87 127 1
87 141 1
87 151 1
87 160 1
87 208 1
87 222 1
87 232 1
87 236 1
87 248 1
87 262 1
87 272 1
87 276 1
88 8 1
88 22 1
88 32 1
88 36 1
88 128 1
88 142 1
88 152 1
88 156 1
88 209 1
88 223 1
88 233 1
88 237 1
88 249 1
88 263 1
88 273 1
88 277 1
89 9 1
89 23 1
89 33 1
89 37 1
89 129 1
89 143 1
89 153 1
89 157 1
89 210 1
89 224 1
89 234 1
89 238 1
89 250 1
89 264 1
89 274 1
89 278 1
90 10 1
90 24 1
90 34 1
90 38 1
90 130 1
90 144 1
90 154 1
90 158 1
90 206 1
90 225 1
90 235 1
90 239 1
90 246 1
90 265 1
90 275 1
90 279 1
91 11 1
91 30 1
91 35 1
91 39 1
91 131 1
91 150 1
91 155 1
91 159 1
91 212 1
91 226 1
91 231 1
91 240 1
91 252 1
91 266 1
91 271 1
91 280 1
92 12 1
92 26 1
92 31 1
92 40 1
92 132 1
92 146 1
92 151 1
92 160 1
92 213 1
92 227 1
92 232 1
92 236 1
92 253 1
92 267 1
92 272 1
92 276 1
93 13 1
93 27 1
93 32 1
93 36 1
93 133 1
93 147 1
93 152 1
93 156 1
93 214 1
93 228 1
93 233 1
93 237 1
93 254 1
93 268 1
93 273 1
93 277 1
94 14 1
94 28 1
94 33 1
94 37 1
94 134 1
94 148 1
94 153 1
94 157 1
94 215 1
94 229 1
94 234 1
94 238 1
94 255 1
94 269 1
94 274 1
94 278 1
95 15 1
95 29 1
95 34 1
95 38 1
95 135 1
95 149 1
95 154 1
95 158 1
95 211 1
95 230 1
95 235 1
95 239 1
95 251 1
95 270 1
95 275 1
95 279 1
96 16 1
96 25 1
96 30 1
96 35 1
96 136 1
96 145 1
96 150 1
96 155 1
96 217 1
96 221 1
96 226 1
96 231 1
96 257 1
96 261 1
96 266 1
96 271 1
97 17 1
97 21 1
97 26 1
97 31 1
97 137 1
97 141 1
97 146 1
97 151 1
97 218 1
97 222 1
97 227 1
97 232 1
97 258 1
97 262 1
97 267 1
97 272 1
98 18 1
98 22 1
98 27 1
98 32 1
98 138 1
98 142 1
98 147 1
98 152 1
98 219 1
98 223 1
98 228 1
98 233 1
98 259 1
98 263 1
98 268 1
98 273 1
99 19 1
99 23 1
99 28 1
99 33 1
99 139 1
99 143 1
99 148 1
99 153 1
99 220 1
99 224 1
99 229 1
99 234 1
99 260 1
99 264 1
99 269 1
99 274 1
100 20 1
100 24 1
100 29 1
100 34 1
100 140 1
100 144 1
100 149 1
100 154 1
100 216 1
100 225 1
100 230 1
100 235 1
100 256 1
100 265 1
100 270 1
100 275 1
101 41 1
101 65 1
101 70 1
101 79 1
101 121 1
101 145 1
101 150 1
101 159 1
101 202 1
101 221 1
101 226 1
101 240 1
101 282 1
101 301 1
101 306 1
101 320 1
102 42 1
102 61 1
102 66 1
102 80 1
102 122 1
102 141 1
102 146 1
102 160 1
102 203 1
102 222 1
102 227 1
102 236 1
102 283 1
102 302 1
102 307 1
102 316 1
103 43 1
103 62 1
103 67 1
103 76 1
103 123 1
103 142 1
103 147 1
103 156 1
103 204 1
103 223 1
103 228 1
103 237 1
103 284 1
103 303 1
103 308 1
103 317 1
104 44 1
104 63 1
104 68 1
104 77 1
104 124 1
104 143 1
104 148 1
104 157 1
104 205 1
104 224 1
104 229 1
104 238 1
104 285 1
104 304 1
104 309 1
104 318 1
105 45 1
105 64 1
105 69 1
105 78 1
105 125 1
105 144 1
105 149 1
105 158 1
105 201 1
105 225 1
105 230 1
105 239 1
105 281 1
105 305 1
105 310 1
105 319 1
106 46 1
106 65 1
106 75 1
106 79 1
106 126 1
106 145 1
106 155 1
106 159 1
106 207 1
106 221 1
106 231 1
106 240 1
106 287 1
106 301 1
106 311 1
106 320 1
107 47 1
107 61 1
107 71 1
107 80 1
107 127 1
107 141 1
107 151 1
107 160 1
107 208 1
107 222 1
107 232 1
107 236 1
107 288 1
107 302 1
107 312 1
107 316 1
108 48 1
108 62 1
108 72 1
108 76 1
108 128 1
108 142 1
108 152 1
108 156 1
108 209 1
108 223 1
108 233 1
108 237 1
108 289 1
108 303 1
108 313 1
108 317 1
109 49 1
109 63 1
109 73 1
109 77 1
109 129 1
109 143 1
109 153 1
109 157 1
109 210 1
109 224 1
109 234 1
109 238 1
109 290 1
109 304 1
109 314 1
109 318 1
110 50 1
110 64 1
110 74 1
110 78 1
110 130 1
110 144 1
110 154 1
110 158 1
110 206 1
110 225 1
110 235 1
110 239 1
110 286 1
110 305 1
110 315 1
110 319 1
111 51 1
111 70 1
111 75 1
111 79 1
111 131 1
111 150 1
111 155 1
111 159 1
111 212 1
111 226 1
111 231 1
111 240 1
111 292 1
111 306 1
111 311 1
111 320 1
112 52 1
112 66 1
112 71 1
112 80 1
112 132 1
112 146 1
112 151 1
112 160 1
112 213 1
112 227 1
112 232 1
112 236 1
112 293 1
112 307 1
112 312 1
112 316 1
113 53 1
113 67 1
113 72 1
113 76 1
113 133 1
113 147 1
113 152 1
113 156 1
113 214 1
113 228 1
113 233 1
113 237 1
113 294 1
113 308 1
113 313 1
113 317 1
114 54 1
114 68 1
114 73 1
114 77 1
114 134 1
114 148 1
114 153 1
114 157 1
114 215 1
114 229 1
114 234 1
114 238 1
114 295 1
114 309 1
114 314 1
114 318 1
115 55 1
115 69 1
115 74 1
115 78 1
115 135 1
115 149 1
115 154 1
115 158 1
115 211 1
115 230 1
115 235 1
115 239 1
115 291 1
115 310 1
115 315 1
115 319 1
116 56 1
116 65 1
116 70 1
116 75 1
116 136 1
116 145 1
116 150 1
116 155 1
116 217 1
116 221 1
116 226 1
116 231 1
116 297 1
116 301 1
116 306 1
116 311 1
117 57 1
117 61 1
117 66 1
117 71 1
117 137 1
117 141 1
117 146 1
117 151 1
117 218 1
117 222 1
117 227 1
117 232 1
117 298 1
117 302 1
117 307 1
117 312 1
118 58 1
118 62 1
118 67 1
118 72 1
118 138 1
118 142 1
118 147 1
118 152 1
118 219 1
118 223 1
118 228 1
118 233 1
118 299 1
118 303 1
118 308 1
118 313 1
119 59 1
119 63 1
119 68 1
119 73 1
119 139 1
119 143 1
119 148 1
119 153 1
119 220 1
119 224 1
119 229 1
119 234 1
119 300 1
119 304 1
119 309 1
119 314 1
120 60 1
120 64 1
120 69 1
120 74 1
120 140 1
120 144 1
120 149 1
120 154 1
120 216 1
120 225 1
120 230 1
120 235 1
120 296 1
120 305 1
120 310 1
120 315 1
121 81 1
121 105 1
121 110 1
121 119 1
121 121 1
121 145 1
121 150 1
121 159 1
121 242 1
121 261 1
121 266 1
121 280 1
121 282 1
121 301 1
121 306 1
121 320 1
122 82 1
122 101 1
122 106 1
122 120 1
122 122 1
122 141 1
122 146 1
122 160 1
122 243 1
122 262 1
122 267 1
122 276 1
122 283 1
122 302 1
122 307 1
122 316 1
123 83 1
123 102 1
123 107 1
123 116 1
123 123 1
123 142 1
123 147 1
123 156 1
123 244 1
123 263 1
123 268 1
123 277 1
123 284 1
123 303 1
123 308 1
123 317 1
124 84 1
124 103 1
124 108 1
124 117 1
124 124 1
124 143 1
124 148 1
124 157 1
124 245 1
124 264 1
124 269 1
124 278 1
124 285 1
124 304 1
124 309 1
124 318 1
125 85 1
125 104 1
125 109 1
125 118 1
125 125 1
125 144 1
125 149 1
125 158 1
125 241 1
125 265 1
125 270 1
125 279 1
125 281 1
125 305 1
125 310 1
125 319 1
126 86 1
126 105 1
126 115 1
126 119 1
126 126 1
126 145 1
126 155 1
126 159 1
126 247 1
126 261 1
126 271 1
126 280 1
126 287 1
126 301 1
126 311 1
126 320 1
127 87 1
127 101 1
127 111 1
127 120 1
127 127 1
127 141 1
127 151 1
127 160 1
127 248 1
127 262 1
127 272 1
127 276 1
127 288 1
127 302 1
127 312 1
127 316 1
128 88 1
128 102 1
128 112 1
128 116 1
128 128 1
128 142 1
128 152 1
128 156 1
128 249 1
128 263 1
128 273 1
128 277 1
128 289 1
128 303 1
128 313 1
128 317 1
129 89 1
129 103 1
129 113 1
129 117 1
129 129 1
129 143 1
129 153 1
129 157 1
129 250 1
129 264 1
129 274 1
129 278 1
129 290 1
129 304 1
129 314 1
129 318 1
130 90 1
130 104 1
130 114 1
130 118 1
130 130 1
130 144 1
130 154 1
130 158 1
130 246 1
130 265 1
130 275 1
130 279 1
130 286 1
130 305 1
130 315 1
130 319 1
131 91 1
131 110 1
131 115 1
131 119 1
131 131 1
131 150 1
131 155 1
131 159 1
131 252 1
131 266 1
131 271 1
131 280 1
131 292 1
131 306 1
131 311 1
131 320 1
132 92 1
132 106 1
132 111 1
132 120 1
132 132 1
132 146 1
132 151 1
132 160 1
132 253 1
132 267 1
132 272 1
132 276 1
132 293 1
132 307 1
132 312 1
132 316 1
133 93 1
133 107 1
133 112 1
133 116 1
133 133 1
133 147 1
133 152 1
133 156 1
133 254 1
133 268 1
133 273 1
133 277 1
133 294 1
133 308 1
133 313 1
133 317 1
134 94 1
134 108 1
134 113 1
134 117 1
134 134 1
134 148 1
134 153 1
134 157 1
134 255 1
134 269 1
134 274 1
134 278 1
134 295 1
134 309 1
134 314 1
134 318 1
135 95 1
135 109 1
135 114 1
135 118 1
135 135 1
135 149 1
135 154 1
135 158 1
135 251 1
135 270 1
135 275 1
135 279 1
135 291 1
135 310 1
135 315 1
135 319 1
136 96 1
136 105 1
136 110 1
136 115 1
136 136 1
136 145 1
136 150 1
136 155 1
136 257 1
136 261 1
136 266 1
136 271 1
136 297 1
136 301 1
136 306 1
136 311 1
137 97 1
137 101 1
137 106 1
137 111 1
137 137 1
137 141 1
137 146 1
137 151 1
137 258 1
137 262 1
137 267 1
137 272 1
137 298 1
137 302 1
137 307 1
137 312 1
138 98 1
138 102 1
138 107 1
138 112 1
138 138 1
138 142 1
138 147 1
138 152 1
138 259 1
138 263 1
138 268 1
138 273 1
138 299 1
138 303 1
138 308 1
138 313 1
139 99 1
139 103 1
139 108 1
139 113 1
139 139 1
139 143 1
139 148 1
139 153 1
139 260 1
139 264 1
139 269 1
139 274 1
139 300 1
139 304 1
139 309 1
139 314 1
140 100 1
140 104 1
140 109 1
140 114 1
140 140 1
140 144 1
140 149 1
140 154 1
140 256 1
140 265 1
140 270 1
140 275 1
140 296 1
140 305 1
140 310 1
140 315 1
141 161 1
141 185 1
141 190 1
141 199 1
141 202 1
141 221 1
141 226 1
141 240 1
141 242 1
141 261 1
141 266 1
141 280 1
141 282 1
141 301 1
141 306 1
141 320 1
142 162 1
142 181 1
142 186 1
142 200 1
142 203 1
142 222 1
142 227 1
142 236 1
142 243 1
142 262 1
142 267 1
142 276 1
142 283 1
142 302 1
142 307 1
142 316 1
143 163 1
143 182 1
143 187 1
143 196 1
143 204 1
143 223 1
143 228 1
143 237 1
143 244 1
143 263 1
143 268 1
143 277 1
143 284 1
143 303 1
143 308 1
143 317 1
144 164 1
144 183 1
144 188 1
144 197 1
144 205 1
144 224 1
144 229 1
144 238 1
144 245 1
144 264 1
144 269 1
144 278 1
144 285 1
144 304 1
144 309 1
144 318 1
145 165 1
145 184 1
145 189 1
145 198 1
145 201 1
145 225 1
145 230 1
145 239 1
145 241 1
145 265 1
145 270 1
145 279 1
145 281 1
145 305 1
145 310 1
145 319 1
146 166 1
146 185 1
146 195 1
146 199 1
146 207 1
146 221 1
146 231 1
146 240 1
146 247 1
146 261 1
146 271 1
146 280 1
146 287 1
146 301 1
146 311 1
146 320 1
147 167 1
147 181 1
147 191 1
147 200 1
147 208 1
147 222 1
147 232 1
147 236 1
147 248 1
147 262 1
147 272 1
147 276 1
147 288 1
147 302 1
147 312 1
147 316 1
148 168 1
148 182 1
148 192 1
148 196 1
148 209 1
148 223 1
148 233 1
148 237 1
148 249 1
148 263 1
148 273 1
148 277 1
148 289 1
148 303 1
148 313 1
148 317 1
149 169 1
149 183 1
149 193 1
149 197 1
149 210 1
149 224 1
149 234 1
149 238 1
149 250 1
149 264 1
149 274 1
149 278 1
149 290 1
149 304 1
149 314 1
149 318 1
150 170 1
150 184 1
150 194 1
150 198 1
150 206 1
150 225 1
150 235 1
150 239 1
150 246 1
150 265 1
150 275 1
150 279 1
150 286 1
150 305 1
150 315 1
150 319 1
151 171 1
151 190 1
151 195 1
151 199 1
151 212 1
151 226 1
151 231 1
151 240 1
151 252 1
151 266 1
151 271 1
151 280 1
151 292 1
151 306 1
151 311 1
151 320 1
152 172 1
152 186 1
152 191 1
152 200 1
152 213 1
152 227 1
152 232 1
152 236 1
152 253 1
152 267 1
152 272 1
152 276 1
152 293 1
152 307 1
152 312 1
152 316 1
153 173 1
153 187 1
153 192 1
153 196 1
153 214 1
153 228 1
153 233 1
153 237 1
153 254 1
153 268 1
153 273 1
153 277 1
153 294 1
153 308 1
153 313 1
153 317 1
154 174 1
154 188 1
154 193 1
154 197 1
154 215 1
154 229 1
154 234 1
154 238 1
154 255 1
154 269 1
154 274 1
154 278 1
154 295 1
154 309 1
154 314 1
154 318 1
155 175 1
155 189 1
155 194 1
155 198 1
155 211 1
155 230 1
155 235 1
155 239 1
155 251 1
155 270 1
155 275 1
155 279 1
155 291 1
155 310 1
155 315 1
155 319 1
156 176 1
156 185 1
156 190 1
156 195 1
156 217 1
156 221 1
156 226 1
156 231 1
156 257 1
156 261 1
156 266 1
156 271 1
156 297 1
156 301 1
156 306 1
156 311 1
157 177 1
157 181 1
157 186 1
157 191 1
157 218 1
157 222 1
157 227 1
157 232 1
157 258 1
157 262 1
157 267 1
157 272 1
157 298 1
157 302 1
157 307 1
157 312 1
158 178 1
158 182 1
158 187 1
158 192 1
158 219 1
158 223 1
158 228 1
158 233 1
158 259 1
158 263 1
158 268 1
158 273 1
158 299 1
158 303 1
158 308 1
158 313 1
159 179 1
159 183 1
159 188 1
159 193 1
159 220 1
159 224 1
159 229 1
159 234 1
159 260 1
159 264 1
159 269 1
159 274 1
159 300 1
159 304 1
159 309 1
159 314 1
160 180 1
160 184 1
160 189 1
160 194 1
160 216 1
160 225 1
160 230 1
160 235 1
160 256 1
160 265 1
160 270 1
160 275 1
160 296 1
160 305 1
160 310 1
160 315 1
